TiOF2 2x2x2 config 0283                 
   1.00000000000000     
     7.8709015832856570   -0.0000000003434254    0.0000000063867217
    -0.0000000016904901    7.6591792127395539    0.0000000058676490
     0.0000000013388249    0.0000000059309943    7.6562268029145288
   Ti   O    F 
     8     8    16
Direct
  0.0000000001626079 -0.0118598276984202 -0.0126745722439858
 -0.0000000001836722 -0.0118598166654043  0.5126745389635884
 -0.0000000001648686  0.5118599541764409  0.0126745262011968
  0.0000000001663212  0.5118599668758534  0.4873254778253496
  0.4999999998478492  0.0118597215530534  0.0126745828110293
  0.5000000001809761  0.0118597076477065  0.4873254484269499
  0.5000000001812533  0.4881401665644156 -0.0126745478416950
  0.4999999998267687  0.4881401512937891  0.5126745509430131
 -0.0000000000010043  0.7500000324214032 -0.0000000593507597
 -0.0000000000011645  0.7500000567927481  0.5000000528337228
  0.4999999999974421  0.2499999790258220 -0.0000000161651488
  0.4999999999960333  0.2499999356278116  0.5000000174355327
 -0.0000000000155390  0.0052968872408539  0.7499999959852703
  0.0000000000146977  0.4947034119188543  0.2500000045740088
  0.5000000000134449 -0.0052968420826275  0.2499999978591161
  0.4999999999794358  0.5052967308278640  0.7499999914449024
  0.2499999877054579  0.0000000079166337 -0.0000000334146152
  0.2499999752525802  0.0000000106596203  0.5000000274469280
  0.2499999724532453  0.4999999734812746  0.0000000216664205
  0.2499999850535376  0.4999999781935234  0.4999999774557228
  0.7500000122928743  0.0000000079134823 -0.0000000334276264
  0.7500000247508561  0.0000000106582981  0.5000000274437942
  0.7500000275493767  0.4999999734656198  0.0000000216745831
  0.7500000149331422  0.4999999782051725  0.4999999774637269
  0.0000000000056786  0.2500000491853251  0.0000000691778992
  0.0000000000080433  0.2500000811246372  0.4999999277129943
  0.4999999999956387  0.7499999678756217  0.0000000116633671
  0.4999999999908595  0.7499999027845868  0.4999999873660476
  0.0000000000266782  0.0098102639083326  0.2499999804555376
 -0.0000000000164640  0.4901897759587243  0.7499999921379462
  0.4999999999770520 -0.0098103553959584  0.7500000317103643
  0.5000000000208604  0.5098101585449428  0.2500000237648188
 
  0.00000000E+00  0.00000000E+00  0.00000000E+00
  0.00000000E+00  0.00000000E+00  0.00000000E+00
  0.00000000E+00  0.00000000E+00  0.00000000E+00
  0.00000000E+00  0.00000000E+00  0.00000000E+00
  0.00000000E+00  0.00000000E+00  0.00000000E+00
  0.00000000E+00  0.00000000E+00  0.00000000E+00
  0.00000000E+00  0.00000000E+00  0.00000000E+00
  0.00000000E+00  0.00000000E+00  0.00000000E+00
  0.00000000E+00  0.00000000E+00  0.00000000E+00
  0.00000000E+00  0.00000000E+00  0.00000000E+00
  0.00000000E+00  0.00000000E+00  0.00000000E+00
  0.00000000E+00  0.00000000E+00  0.00000000E+00
  0.00000000E+00  0.00000000E+00  0.00000000E+00
  0.00000000E+00  0.00000000E+00  0.00000000E+00
  0.00000000E+00  0.00000000E+00  0.00000000E+00
  0.00000000E+00  0.00000000E+00  0.00000000E+00
  0.00000000E+00  0.00000000E+00  0.00000000E+00
  0.00000000E+00  0.00000000E+00  0.00000000E+00
  0.00000000E+00  0.00000000E+00  0.00000000E+00
  0.00000000E+00  0.00000000E+00  0.00000000E+00
  0.00000000E+00  0.00000000E+00  0.00000000E+00
  0.00000000E+00  0.00000000E+00  0.00000000E+00
  0.00000000E+00  0.00000000E+00  0.00000000E+00
  0.00000000E+00  0.00000000E+00  0.00000000E+00
  0.00000000E+00  0.00000000E+00  0.00000000E+00
  0.00000000E+00  0.00000000E+00  0.00000000E+00
  0.00000000E+00  0.00000000E+00  0.00000000E+00
  0.00000000E+00  0.00000000E+00  0.00000000E+00
  0.00000000E+00  0.00000000E+00  0.00000000E+00
  0.00000000E+00  0.00000000E+00  0.00000000E+00
  0.00000000E+00  0.00000000E+00  0.00000000E+00
  0.00000000E+00  0.00000000E+00  0.00000000E+00
