TiOF2 2x2x2 config 0000                 
   1.00000000000000     
     7.9078660059198072    0.0000020515158640    0.0000006895826504
     0.0000020493138035    7.9078671736839725    0.0000007548209740
     0.0000006472658465    0.0000007064986414    7.4076217497069274
   Ti   O    F 
     8     8    16
Direct
 -0.0000000029494730  1.0000000069744661  0.0000000004299325
 -0.0000000028270859  1.0000000075862767  0.5000000003909781
  1.0000000022564850  0.5000000332248781  0.0000000012367019
  0.0000000043994001  0.5000000326864336  0.4999999994983154
  0.5000000037053318  0.9999999352874754  0.0000000004019067
  0.5000000039011691  0.9999999317424010  0.4999999995388416
  0.4999999953352965  0.5000000003378656  0.0000000007945606
  0.4999999974952488  0.4999999956170571  0.4999999987512321
  0.0000000004270531  0.9999999918386787  0.2499999948166128
  0.0000000004262906  0.9999999911573250  0.7500000058871170
 -0.0000000003886590  0.4999999916207890  0.2499999985181555
 -0.0000000005594721  0.4999999912833339  0.7500000012288776
  0.4999999985346427  0.9999997854089726  0.2500000002869260
  0.4999999989692802  0.9999997851359970  0.7499999993234578
  0.4999999996445522  0.5000000762535292  0.2500000134673039
  0.5000000003152745  0.5000000758170182  0.7499999870008834
  0.2499999908653692  0.9999999281945375  0.9999999931137873
  0.2499999995321177  0.9999999327866088  0.4999999934132840
  0.2500000359300396  0.5000001880613592  0.0000000179464579
  0.2500000353768352  0.5000001763138024  0.4999999976838861
  0.7500000098890531  0.9999999474289245  0.0000000082284323
  0.7500000018425992  0.9999999487110877  0.5000000078057963
  0.7499999624696556  0.5000001660585066  0.0000000037203479
  0.7499999663075512  0.5000001596198752  0.4999999829617180
 -0.0000000057504876  0.2499999950310501 -0.0000000025628722
 -0.0000000072812722  0.2500000004979492  0.4999999966222181
  1.0000000035528305  0.7500000379804832  0.0000000022561101
  0.0000000092996400  0.7500000321659555  0.5000000005263945
  0.5000000041601504  0.2499999802133883  0.0000000084215872
  0.5000000100440023  0.2499999753166358  0.4999999941028783
  0.4999999931302810  0.7499999503702940  0.0000000031960264
  0.4999999919463147  0.7499999492770595  0.4999999909921592
 
  0.00000000E+00  0.00000000E+00  0.00000000E+00
  0.00000000E+00  0.00000000E+00  0.00000000E+00
  0.00000000E+00  0.00000000E+00  0.00000000E+00
  0.00000000E+00  0.00000000E+00  0.00000000E+00
  0.00000000E+00  0.00000000E+00  0.00000000E+00
  0.00000000E+00  0.00000000E+00  0.00000000E+00
  0.00000000E+00  0.00000000E+00  0.00000000E+00
  0.00000000E+00  0.00000000E+00  0.00000000E+00
  0.00000000E+00  0.00000000E+00  0.00000000E+00
  0.00000000E+00  0.00000000E+00  0.00000000E+00
  0.00000000E+00  0.00000000E+00  0.00000000E+00
  0.00000000E+00  0.00000000E+00  0.00000000E+00
  0.00000000E+00  0.00000000E+00  0.00000000E+00
  0.00000000E+00  0.00000000E+00  0.00000000E+00
  0.00000000E+00  0.00000000E+00  0.00000000E+00
  0.00000000E+00  0.00000000E+00  0.00000000E+00
  0.00000000E+00  0.00000000E+00  0.00000000E+00
  0.00000000E+00  0.00000000E+00  0.00000000E+00
  0.00000000E+00  0.00000000E+00  0.00000000E+00
  0.00000000E+00  0.00000000E+00  0.00000000E+00
  0.00000000E+00  0.00000000E+00  0.00000000E+00
  0.00000000E+00  0.00000000E+00  0.00000000E+00
  0.00000000E+00  0.00000000E+00  0.00000000E+00
  0.00000000E+00  0.00000000E+00  0.00000000E+00
  0.00000000E+00  0.00000000E+00  0.00000000E+00
  0.00000000E+00  0.00000000E+00  0.00000000E+00
  0.00000000E+00  0.00000000E+00  0.00000000E+00
  0.00000000E+00  0.00000000E+00  0.00000000E+00
  0.00000000E+00  0.00000000E+00  0.00000000E+00
  0.00000000E+00  0.00000000E+00  0.00000000E+00
  0.00000000E+00  0.00000000E+00  0.00000000E+00
  0.00000000E+00  0.00000000E+00  0.00000000E+00
