config 17                               
   1.00000000000000     
    15.4263309999999993    0.0000000000000000    0.0000000000000000
     0.0000000000000000   15.4263309999999993    0.0000000000000000
     0.0000000000000000    0.0000000000000000   15.4263309999999993
   Li   Ti   O    F 
     1    64    64   128
Direct
  0.3272799718050337  0.1294128005562527  0.1319289497916571
  0.9954037495881209  0.9954970381150758  0.9948210379117199
  0.0005767031198687  0.9918205903507626  0.4938941098589922
  0.0051785554546342  0.4944810078865416  0.9979302147416789
  0.9940444144694425  0.5025867598886649  0.5073466733020808
  0.4953435749750739  0.9932606071770564  0.9984669857775685
  0.5014634552047852  0.0079772434840706  0.5001669678298413
  0.5034895421025070  0.4947736091683339  0.9957313047909508
  0.4920461622973988  0.4992084391491076  0.4950360189893530
  0.0050981411716791  0.0034384313442928  0.2562128322212729
  0.0019428891212954  0.0075330813098589  0.7571568251052909
  0.9942125103076336  0.4935028293289818  0.2517485330135756
  0.9925185938617815  0.4990307207498219  0.7422834624955286
  0.5039260934585386  0.0102331096166708  0.2501019792337118
  0.4930383746640601  0.0048483123105498  0.7511675304057874
  0.4936983721705914  0.4982212521889764  0.2570872086322709
  0.5008500964375031  0.5043071520909947  0.7581031964570215
  0.9938820674683626  0.2565797501631053  0.0017987321585551
  0.9989659572004825  0.2481084814550414  0.4916100149844311
  0.9979142663358971  0.7578286877933493  0.0061947149090926
  0.9980955946867525  0.7564847135323305  0.5060810897813681
  0.4949909162742046  0.2570185951806963  0.0007493242583081
  0.5087387642592063  0.2454444388250252  0.5000280935229995
  0.5070980870151018  0.7556384044081526  0.9984277529531340
  0.5070813591187644  0.7529741949410393  0.5085403818413923
  0.9991582044304934  0.2586985222605449  0.2553558530291582
  0.0065885730521984  0.2422855777380732  0.7477876256933627
  0.0067081962028936  0.7483224905995982  0.2431221387837681
  0.9929315224995747  0.7507560785136604  0.7433803309268825
  0.5066455984274825  0.2452853463313076  0.2514925072688854
  0.5068573904976503  0.2426798877183742  0.7499961363893064
  0.5070814744626873  0.7520781240260916  0.2515597515411798
  0.5017225324053953  0.7420828188941258  0.7429010309407502
  0.2570032204156760  0.9983435829276601  0.0044315551054339
  0.2505904796206835  0.9945790258316691  0.5070767605428088
  0.2429925189750719  0.5080199743278229  0.9968599993540082
  0.2543147185701642  0.4946731115691918  0.5068172273164890
  0.7577782148763461  0.0006510318752717  0.9936933417127207
  0.7511066578358623  0.0065581922139373  0.4937884368441630
  0.7416108860878197  0.4996367403548518  0.0052069555659457
  0.7556377775342256  0.4979079577684686  0.5054901372239939
  0.2435629742478866  0.0015546885605602  0.2444350747855282
  0.2581231785987512  0.9982302796548410  0.7440714665389194
  0.2555344652137350  0.4938306907827084  0.2508525989471480
  0.2470575663749983  0.5067133471622824  0.7416052094412606
  0.7430447239451965  0.0014069031580988  0.2550592550731068
  0.7485470981106843  0.0062968603163753  0.7557035070421492
  0.7562266036361223  0.4986636073664457  0.2429332875273644
  0.7571214480587258  0.4980803147856534  0.7428430322028277
  0.2565884505139664  0.2517652280227196  0.0049208651766222
  0.2531193319869587  0.2566276654316866  0.5065422649640468
  0.2517245609766050  0.7428891989697135  0.9926759977565141
  0.2517854037107981  0.7561288782139499  0.4926465339061181
  0.7564929067139019  0.2501369742459687  0.0088789572050629
  0.7435022646782912  0.2424485452749749  0.4986812876258426
  0.7420936375232827  0.7497310075791503  0.9939009316025391
  0.7420113541405016  0.7522937841221093  0.4938347901331710
  0.2488420665337188  0.2598658297817735  0.2449548348254140
  0.2440654761750309  0.2511979924358272  0.7437295534935089
  0.2438519076314094  0.7483697847662256  0.2552518634171008
  0.2482163162103461  0.7424396430436033  0.7568413859792997
  0.7411769240720645  0.2495655231509417  0.2443466473080633
  0.7444360638581315  0.2419343721166314  0.7516728519305360
  0.7458228101704236  0.7504454758672452  0.2565277892768663
  0.7573945204922907  0.7508184355545069  0.7565776836539584
  0.0070265429410767  0.5019725818114225  0.6249172179149340
  0.9984980213072205  0.0059462595065796  0.3757969404219494
  0.0027134569530034  0.0023056025186747  0.8732586636513702
  0.5002930431930892  0.4960037484968467  0.3752000576778229
  0.4947098394383858  0.4983528714760581  0.8744940303949704
  0.9986929765767272  0.7461769080498968  0.1257111896908754
  0.0013251005965174  0.7460686519029380  0.6241978182989882
  0.5007511078693270  0.7546504361683617  0.6243675050288360
  0.9960220179844086  0.2469259073664318  0.3767431429272960
  0.2621012429728324  0.0179585125669703  0.1248001114594572
  0.2559212346905255  0.0072816972400673  0.6252359434610995
  0.2398674529802136  0.4998653721199986  0.6259641517765147
  0.7513802311550606  0.4926422997194209  0.1256252470754973
  0.7467169944833643  0.4950630941502681  0.6243392122714724
  0.7510253846883899  0.9984552430438711  0.3764565534644078
  0.7456983484929580  0.9974766826134669  0.8734322006463486
  0.2510943776485846  0.2351641232054575  0.1262984356713517
  0.2518654395939919  0.2459665032940563  0.6254706845168556
  0.7434627947884351  0.2568583770467185  0.1257976097719151
  0.2544246113537767  0.7521664914615798  0.3740679172621810
  0.2510902610011883  0.7588906761781828  0.8750257826708108
  0.7521887753440879  0.7528471037368973  0.3741058530181718
  0.7480173018516538  0.7529263262445696  0.8752949260726481
  0.1245259660865656  0.4997216308752428  0.9954149593154185
  0.6251412573795676  0.5029434016855703  0.9992791105947987
  0.1260959094139764  0.0073616063952073  0.2484750750465210
  0.6262604290431923  0.0063703590445030  0.2490880685576187
  0.6253184922842365  0.2550487444118090  0.4967344988144973
  0.6245898189975776  0.7453877466154353  0.0034613538685591
  0.6247646747170990  0.7602062013414894  0.4965138079111142
  0.1250224575531007  0.2508315351022645  0.7500968341062020
  0.1256201705901105  0.7485596450272851  0.2513382424889343
  0.6290811789356852  0.2385678506816902  0.2641651109322396
  0.6254125762451395  0.2518301003800616  0.7480727266718574
  0.6234248081758338  0.7498671756784177  0.2501283148187028
  0.3757135222339869  0.0048223702812678  0.9911598401910808
  0.3750223432665791  0.5037625151108003  0.5031544228213178
  0.8737914861134399  0.0055859736671522  0.9988390326145122
  0.8755350905680714  0.5008510482707393  0.4987196862872310
  0.3759507534650481  0.9963648217409400  0.7582309494904038
  0.3731806251203693  0.4936361031415260  0.2496669321462193
  0.8761960747863284  0.4944554398778465  0.2532282491413724
  0.8751255306491785  0.5068217347792441  0.7477274841102073
  0.3745388445361044  0.2393798152797686  0.0054640260357246
  0.8746146110479529  0.2442956338601618  0.0043051245329551
  0.8750691559508823  0.7451309096791050  0.7497946878434618
  0.5083166855434129  0.1222742852990564  0.5011351096244994
  0.9962398773022088  0.1258613054595870  0.7441923790045379
  0.4834912994133944  0.1210562579285082  0.2536924783952088
  0.5009995533856468  0.1231339945703027  0.7450866057023049
  0.5010490722535366  0.6252185065913878  0.7483627863561821
  0.9972340314271619  0.3749116152690632  0.0044009788996533
  0.9988421330957422  0.8749840958385704  0.0012315554247451
  0.9996165829218810  0.8749960653397792  0.4982362861027738
  0.4968574250421653  0.3732780288026802  0.0049534453978310
  0.5004144446636047  0.8746646895583297  0.9996526086428190
  0.0113808722103528  0.3740124172661936  0.2480204269982167
  0.2516676946865744  0.6255459917963648  0.9948642720237544
  0.7452718758208619  0.1250045682825700  0.5040298823004079
  0.2487395275331465  0.6249609217219643  0.7551384463022259
  0.7521812155063898  0.1244994081845832  0.7451881468864201
  0.2503915910782197  0.3729714011014167  0.4966333614089891
  0.2504990968973075  0.8764857346933326  0.5025333898138697
  0.2364346334915979  0.3749765478787737  0.2474561652859180
  0.9995407129601332  0.0025999836772357  0.1267525991296665
  0.0039370427851964  0.9978517718623223  0.6236783658763017
  0.9997636229676914  0.5080877226296039  0.1253594663835500
  0.4915717507715627  0.0012852015358931  0.1242665095627089
  0.4952775342157310  0.9908819984243635  0.6233125925723400
  0.5004185224335416  0.5082762627639781  0.1266057926356652
  0.5064185868167215  0.4992839959124566  0.6247037821033388
  0.0047133143150901  0.4964885725455730  0.3763045531354976
  0.9960752424678532  0.4978886339428428  0.8731433276488971
  0.5052794320897149  0.9932366736139357  0.3775776226861112
  0.5163156644242832  0.0009689709217540  0.8740669727474568
  0.0069011189424160  0.2453378964546431  0.1276805583251104
  0.0001789480173073  0.2576394739897125  0.6218503415673240
  0.5074541694611909  0.2378533446687996  0.1224523854193578
  0.4946239181553267  0.2511286194424258  0.6241466220577010
  0.4956835468464789  0.7474996757845105  0.1262421777838370
  0.9978649764047489  0.2502087182509243  0.8747541773786054
  0.9951750733351616  0.7502023170025822  0.3751933710818633
  0.0023768104658615  0.7506455166664310  0.8739442045669890
  0.4904026322035335  0.2572963021673971  0.3798881335924733
  0.4983735812396262  0.2486704936417183  0.8743298063741562
  0.4934166547218766  0.7523327213729374  0.3754699434879782
  0.4984351506616136  0.7500619001140620  0.8734668920789304
  0.2456560654018958  0.5022643498507691  0.1245028425231141
  0.7514775649284644  0.0037770245499971  0.1257189216706962
  0.7486718462497208  0.9959450670348673  0.6235148193543480
  0.2503373692291291  0.9990237053368674  0.3742048380910035
  0.2420544753675244  0.9905364630391489  0.8750307839352516
  0.2460334933774391  0.5056754284556888  0.3747010459265780
  0.2580627284482588  0.4912403506649241  0.8737386429501299
  0.7459134789019117  0.5053020921999902  0.3749044947903499
  0.7512274433621045  0.5046324196445369  0.8742008735199320
  0.2522985865098022  0.7484678515209211  0.1244789578988730
  0.2494154727006190  0.7479821325684810  0.6248375204388950
  0.7528220381680129  0.2600206575832331  0.6241074455044426
  0.7533656178221477  0.7477082065855569  0.1255852752057720
  0.7482396998815162  0.7476223666800266  0.6243572515742599
  0.2515506407432397  0.2466303356785033  0.3732482289214758
  0.2517449056384322  0.2563528848354437  0.8762191967331816
  0.7650413430753602  0.2455286739847296  0.3755490180367644
  0.7520028309865410  0.2455431557471499  0.8762013016328964
  0.1274126808450831  0.9982704923297021  0.0055678574733520
  0.1255001624454621  0.0073732752020845  0.4998164078801963
  0.1235469848114334  0.5010980985183053  0.4934699300615080
  0.6253147121493114  0.9976753795859352  0.0080524824240271
  0.6245430945031742  0.9854041930937285  0.5042303298517368
  0.6253238038474436  0.4954423573742801  0.4984104392971318
  0.1274920212759980  0.0008406185908925  0.7461871725309663
  0.1242387228804276  0.5110267507020936  0.2486003732907278
  0.1233140315126775  0.4939316727858198  0.7620676098791321
  0.6238962453897727  0.9951501793270836  0.7399696081724656
  0.6254142536377643  0.5059586472121183  0.2492131180536461
  0.6263333295503983  0.4933428902374644  0.7544159550867846
  0.1259972889163095  0.2535626193025493  0.9977551319630393
  0.1239599806427876  0.2444229979000880  0.4989573718921747
  0.1253993309419101  0.7498193466954959  0.0010255712488174
  0.1246129289364291  0.7481825650052016  0.4963165556831797
  0.6254190329108908  0.2519641732013369  0.9927634365468165
  0.1246903905273768  0.2323006039390521  0.2550998820341803
  0.1236748129555920  0.7534498215500136  0.7501659440164374
  0.6263395834648833  0.7536120585258530  0.7495384391928610
  0.3773999413022437  0.0050855973860422  0.4936432066252294
  0.3727717193529045  0.4992340554067951  0.0063174791462401
  0.8758160302973863  0.0045720433660037  0.5074558695809444
  0.8745983126964063  0.5010056674699470  0.9985755250714874
  0.3751711218230440  0.9873296820927990  0.2564257843344535
  0.3743595989976640  0.4978718971940239  0.7418565977970957
  0.8756008961112371  0.9950835780129097  0.2478224207372008
  0.8749599403047341  0.9928945721390221  0.7445012005715554
  0.3782271340851722  0.2440319147471399  0.5000559100370765
  0.3763989564478933  0.7531836956819333  0.0014263407667485
  0.3769172379586081  0.7451793459135487  0.5016809753346294
  0.8751722668586623  0.2513956025471771  0.5061853561758269
  0.8725203179492809  0.7502293040902757  0.9982230437339084
  0.8729897968192120  0.7445260312458402  0.5026382933510902
  0.3753851866780096  0.2626503083701834  0.2457963948145334
  0.3755459647364745  0.2489880094646821  0.7529639191925739
  0.3765283191638957  0.7524947399207136  0.2471391859140795
  0.3749760405395079  0.7552641894894592  0.7487332444760924
  0.8753735092133255  0.2598753043433604  0.2451733679141412
  0.8748093004742756  0.2542836465209675  0.7484651688504513
  0.8744111045110898  0.7514311517695376  0.2495028383529245
  0.0082726087940728  0.1267075805021420  0.0014126190114609
  0.9970684578899451  0.1255132820974296  0.5090032329406853
  0.9974617546860500  0.6252707343381303  0.9948259508359172
  0.0015414236969136  0.6264708940942896  0.4927215463383448
  0.5071866155512552  0.1228015500240076  0.9970120289731099
  0.4924415374021791  0.6269887488248145  0.9992536759605812
  0.5064303772602230  0.6267010830086335  0.4984551428166100
  0.9891763481165015  0.1277039015738666  0.2468754546024954
  0.9959385822155795  0.6234883040514063  0.2570079194800030
  0.0099545819149682  0.6245965941723384  0.7554938774250886
  0.4963508677542094  0.6269643581842104  0.2536984673107625
  0.0033661308211137  0.3737712753516007  0.4986471209391965
  0.4954231076082820  0.3726295238602972  0.5063458948090869
  0.4896926578131371  0.8776374847492150  0.4963267767445174
  0.9964256066544408  0.3743377161555514  0.7510048590887806
  0.0004274122387429  0.8761982419234400  0.2514595750449899
  0.0012486331269486  0.8757131125950153  0.7475456236699927
  0.5094006227712669  0.3767780483793430  0.2403880521125714
  0.4965532454508690  0.3730210130922131  0.7468521230684004
  0.5007113162290153  0.8751163785790084  0.2479556884743630
  0.5027631536549819  0.8748845593302264  0.7544076626937724
  0.2433960462048930  0.1247624663173923  0.9881841918583092
  0.2513709344031838  0.1246516775168303  0.4929099501701657
  0.2469966013945140  0.6267776021907352  0.5001211900397848
  0.7397003830278166  0.1255265162725792  0.0013515675381726
  0.7568123850733599  0.6251434609073883  0.0022628822879582
  0.7449844074749024  0.6256001786683427  0.5007039562039068
  0.2719994439685323  0.1259343006721636  0.2540857818961157
  0.2512473617136521  0.1244158704092371  0.7620670988677531
  0.2544840022739834  0.6240106092838147  0.2463297811229452
  0.7666111080470159  0.1256057842737306  0.2491896733581740
  0.7527148475931398  0.6252996298262659  0.2479834993341754
  0.7400347875393720  0.6248718124140851  0.7482732302425745
  0.2536646908765263  0.3757594971965830  0.0070810056270503
  0.2500282350965506  0.8745859881697058  0.0114903978312384
  0.7517056296791438  0.3745214719876913  0.9886382503340343
  0.7539005610436291  0.3727059884178914  0.4913885250050143
  0.7500545752763728  0.8748174441065970  0.0082679575288296
  0.7606815126228241  0.8760665494309663  0.5046310148885880
  0.2535081910046983  0.3757934201712771  0.7516260257187071
  0.2485986396870956  0.8759268654626808  0.2414443890922016
  0.2464868623943985  0.8739735985610437  0.7419604623146299
  0.7437299134160185  0.3746234271030175  0.2629129891973463
  0.7540512524823768  0.3737148868418814  0.7571290672741142
  0.7511625223074603  0.8754436616507633  0.2427287506861830
  0.7503091884101423  0.8749384829024365  0.7435302219003859
 
  0.00000000E+00  0.00000000E+00  0.00000000E+00
  0.00000000E+00  0.00000000E+00  0.00000000E+00
  0.00000000E+00  0.00000000E+00  0.00000000E+00
  0.00000000E+00  0.00000000E+00  0.00000000E+00
  0.00000000E+00  0.00000000E+00  0.00000000E+00
  0.00000000E+00  0.00000000E+00  0.00000000E+00
  0.00000000E+00  0.00000000E+00  0.00000000E+00
  0.00000000E+00  0.00000000E+00  0.00000000E+00
  0.00000000E+00  0.00000000E+00  0.00000000E+00
  0.00000000E+00  0.00000000E+00  0.00000000E+00
  0.00000000E+00  0.00000000E+00  0.00000000E+00
  0.00000000E+00  0.00000000E+00  0.00000000E+00
  0.00000000E+00  0.00000000E+00  0.00000000E+00
  0.00000000E+00  0.00000000E+00  0.00000000E+00
  0.00000000E+00  0.00000000E+00  0.00000000E+00
  0.00000000E+00  0.00000000E+00  0.00000000E+00
  0.00000000E+00  0.00000000E+00  0.00000000E+00
  0.00000000E+00  0.00000000E+00  0.00000000E+00
  0.00000000E+00  0.00000000E+00  0.00000000E+00
  0.00000000E+00  0.00000000E+00  0.00000000E+00
  0.00000000E+00  0.00000000E+00  0.00000000E+00
  0.00000000E+00  0.00000000E+00  0.00000000E+00
  0.00000000E+00  0.00000000E+00  0.00000000E+00
  0.00000000E+00  0.00000000E+00  0.00000000E+00
  0.00000000E+00  0.00000000E+00  0.00000000E+00
  0.00000000E+00  0.00000000E+00  0.00000000E+00
  0.00000000E+00  0.00000000E+00  0.00000000E+00
  0.00000000E+00  0.00000000E+00  0.00000000E+00
  0.00000000E+00  0.00000000E+00  0.00000000E+00
  0.00000000E+00  0.00000000E+00  0.00000000E+00
  0.00000000E+00  0.00000000E+00  0.00000000E+00
  0.00000000E+00  0.00000000E+00  0.00000000E+00
  0.00000000E+00  0.00000000E+00  0.00000000E+00
  0.00000000E+00  0.00000000E+00  0.00000000E+00
  0.00000000E+00  0.00000000E+00  0.00000000E+00
  0.00000000E+00  0.00000000E+00  0.00000000E+00
  0.00000000E+00  0.00000000E+00  0.00000000E+00
  0.00000000E+00  0.00000000E+00  0.00000000E+00
  0.00000000E+00  0.00000000E+00  0.00000000E+00
  0.00000000E+00  0.00000000E+00  0.00000000E+00
  0.00000000E+00  0.00000000E+00  0.00000000E+00
  0.00000000E+00  0.00000000E+00  0.00000000E+00
  0.00000000E+00  0.00000000E+00  0.00000000E+00
  0.00000000E+00  0.00000000E+00  0.00000000E+00
  0.00000000E+00  0.00000000E+00  0.00000000E+00
  0.00000000E+00  0.00000000E+00  0.00000000E+00
  0.00000000E+00  0.00000000E+00  0.00000000E+00
  0.00000000E+00  0.00000000E+00  0.00000000E+00
  0.00000000E+00  0.00000000E+00  0.00000000E+00
  0.00000000E+00  0.00000000E+00  0.00000000E+00
  0.00000000E+00  0.00000000E+00  0.00000000E+00
  0.00000000E+00  0.00000000E+00  0.00000000E+00
  0.00000000E+00  0.00000000E+00  0.00000000E+00
  0.00000000E+00  0.00000000E+00  0.00000000E+00
  0.00000000E+00  0.00000000E+00  0.00000000E+00
  0.00000000E+00  0.00000000E+00  0.00000000E+00
  0.00000000E+00  0.00000000E+00  0.00000000E+00
  0.00000000E+00  0.00000000E+00  0.00000000E+00
  0.00000000E+00  0.00000000E+00  0.00000000E+00
  0.00000000E+00  0.00000000E+00  0.00000000E+00
  0.00000000E+00  0.00000000E+00  0.00000000E+00
  0.00000000E+00  0.00000000E+00  0.00000000E+00
  0.00000000E+00  0.00000000E+00  0.00000000E+00
  0.00000000E+00  0.00000000E+00  0.00000000E+00
  0.00000000E+00  0.00000000E+00  0.00000000E+00
  0.00000000E+00  0.00000000E+00  0.00000000E+00
  0.00000000E+00  0.00000000E+00  0.00000000E+00
  0.00000000E+00  0.00000000E+00  0.00000000E+00
  0.00000000E+00  0.00000000E+00  0.00000000E+00
  0.00000000E+00  0.00000000E+00  0.00000000E+00
  0.00000000E+00  0.00000000E+00  0.00000000E+00
  0.00000000E+00  0.00000000E+00  0.00000000E+00
  0.00000000E+00  0.00000000E+00  0.00000000E+00
  0.00000000E+00  0.00000000E+00  0.00000000E+00
  0.00000000E+00  0.00000000E+00  0.00000000E+00
  0.00000000E+00  0.00000000E+00  0.00000000E+00
  0.00000000E+00  0.00000000E+00  0.00000000E+00
  0.00000000E+00  0.00000000E+00  0.00000000E+00
  0.00000000E+00  0.00000000E+00  0.00000000E+00
  0.00000000E+00  0.00000000E+00  0.00000000E+00
  0.00000000E+00  0.00000000E+00  0.00000000E+00
  0.00000000E+00  0.00000000E+00  0.00000000E+00
  0.00000000E+00  0.00000000E+00  0.00000000E+00
  0.00000000E+00  0.00000000E+00  0.00000000E+00
  0.00000000E+00  0.00000000E+00  0.00000000E+00
  0.00000000E+00  0.00000000E+00  0.00000000E+00
  0.00000000E+00  0.00000000E+00  0.00000000E+00
  0.00000000E+00  0.00000000E+00  0.00000000E+00
  0.00000000E+00  0.00000000E+00  0.00000000E+00
  0.00000000E+00  0.00000000E+00  0.00000000E+00
  0.00000000E+00  0.00000000E+00  0.00000000E+00
  0.00000000E+00  0.00000000E+00  0.00000000E+00
  0.00000000E+00  0.00000000E+00  0.00000000E+00
  0.00000000E+00  0.00000000E+00  0.00000000E+00
  0.00000000E+00  0.00000000E+00  0.00000000E+00
  0.00000000E+00  0.00000000E+00  0.00000000E+00
  0.00000000E+00  0.00000000E+00  0.00000000E+00
  0.00000000E+00  0.00000000E+00  0.00000000E+00
  0.00000000E+00  0.00000000E+00  0.00000000E+00
  0.00000000E+00  0.00000000E+00  0.00000000E+00
  0.00000000E+00  0.00000000E+00  0.00000000E+00
  0.00000000E+00  0.00000000E+00  0.00000000E+00
  0.00000000E+00  0.00000000E+00  0.00000000E+00
  0.00000000E+00  0.00000000E+00  0.00000000E+00
  0.00000000E+00  0.00000000E+00  0.00000000E+00
  0.00000000E+00  0.00000000E+00  0.00000000E+00
  0.00000000E+00  0.00000000E+00  0.00000000E+00
  0.00000000E+00  0.00000000E+00  0.00000000E+00
  0.00000000E+00  0.00000000E+00  0.00000000E+00
  0.00000000E+00  0.00000000E+00  0.00000000E+00
  0.00000000E+00  0.00000000E+00  0.00000000E+00
  0.00000000E+00  0.00000000E+00  0.00000000E+00
  0.00000000E+00  0.00000000E+00  0.00000000E+00
  0.00000000E+00  0.00000000E+00  0.00000000E+00
  0.00000000E+00  0.00000000E+00  0.00000000E+00
  0.00000000E+00  0.00000000E+00  0.00000000E+00
  0.00000000E+00  0.00000000E+00  0.00000000E+00
  0.00000000E+00  0.00000000E+00  0.00000000E+00
  0.00000000E+00  0.00000000E+00  0.00000000E+00
  0.00000000E+00  0.00000000E+00  0.00000000E+00
  0.00000000E+00  0.00000000E+00  0.00000000E+00
  0.00000000E+00  0.00000000E+00  0.00000000E+00
  0.00000000E+00  0.00000000E+00  0.00000000E+00
  0.00000000E+00  0.00000000E+00  0.00000000E+00
  0.00000000E+00  0.00000000E+00  0.00000000E+00
  0.00000000E+00  0.00000000E+00  0.00000000E+00
  0.00000000E+00  0.00000000E+00  0.00000000E+00
  0.00000000E+00  0.00000000E+00  0.00000000E+00
  0.00000000E+00  0.00000000E+00  0.00000000E+00
  0.00000000E+00  0.00000000E+00  0.00000000E+00
  0.00000000E+00  0.00000000E+00  0.00000000E+00
  0.00000000E+00  0.00000000E+00  0.00000000E+00
  0.00000000E+00  0.00000000E+00  0.00000000E+00
  0.00000000E+00  0.00000000E+00  0.00000000E+00
  0.00000000E+00  0.00000000E+00  0.00000000E+00
  0.00000000E+00  0.00000000E+00  0.00000000E+00
  0.00000000E+00  0.00000000E+00  0.00000000E+00
  0.00000000E+00  0.00000000E+00  0.00000000E+00
  0.00000000E+00  0.00000000E+00  0.00000000E+00
  0.00000000E+00  0.00000000E+00  0.00000000E+00
  0.00000000E+00  0.00000000E+00  0.00000000E+00
  0.00000000E+00  0.00000000E+00  0.00000000E+00
  0.00000000E+00  0.00000000E+00  0.00000000E+00
  0.00000000E+00  0.00000000E+00  0.00000000E+00
  0.00000000E+00  0.00000000E+00  0.00000000E+00
  0.00000000E+00  0.00000000E+00  0.00000000E+00
  0.00000000E+00  0.00000000E+00  0.00000000E+00
  0.00000000E+00  0.00000000E+00  0.00000000E+00
  0.00000000E+00  0.00000000E+00  0.00000000E+00
  0.00000000E+00  0.00000000E+00  0.00000000E+00
  0.00000000E+00  0.00000000E+00  0.00000000E+00
  0.00000000E+00  0.00000000E+00  0.00000000E+00
  0.00000000E+00  0.00000000E+00  0.00000000E+00
  0.00000000E+00  0.00000000E+00  0.00000000E+00
  0.00000000E+00  0.00000000E+00  0.00000000E+00
  0.00000000E+00  0.00000000E+00  0.00000000E+00
  0.00000000E+00  0.00000000E+00  0.00000000E+00
  0.00000000E+00  0.00000000E+00  0.00000000E+00
  0.00000000E+00  0.00000000E+00  0.00000000E+00
  0.00000000E+00  0.00000000E+00  0.00000000E+00
  0.00000000E+00  0.00000000E+00  0.00000000E+00
  0.00000000E+00  0.00000000E+00  0.00000000E+00
  0.00000000E+00  0.00000000E+00  0.00000000E+00
  0.00000000E+00  0.00000000E+00  0.00000000E+00
  0.00000000E+00  0.00000000E+00  0.00000000E+00
  0.00000000E+00  0.00000000E+00  0.00000000E+00
  0.00000000E+00  0.00000000E+00  0.00000000E+00
  0.00000000E+00  0.00000000E+00  0.00000000E+00
  0.00000000E+00  0.00000000E+00  0.00000000E+00
  0.00000000E+00  0.00000000E+00  0.00000000E+00
  0.00000000E+00  0.00000000E+00  0.00000000E+00
  0.00000000E+00  0.00000000E+00  0.00000000E+00
  0.00000000E+00  0.00000000E+00  0.00000000E+00
  0.00000000E+00  0.00000000E+00  0.00000000E+00
  0.00000000E+00  0.00000000E+00  0.00000000E+00
  0.00000000E+00  0.00000000E+00  0.00000000E+00
  0.00000000E+00  0.00000000E+00  0.00000000E+00
  0.00000000E+00  0.00000000E+00  0.00000000E+00
  0.00000000E+00  0.00000000E+00  0.00000000E+00
  0.00000000E+00  0.00000000E+00  0.00000000E+00
  0.00000000E+00  0.00000000E+00  0.00000000E+00
  0.00000000E+00  0.00000000E+00  0.00000000E+00
  0.00000000E+00  0.00000000E+00  0.00000000E+00
  0.00000000E+00  0.00000000E+00  0.00000000E+00
  0.00000000E+00  0.00000000E+00  0.00000000E+00
  0.00000000E+00  0.00000000E+00  0.00000000E+00
  0.00000000E+00  0.00000000E+00  0.00000000E+00
  0.00000000E+00  0.00000000E+00  0.00000000E+00
  0.00000000E+00  0.00000000E+00  0.00000000E+00
  0.00000000E+00  0.00000000E+00  0.00000000E+00
  0.00000000E+00  0.00000000E+00  0.00000000E+00
  0.00000000E+00  0.00000000E+00  0.00000000E+00
  0.00000000E+00  0.00000000E+00  0.00000000E+00
  0.00000000E+00  0.00000000E+00  0.00000000E+00
  0.00000000E+00  0.00000000E+00  0.00000000E+00
  0.00000000E+00  0.00000000E+00  0.00000000E+00
  0.00000000E+00  0.00000000E+00  0.00000000E+00
  0.00000000E+00  0.00000000E+00  0.00000000E+00
  0.00000000E+00  0.00000000E+00  0.00000000E+00
  0.00000000E+00  0.00000000E+00  0.00000000E+00
  0.00000000E+00  0.00000000E+00  0.00000000E+00
  0.00000000E+00  0.00000000E+00  0.00000000E+00
  0.00000000E+00  0.00000000E+00  0.00000000E+00
  0.00000000E+00  0.00000000E+00  0.00000000E+00
  0.00000000E+00  0.00000000E+00  0.00000000E+00
  0.00000000E+00  0.00000000E+00  0.00000000E+00
  0.00000000E+00  0.00000000E+00  0.00000000E+00
  0.00000000E+00  0.00000000E+00  0.00000000E+00
  0.00000000E+00  0.00000000E+00  0.00000000E+00
  0.00000000E+00  0.00000000E+00  0.00000000E+00
  0.00000000E+00  0.00000000E+00  0.00000000E+00
  0.00000000E+00  0.00000000E+00  0.00000000E+00
  0.00000000E+00  0.00000000E+00  0.00000000E+00
  0.00000000E+00  0.00000000E+00  0.00000000E+00
  0.00000000E+00  0.00000000E+00  0.00000000E+00
  0.00000000E+00  0.00000000E+00  0.00000000E+00
  0.00000000E+00  0.00000000E+00  0.00000000E+00
  0.00000000E+00  0.00000000E+00  0.00000000E+00
  0.00000000E+00  0.00000000E+00  0.00000000E+00
  0.00000000E+00  0.00000000E+00  0.00000000E+00
  0.00000000E+00  0.00000000E+00  0.00000000E+00
  0.00000000E+00  0.00000000E+00  0.00000000E+00
  0.00000000E+00  0.00000000E+00  0.00000000E+00
  0.00000000E+00  0.00000000E+00  0.00000000E+00
  0.00000000E+00  0.00000000E+00  0.00000000E+00
  0.00000000E+00  0.00000000E+00  0.00000000E+00
  0.00000000E+00  0.00000000E+00  0.00000000E+00
  0.00000000E+00  0.00000000E+00  0.00000000E+00
  0.00000000E+00  0.00000000E+00  0.00000000E+00
  0.00000000E+00  0.00000000E+00  0.00000000E+00
  0.00000000E+00  0.00000000E+00  0.00000000E+00
  0.00000000E+00  0.00000000E+00  0.00000000E+00
  0.00000000E+00  0.00000000E+00  0.00000000E+00
  0.00000000E+00  0.00000000E+00  0.00000000E+00
  0.00000000E+00  0.00000000E+00  0.00000000E+00
  0.00000000E+00  0.00000000E+00  0.00000000E+00
  0.00000000E+00  0.00000000E+00  0.00000000E+00
  0.00000000E+00  0.00000000E+00  0.00000000E+00
  0.00000000E+00  0.00000000E+00  0.00000000E+00
  0.00000000E+00  0.00000000E+00  0.00000000E+00
  0.00000000E+00  0.00000000E+00  0.00000000E+00
  0.00000000E+00  0.00000000E+00  0.00000000E+00
  0.00000000E+00  0.00000000E+00  0.00000000E+00
  0.00000000E+00  0.00000000E+00  0.00000000E+00
  0.00000000E+00  0.00000000E+00  0.00000000E+00
  0.00000000E+00  0.00000000E+00  0.00000000E+00
  0.00000000E+00  0.00000000E+00  0.00000000E+00
  0.00000000E+00  0.00000000E+00  0.00000000E+00
  0.00000000E+00  0.00000000E+00  0.00000000E+00
  0.00000000E+00  0.00000000E+00  0.00000000E+00
  0.00000000E+00  0.00000000E+00  0.00000000E+00
  0.00000000E+00  0.00000000E+00  0.00000000E+00
  0.00000000E+00  0.00000000E+00  0.00000000E+00
  0.00000000E+00  0.00000000E+00  0.00000000E+00
  0.00000000E+00  0.00000000E+00  0.00000000E+00
  0.00000000E+00  0.00000000E+00  0.00000000E+00
  0.00000000E+00  0.00000000E+00  0.00000000E+00
