TiOF2 2x2x2 config 1540                 
   1.00000000000000     
     7.7516666524884732    0.0000000050589013    0.0000000285243730
    -0.0000000068919682    7.6460430422071228    0.0000000193926980
     0.0000000239347116    0.0000000189586741    7.7493484051768595
   Ti   O    F 
     8     8    16
Direct
  0.0003095750259448  0.9888027246645521  0.9866292695916670
  0.0003095754163454  0.9888027331670131  0.5133707245079435
  0.9873314847035601  0.5112449436017101  0.0004381293044915
  0.9873314867278964  0.5112449596937410  0.4995618924139080
  0.4996904359371399  0.9888026856706205  0.0133707083735359
  0.4996904368077040  0.9888026906357155  0.4866292729282051
  0.5126685226875338  0.5112449312582825  0.9995618677384499
  0.5126685244076441  0.5112449392022214  0.5004381338653374
  0.7499999658668415  0.4974233735549518  0.9999999660696162
  0.7499999791024266  0.4974234053816247  0.5000000328324603
  0.0018328598421320  0.7499765132198704  0.0027152029453887
  0.0018328793325892  0.7499765015038022  0.4972847963335880
  0.4981671277786575  0.7499764459478513  0.9972847095056139
  0.4981671124545315  0.7499764522760728  0.5027152656539258
  0.9993250866638661  0.0021345442197500  0.7500000145668722
  0.5006749266242494  0.0021344316757279  0.2499999870033633
  0.2500000050464806  0.0095484301024840  0.9999999951633285
  0.2500000091334371  0.0095484658937437  0.4999999955533170
  0.2499999998583249  0.4947248383450429  0.0000000455414479
  0.2499999996898978  0.4947248246009934  0.4999999845595582
  0.7500000049119251  0.0114946118230677  0.0000000075590876
  0.7500000021332340  0.0114945882481976  0.5000000012924488
  0.0037056063380092  0.2499020948696256  0.0041864146344324
  0.0037055626756768  0.2499021059209099  0.4958135875671630
  0.4962943951679151  0.2499020752031456  0.9958136511207556
  0.4962944487234040  0.2499020782287502  0.5041863304656218
  0.9992172469593896  0.0053864086521358  0.2500000005314718
  0.0082178307692757  0.4904252387302535  0.2500000081045997
  0.0078887876460385  0.4890101946510086  0.7500000034269405
  0.5007827696365439  0.0053864268856074  0.7499999940850870
  0.4921112723178140  0.4890102298775432  0.2500000025858284
  0.4917820796135857  0.4904251122939769  0.7500000041745594
 
  0.00000000E+00  0.00000000E+00  0.00000000E+00
  0.00000000E+00  0.00000000E+00  0.00000000E+00
  0.00000000E+00  0.00000000E+00  0.00000000E+00
  0.00000000E+00  0.00000000E+00  0.00000000E+00
  0.00000000E+00  0.00000000E+00  0.00000000E+00
  0.00000000E+00  0.00000000E+00  0.00000000E+00
  0.00000000E+00  0.00000000E+00  0.00000000E+00
  0.00000000E+00  0.00000000E+00  0.00000000E+00
  0.00000000E+00  0.00000000E+00  0.00000000E+00
  0.00000000E+00  0.00000000E+00  0.00000000E+00
  0.00000000E+00  0.00000000E+00  0.00000000E+00
  0.00000000E+00  0.00000000E+00  0.00000000E+00
  0.00000000E+00  0.00000000E+00  0.00000000E+00
  0.00000000E+00  0.00000000E+00  0.00000000E+00
  0.00000000E+00  0.00000000E+00  0.00000000E+00
  0.00000000E+00  0.00000000E+00  0.00000000E+00
  0.00000000E+00  0.00000000E+00  0.00000000E+00
  0.00000000E+00  0.00000000E+00  0.00000000E+00
  0.00000000E+00  0.00000000E+00  0.00000000E+00
  0.00000000E+00  0.00000000E+00  0.00000000E+00
  0.00000000E+00  0.00000000E+00  0.00000000E+00
  0.00000000E+00  0.00000000E+00  0.00000000E+00
  0.00000000E+00  0.00000000E+00  0.00000000E+00
  0.00000000E+00  0.00000000E+00  0.00000000E+00
  0.00000000E+00  0.00000000E+00  0.00000000E+00
  0.00000000E+00  0.00000000E+00  0.00000000E+00
  0.00000000E+00  0.00000000E+00  0.00000000E+00
  0.00000000E+00  0.00000000E+00  0.00000000E+00
  0.00000000E+00  0.00000000E+00  0.00000000E+00
  0.00000000E+00  0.00000000E+00  0.00000000E+00
  0.00000000E+00  0.00000000E+00  0.00000000E+00
  0.00000000E+00  0.00000000E+00  0.00000000E+00
