TiOF2 2x2x2 config 1                    
   1.00000000000000     
     7.9138067034685582   -0.0000034311604510   -0.0000023468683338
    -0.0000034070405965    7.8553065530032464   -0.0000715162108300
    -0.0000022086731388   -0.0000809992411219    7.4668228872368578
   Ti   O    F 
     8     8    16
Direct
  1.0000000171250389  0.0000662190336620  0.9892191082216327
  0.0000000123643215  0.0002101665762970  0.5096360007667627
  0.9999999968214407  0.5000849170983325  0.0001259798684080
  0.9999999387943892  0.4998393048121278  0.4994681557384960
  0.5000000132709861  0.0011332714812122  0.0004694766535931
  0.5000000376362862  0.9841826957833496  0.4998190105147263
  0.5000000063948878  0.4997196106970592  0.0000555124452216
  0.4999998923480212  0.5121817163629970  0.5000490394732209
  0.5000000065432383  0.7512857143727594  0.5001925275178892
  1.0000000282965216  0.9998706432980975  0.7502425898984387
  0.9999999778878691  0.5003403914805659  0.2496556622327139
  0.9999999965877102  0.5003466623107102  0.7506221117732332
  0.5000000193433998  0.0036406435014232  0.2460783719030601
  0.5000000630180750  0.0035799858443796  0.7541884086628984
  0.5000000085960731  0.4971302691891983  0.2467708745247256
  0.4999999987883177  0.4971188205629061  0.7534002696923110
  0.2412003223259508 -0.0000820324495780  0.0049478235002428
  0.2398679791887340  0.0008185428221051  0.4947592909140536
  0.2457423296036855  0.5003808850624445  0.9999908648563224
  0.2445194157834567  0.4987438462079249  0.5002249419276101
  0.7587996401914331 -0.0000820159520399  0.0049478608102350
  0.7601320675809007  0.0008186134665890  0.4947592136578107
  0.7542576558830494  0.5003809528957208  0.9999908520264899
  0.7554804462064921  0.4987436652151044  0.5002250226760457
  0.9999997923397543  0.2446049259672667  0.0048284876184932
 -0.0000000018453040  0.2447158331991680  0.4954047705749933
  0.0000000851795562  0.7555694343429415  0.0048362261885137
  0.0000000645623755  0.7554216751468040  0.4954325779351764
  0.5000000992620989  0.2494618573792613  1.0000118525645814
  0.5000000240303735  0.2485028316151092  0.5001867122748469
  0.4999999905434576  0.7513980322038536  1.0000004799179452
  0.0000000753474312  0.9998719204722319  0.2494599226692879
 
  0.00000000E+00  0.00000000E+00  0.00000000E+00
  0.00000000E+00  0.00000000E+00  0.00000000E+00
  0.00000000E+00  0.00000000E+00  0.00000000E+00
  0.00000000E+00  0.00000000E+00  0.00000000E+00
  0.00000000E+00  0.00000000E+00  0.00000000E+00
  0.00000000E+00  0.00000000E+00  0.00000000E+00
  0.00000000E+00  0.00000000E+00  0.00000000E+00
  0.00000000E+00  0.00000000E+00  0.00000000E+00
  0.00000000E+00  0.00000000E+00  0.00000000E+00
  0.00000000E+00  0.00000000E+00  0.00000000E+00
  0.00000000E+00  0.00000000E+00  0.00000000E+00
  0.00000000E+00  0.00000000E+00  0.00000000E+00
  0.00000000E+00  0.00000000E+00  0.00000000E+00
  0.00000000E+00  0.00000000E+00  0.00000000E+00
  0.00000000E+00  0.00000000E+00  0.00000000E+00
  0.00000000E+00  0.00000000E+00  0.00000000E+00
  0.00000000E+00  0.00000000E+00  0.00000000E+00
  0.00000000E+00  0.00000000E+00  0.00000000E+00
  0.00000000E+00  0.00000000E+00  0.00000000E+00
  0.00000000E+00  0.00000000E+00  0.00000000E+00
  0.00000000E+00  0.00000000E+00  0.00000000E+00
  0.00000000E+00  0.00000000E+00  0.00000000E+00
  0.00000000E+00  0.00000000E+00  0.00000000E+00
  0.00000000E+00  0.00000000E+00  0.00000000E+00
  0.00000000E+00  0.00000000E+00  0.00000000E+00
  0.00000000E+00  0.00000000E+00  0.00000000E+00
  0.00000000E+00  0.00000000E+00  0.00000000E+00
  0.00000000E+00  0.00000000E+00  0.00000000E+00
  0.00000000E+00  0.00000000E+00  0.00000000E+00
  0.00000000E+00  0.00000000E+00  0.00000000E+00
  0.00000000E+00  0.00000000E+00  0.00000000E+00
  0.00000000E+00  0.00000000E+00  0.00000000E+00
