config 19                               
   1.00000000000000     
    15.4263309999999993    0.0000000000000000    0.0000000000000000
     0.0000000000000000   15.4263309999999993    0.0000000000000000
     0.0000000000000000    0.0000000000000000   15.4263309999999993
   Li   Ti   O    F 
     1    64    64   128
Direct
  0.3172849023268262  0.1285965341537642  0.6145779271340907
  0.9962935932219589  0.9952108242400521  0.9946652365246871
 -0.0001466312816349  0.9918682844254160  0.4940451449059430
  0.0061576526031016  0.4957021753657484  0.9975698861236866
  0.9942598059663031  0.5035485042579028  0.5077980542126043
  0.4948553639629607  0.9940310485485181  0.9981799574148870
  0.5025464034576255  0.0038734790775045  0.5012095094378792
  0.5042610497726818  0.4964151290476816  0.9947376275281564
  0.4919089444437255  0.4982691926944322  0.4951883941251685
  0.0083229186435244  0.0033335349204109  0.2560292963901794
  0.0022439912225916  0.0072075111704248  0.7573348515958089
  0.9938380024151683  0.4931298900840886  0.2514542850424479
  0.9928493006645435  0.4983823769285258  0.7418757630594942
  0.5071612188936411  0.0077491468632785  0.2489316705492713
  0.4920407492088960  0.0042605575665204  0.7513157534343127
  0.4926942195556868  0.4966659124206211  0.2570508303194871
  0.4999901875736426  0.5053516288072187  0.7576202811711860
  0.9954312159662158  0.2578040716583287  0.0016165472863003
  0.9975216500709660  0.2481254853409686  0.4918718892243484
  0.9988555087071649  0.7581214105369921  0.0061333959071628
  0.9977020849754152  0.7567510205103812  0.5059337752367682
  0.4950809080301216  0.2584021785284733  0.9996157695310637
  0.5085901390215749  0.2421792613283655  0.5011845567893103
  0.5078445163019381  0.7562848952650648  0.9975283665136441
  0.5081626479537608  0.7523515775333135  0.5082149015283308
  0.0001703363200416  0.2584222340070716  0.2555933792374259
  0.0043736978792944  0.2414550892371876  0.7477039419401476
  0.0075271394977965  0.7481305147414824  0.2431427993364144
  0.9934177543900463  0.7515278987270104  0.7428266295397069
  0.5075311261876102  0.2406428768041452  0.2508345725895830
  0.5059278148660071  0.2421926643400392  0.7491368014158881
  0.5074711350524186  0.7502500010386922  0.2516791240917714
  0.5014821265115079  0.7429259439511663  0.7421886918512967
  0.2575501245927885  0.9992031500087724  0.0062331393107185
  0.2521119448819025  0.9910250673785957  0.5062940359866099
  0.2439574941412103  0.5084408533318666  0.9962769004943183
  0.2548275440781113  0.4986032458176755  0.5084213573316204
  0.7573440816159069  1.0001773814366393  0.9933535813048544
  0.7489365963906084  0.0071815030810573  0.4946914596397562
  0.7415648130256012  0.5004272093305827  0.0045268571716491
  0.7555950283053499  0.4976571913052925  0.5053625069509358
  0.2463865155987298  0.0036428620286943  0.2429584215948410
  0.2589775247311936  0.9958034050069615  0.7465890004997343
  0.2550492828007305  0.4915448483327359  0.2508371333839266
  0.2474322559292225  0.5088659200532942  0.7426517466966950
  0.7446598081777608  0.0011708193722622  0.2552760984231019
  0.7485402326514027  0.0068493289859405  0.7555474178123641
  0.7555327429096099  0.4975296356991603  0.2420379335153412
  0.7566348470799263  0.4967659927490484  0.7420250990780011
  0.2572632684833409  0.2512164315186453  0.0065103642983707
  0.2515838229118393  0.2609492885708745  0.5054951569920824
  0.2528391368586303  0.7435062223512043  0.9923582901986574
  0.2530553119309297  0.7549745888754751  0.4932295316843810
  0.7571281578386915  0.2516081812189413  0.0072576805096373
  0.7406386532787426  0.2427213631724346  0.4985209081599126
  0.7422316246142233  0.7484782820620961  0.9935614785811787
  0.7426150903425019  0.7524233553267679  0.4934584684437610
  0.2510762431787880  0.2569207848291122  0.2428770592919554
  0.2421180163665926  0.2526748393032439  0.7454835860940153
  0.2447238977018613  0.7486722035246863  0.2559795799980660
  0.2494139552639635  0.7427108903009622  0.7576937044266973
  0.7421889319189344  0.2501697320587936  0.2423290248159248
  0.7440235543835569  0.2410756729679446  0.7502206535676755
  0.7464353813118324  0.7490379889091253  0.2566059388605019
  0.7577356277123155  0.7511424937032267  0.7562748158753593
  0.0108968242524403  0.5026758463949249  0.6250355882358918
  0.0059320170915104  0.0050563004530674  0.3766204007286859
  0.0085195674272572  0.0020286523186070  0.8730024204423299
  0.4969948072258756  0.5019319517582367  0.3750602942150247
  0.4917128691573669  0.5047626152048295  0.8741207039832715
  0.0017044759164897  0.7457101997535133  0.1257008728860610
  0.0039787175315337  0.7456140589780562  0.6241143054129192
  0.5040615875136290  0.7608549036744375  0.6242446855926792
  0.9978859761425909  0.2476483655903029  0.3770791900951805
  0.2615149124419208  0.0104246257594756  0.1252915934724650
  0.2679956617724373  0.0141316409080901  0.6265745500202778
  0.2370886650025240  0.5091624668984157  0.6266785835614999
  0.7477759579488774  0.4880755080967693  0.1251427808497444
  0.7433005834463904  0.4907512829489292  0.6240070775585140
  0.7436034687428584  0.0033828388234102  0.3751761604235689
  0.7407184256912066  0.0032775634902559  0.8732692500686566
  0.2488508551511874  0.2412168939881234  0.1259610770275763
  0.2580245270168620  0.2379426569733550  0.6261515012872669
  0.7454951275830257  0.2622602827694085  0.1261251108369906
  0.2570440407900916  0.7560177895552896  0.3753407692923401
  0.2537124551830011  0.7634685000264972  0.8747488752069222
  0.7545608149404009  0.7466181820211704  0.3737881752933442
  0.7516715536411007  0.7474097114146313  0.8750234161884867
  0.1248094783104764  0.5071949187675845  0.9921157936782059
  0.6256988524040986  0.5110392840577541  0.9960607933745963
  0.1266573297847641  0.0076071375133921  0.2449417194739499
  0.6261452533770505  0.0068409790000641  0.2395165482228159
  0.6253709691871195  0.2638705723958571  0.4972578545034145
  0.6248816357994627  0.7380370632025651 -0.0001149101862284
  0.6254054139490328  0.7647615211009644  0.4935391808776491
  0.1244611895812479  0.2452963967424527  0.7469200596499579
  0.1264733969488871  0.7467655399815698  0.2536608306293155
  0.6256407991952827  0.2380254842831450  0.2579679398952152
  0.6246905237108914  0.2450409323466251  0.7452186940440969
  0.6235329973423640  0.7468081885542019  0.2522661967450692
  0.3759985348829062  0.9965793476756911  0.9866260716634211
  0.3748516807058825  0.5101501548287580  0.5069679004740644
  0.8738165395618036  0.9977508266814483  0.9933429578502093
  0.8754779251744118  0.5077032296368131  0.5027640992243230
  0.3750653221675450  0.9902364134102275  0.7677472612911377
  0.3736686428242030  0.4909875572051430  0.2461972996404886
  0.8757563905795550  0.4916292517217308  0.2495036158700429
  0.8751135855221669  0.4988414490563391  0.7436966547485454
  0.3752467229889162  0.2520968295554930  0.0001670201736966
  0.8743883957779766  0.2528563548549140  0.0022694610369229
  0.8753242965632698  0.7530790358491586  0.7466061187246010
  0.5116124578535370  0.1266430861511854  0.5108298295057954
  0.9906372540101420  0.1259718962315930  0.7455303199886822
  0.4890930229082269  0.1247127645044593  0.2479031360202560
  0.4910292278484262  0.1233934955023052  0.7373046926648686
  0.4954155453729067  0.6257714954010807  0.7424614547698151
  0.0043728275918426  0.3754381838877187  0.0046002660387547
  0.0060284598425683  0.8749765648347355  0.0017376457651330
  0.9909707973719186  0.8748953412131432  0.4991363058024345
  0.5059380661662964  0.3743541509646172 -0.0027148644241860
  0.5084194560182660  0.8752103216121973  0.9944154240134615
  0.0118422316861161  0.3737480984225932  0.2476260883104113
  0.2590846174495960  0.6257832085384198  0.9901056098121630
  0.7368709832073085  0.1247598427535855  0.5077982683637917
  0.2561081185354074  0.6254393296715126  0.7620057309582685
  0.7579855100731991  0.1246708900002666  0.7409161735504445
  0.2551074723966707  0.3755393402463588  0.5056156970230796
  0.2580278469642313  0.8748000968822821  0.5099967066670613
  0.2375082348203939  0.3739425490677765  0.2472328678482338
  0.9949151545760615  0.0031186520568278  0.1267472283593047
  0.9947656874855114  0.9988125037481813  0.6243120494813098
  0.0037304976028524  0.5083891920857290  0.1253456855928228
  0.4872360326120169  0.9933854911285678  0.1252678783396053
  0.4833691428684233  0.9830740824309779  0.6285920193313999
  0.5042906836773274  0.4992463283163867  0.1267372066754997
  0.5089539849325371  0.4929208144925132  0.6247197485344246
  0.0004025201107038  0.4962055801924835  0.3764018245364641
  0.9928566790576806  0.4975017121746220  0.8730441538394800
  0.5156800171020605  0.9999123180708435  0.3722917382932951
  0.5200767341727754  0.0107912566185220  0.8745404701251401
  0.0046229442065112  0.2448212066529875  0.1276680624620201
  0.9959840735014873  0.2568772735469328  0.6222247673592832
  0.5043071351340068  0.2522454137763711  0.1264205541900456
  0.4910217714386447  0.2617403440031876  0.6246258636135531
  0.4990338800673078  0.7543191050715927  0.1260996470023451
  0.9988964122488561  0.2512028752696940  0.8743881719210683
  0.9939105978057922  0.7501000866682876  0.3751386144092894
 -0.0001346581751007  0.7511664103681772  0.8739131830138469
  0.4928592876236098  0.2497522215641399  0.3760278625518453
  0.5022209603289672  0.2398301824518753  0.8742940796111891
  0.4919318188708585  0.7439515650920465  0.3751893785817368
  0.4943996456941040  0.7444426568866248  0.8733420108475621
  0.2425957252212281  0.5064085072121819  0.1245229577610554
  0.7573354280977104 -0.0027918419235676  0.1254168171192261
  0.7593409965192635  0.9920065751213839  0.6240237625076431
  0.2418464492852243  0.9953889417494440  0.3774030967688553
  0.2358934956796874  0.9904219465285561  0.8740296186876652
  0.2502730499954953  0.5000737710518396  0.3758214964293076
  0.2603001446758887  0.4862163905241464  0.8734563426885545
  0.7491277795370368  0.5079983945517756  0.3745104853424416
  0.7547795650152068  0.5079381855169347  0.8738456406615464
  0.2507918638763843  0.7460507696972842  0.1246927874089722
  0.2477628955683166  0.7412013981695450  0.6252284521412442
  0.7542816330668700  0.2633648884789955  0.6237442473464673
  0.7506770889547275  0.7524176551620101  0.1253698320954086
  0.7460862608810571  0.7524141762080854  0.6239700667585363
  0.2494198037159573  0.2511500869433143  0.3767675407656603
  0.2486928095594197  0.2583294253070451  0.8746664458936955
  0.7590980968977136  0.2404401999471907  0.3740343589950725
  0.7495555336688435  0.2410326834478977  0.8758667209315485
  0.1269721166508477  0.0060913592865164  0.0081973639585744
  0.1258303341289264 -0.0022155751611965  0.5118274059757777
  0.1235302014217742  0.4945668065046437  0.4908268807790340
  0.6252352701810935  0.0055711773412684  0.0120963673818138
  0.6295931916227685  0.9762699858888696  0.5137201506616105
  0.6253336622165403  0.4891439906002082  0.4949810085685823
  0.1280656943817538  0.0075828916265123  0.7386367893162025
  0.1242847831568089  0.5113871556304787  0.2525792311489623
  0.1235959171778238  0.5007007948814161  0.7652418411626796
  0.6235041885327605  0.0025599717520653  0.7347295698342157
  0.6251731939798039  0.5055495183555043  0.2520340011661282
  0.6260619727711633  0.4999448785029245  0.7573990421174100
  0.1252730242032738  0.2460397819739430  0.9970028464340243
  0.1232328755471022  0.2534109759220058  0.5034641314242685
  0.1257647282302283  0.7416526971297268  0.9980259720417938
  0.1250639152282579  0.7566555794996956  0.4948351235410283
  0.6258929588245479  0.2443242621557896  0.9968144666322690
  0.1248337471790661  0.2331571503495773  0.2547800553248509
  0.1242777460323225  0.7467172194544142  0.7530250331678645
  0.6262988448438924  0.7470557650797743  0.7528161285792678
  0.3732754238649421  0.0130300022461015  0.4854069320561515
  0.3731104055622769  0.4929122681172100  0.0090586799581332
  0.8754648283749032  0.0141360935869137  0.4972119354143830
  0.8748139622778232  0.4945198391912562  0.0015853121947410
  0.3767470399255989  0.9916304142428261  0.2625271528354859
  0.3740443962667914  0.4919354173640446  0.7388652881638375
  0.8752614632677032  0.9942464889334374  0.2539681955434960
  0.8751418580093592  0.9871622079330395  0.7535502777941554
  0.3763458120469474  0.2382490558593194  0.4993048055984525
  0.3767655965749493  0.7603178364109533  0.0043645727073131
  0.3774380667189819  0.7367607648306177  0.5045360739674516
  0.8741647071475882  0.2417200308819724  0.5030414948031955
  0.8727081015885263  0.7581762784637427  0.0015822586890856
  0.8733115562448701  0.7364424430971561  0.5047680454107748
  0.3772821000490710  0.2622257945134285  0.2504900893901581
  0.3749447602717574  0.2548043300353108  0.7546954862870096
  0.3772787465704999  0.7534226877228568  0.2454771937037155
  0.3750989239412432  0.7620105573233790  0.7453768014536779
  0.8744716869444915  0.2606457427655659  0.2481113760749560
  0.8742637091957637  0.2599568686340047  0.7504569216176519
  0.8746533021515257  0.7534633062671328  0.2470295380304952
 -0.0001523084052854  0.1270599822283695  0.0007767306149940
  0.0066722636302866  0.1257749252694791  0.5086575794352465
  0.9907909921698573  0.6254118129156053  0.9947867521718526
  0.0093049036290661  0.6266663298311657  0.4923686773198391
  0.4999980798033812  0.1243597300590713  0.0069643522056289
  0.4870865148862578  0.6274825299680654  0.0057702416462771
  0.5131892534804033  0.6255706286699834  0.5049387271229837
  0.9881219621978804  0.1276890905263354  0.2481353408119332
  0.9936651243469198  0.6232384160289820  0.2567057402440692
  0.0022315495054078  0.6246555171709388  0.7559952529692576
  0.4945749722891633  0.6254841016188039  0.2455770633335997
  0.9945940910910772  0.3739304026781477  0.4997828557405276
  0.4869529989163696  0.3725687954569796  0.4970604809009928
  0.4835695204302732  0.8746195581672946  0.4882789394250142
  0.0035698688544073  0.3740473310418294  0.7505807200454184
  1.0020195520167572  0.8759126312985115  0.2509674577768296
  0.0088174538422760  0.8760464074892351  0.7466892726630902
  0.5098649435960868  0.3716933714227026  0.2507950120314327
  0.5015748140869439  0.3730641456838482  0.7544085179306887
  0.5024633186845381  0.8749840459415533  0.2536931934406922
  0.5086169042941496  0.8750613413038532  0.7619284371912710
  0.2503383165685099  0.1250637770317809  0.9860076552982867
  0.2489908636404209  0.1253423179706187  0.4997280713088105
  0.2396281971544600  0.6270261383289438  0.4941872794374844
  0.7495476758588481  0.1259657315876071  0.0081170484137055
  0.7647097998718995  0.6250850302030394  0.0075858877941680
  0.7386115959132946  0.6252331626877112  0.5047611729166777
  0.2637496164531349  0.1267259679627122  0.2624320691152657
  0.2607649248215837  0.1249099125312616  0.7596354378269747
  0.2569935044607048  0.6238579298037211  0.2524055135199914
  0.7657080814198709  0.1260416207933309  0.2425831137523826
  0.7550516744940370  0.6243521954614216  0.2419940442735903
  0.7475475890830258  0.6246556358641949  0.7430966855612305
  0.2442599734885227  0.3761381127231452  0.0073068480264021
  0.2424171576426084  0.8746513442985401  0.0105500719006961
  0.7427604551763043  0.3748517977208981  0.9842229899282928
  0.7625928116028455  0.3725447984629723  0.4878643289516983
  0.7406835745244390  0.8745319786588646  0.0016033552258818
  0.7690465572651131  0.8754147075847926  0.4977873730759211
  0.2460898864885240  0.3767673208743639  0.7435752280113934
  0.2499624318645156  0.8761236109052218  0.2434279088232644
  0.2402578902048969  0.8736736537043984  0.7353015116287034
  0.7408686830511130  0.3737203299675632  0.2668896719953467
  0.7469064211827664  0.3730657437398854  0.7607281492721194
  0.7481924997375118  0.8748119125189042  0.2488536851341737
  0.7428007247626008  0.8753063834468024  0.7486344049552123
 
  0.00000000E+00  0.00000000E+00  0.00000000E+00
  0.00000000E+00  0.00000000E+00  0.00000000E+00
  0.00000000E+00  0.00000000E+00  0.00000000E+00
  0.00000000E+00  0.00000000E+00  0.00000000E+00
  0.00000000E+00  0.00000000E+00  0.00000000E+00
  0.00000000E+00  0.00000000E+00  0.00000000E+00
  0.00000000E+00  0.00000000E+00  0.00000000E+00
  0.00000000E+00  0.00000000E+00  0.00000000E+00
  0.00000000E+00  0.00000000E+00  0.00000000E+00
  0.00000000E+00  0.00000000E+00  0.00000000E+00
  0.00000000E+00  0.00000000E+00  0.00000000E+00
  0.00000000E+00  0.00000000E+00  0.00000000E+00
  0.00000000E+00  0.00000000E+00  0.00000000E+00
  0.00000000E+00  0.00000000E+00  0.00000000E+00
  0.00000000E+00  0.00000000E+00  0.00000000E+00
  0.00000000E+00  0.00000000E+00  0.00000000E+00
  0.00000000E+00  0.00000000E+00  0.00000000E+00
  0.00000000E+00  0.00000000E+00  0.00000000E+00
  0.00000000E+00  0.00000000E+00  0.00000000E+00
  0.00000000E+00  0.00000000E+00  0.00000000E+00
  0.00000000E+00  0.00000000E+00  0.00000000E+00
  0.00000000E+00  0.00000000E+00  0.00000000E+00
  0.00000000E+00  0.00000000E+00  0.00000000E+00
  0.00000000E+00  0.00000000E+00  0.00000000E+00
  0.00000000E+00  0.00000000E+00  0.00000000E+00
  0.00000000E+00  0.00000000E+00  0.00000000E+00
  0.00000000E+00  0.00000000E+00  0.00000000E+00
  0.00000000E+00  0.00000000E+00  0.00000000E+00
  0.00000000E+00  0.00000000E+00  0.00000000E+00
  0.00000000E+00  0.00000000E+00  0.00000000E+00
  0.00000000E+00  0.00000000E+00  0.00000000E+00
  0.00000000E+00  0.00000000E+00  0.00000000E+00
  0.00000000E+00  0.00000000E+00  0.00000000E+00
  0.00000000E+00  0.00000000E+00  0.00000000E+00
  0.00000000E+00  0.00000000E+00  0.00000000E+00
  0.00000000E+00  0.00000000E+00  0.00000000E+00
  0.00000000E+00  0.00000000E+00  0.00000000E+00
  0.00000000E+00  0.00000000E+00  0.00000000E+00
  0.00000000E+00  0.00000000E+00  0.00000000E+00
  0.00000000E+00  0.00000000E+00  0.00000000E+00
  0.00000000E+00  0.00000000E+00  0.00000000E+00
  0.00000000E+00  0.00000000E+00  0.00000000E+00
  0.00000000E+00  0.00000000E+00  0.00000000E+00
  0.00000000E+00  0.00000000E+00  0.00000000E+00
  0.00000000E+00  0.00000000E+00  0.00000000E+00
  0.00000000E+00  0.00000000E+00  0.00000000E+00
  0.00000000E+00  0.00000000E+00  0.00000000E+00
  0.00000000E+00  0.00000000E+00  0.00000000E+00
  0.00000000E+00  0.00000000E+00  0.00000000E+00
  0.00000000E+00  0.00000000E+00  0.00000000E+00
  0.00000000E+00  0.00000000E+00  0.00000000E+00
  0.00000000E+00  0.00000000E+00  0.00000000E+00
  0.00000000E+00  0.00000000E+00  0.00000000E+00
  0.00000000E+00  0.00000000E+00  0.00000000E+00
  0.00000000E+00  0.00000000E+00  0.00000000E+00
  0.00000000E+00  0.00000000E+00  0.00000000E+00
  0.00000000E+00  0.00000000E+00  0.00000000E+00
  0.00000000E+00  0.00000000E+00  0.00000000E+00
  0.00000000E+00  0.00000000E+00  0.00000000E+00
  0.00000000E+00  0.00000000E+00  0.00000000E+00
  0.00000000E+00  0.00000000E+00  0.00000000E+00
  0.00000000E+00  0.00000000E+00  0.00000000E+00
  0.00000000E+00  0.00000000E+00  0.00000000E+00
  0.00000000E+00  0.00000000E+00  0.00000000E+00
  0.00000000E+00  0.00000000E+00  0.00000000E+00
  0.00000000E+00  0.00000000E+00  0.00000000E+00
  0.00000000E+00  0.00000000E+00  0.00000000E+00
  0.00000000E+00  0.00000000E+00  0.00000000E+00
  0.00000000E+00  0.00000000E+00  0.00000000E+00
  0.00000000E+00  0.00000000E+00  0.00000000E+00
  0.00000000E+00  0.00000000E+00  0.00000000E+00
  0.00000000E+00  0.00000000E+00  0.00000000E+00
  0.00000000E+00  0.00000000E+00  0.00000000E+00
  0.00000000E+00  0.00000000E+00  0.00000000E+00
  0.00000000E+00  0.00000000E+00  0.00000000E+00
  0.00000000E+00  0.00000000E+00  0.00000000E+00
  0.00000000E+00  0.00000000E+00  0.00000000E+00
  0.00000000E+00  0.00000000E+00  0.00000000E+00
  0.00000000E+00  0.00000000E+00  0.00000000E+00
  0.00000000E+00  0.00000000E+00  0.00000000E+00
  0.00000000E+00  0.00000000E+00  0.00000000E+00
  0.00000000E+00  0.00000000E+00  0.00000000E+00
  0.00000000E+00  0.00000000E+00  0.00000000E+00
  0.00000000E+00  0.00000000E+00  0.00000000E+00
  0.00000000E+00  0.00000000E+00  0.00000000E+00
  0.00000000E+00  0.00000000E+00  0.00000000E+00
  0.00000000E+00  0.00000000E+00  0.00000000E+00
  0.00000000E+00  0.00000000E+00  0.00000000E+00
  0.00000000E+00  0.00000000E+00  0.00000000E+00
  0.00000000E+00  0.00000000E+00  0.00000000E+00
  0.00000000E+00  0.00000000E+00  0.00000000E+00
  0.00000000E+00  0.00000000E+00  0.00000000E+00
  0.00000000E+00  0.00000000E+00  0.00000000E+00
  0.00000000E+00  0.00000000E+00  0.00000000E+00
  0.00000000E+00  0.00000000E+00  0.00000000E+00
  0.00000000E+00  0.00000000E+00  0.00000000E+00
  0.00000000E+00  0.00000000E+00  0.00000000E+00
  0.00000000E+00  0.00000000E+00  0.00000000E+00
  0.00000000E+00  0.00000000E+00  0.00000000E+00
  0.00000000E+00  0.00000000E+00  0.00000000E+00
  0.00000000E+00  0.00000000E+00  0.00000000E+00
  0.00000000E+00  0.00000000E+00  0.00000000E+00
  0.00000000E+00  0.00000000E+00  0.00000000E+00
  0.00000000E+00  0.00000000E+00  0.00000000E+00
  0.00000000E+00  0.00000000E+00  0.00000000E+00
  0.00000000E+00  0.00000000E+00  0.00000000E+00
  0.00000000E+00  0.00000000E+00  0.00000000E+00
  0.00000000E+00  0.00000000E+00  0.00000000E+00
  0.00000000E+00  0.00000000E+00  0.00000000E+00
  0.00000000E+00  0.00000000E+00  0.00000000E+00
  0.00000000E+00  0.00000000E+00  0.00000000E+00
  0.00000000E+00  0.00000000E+00  0.00000000E+00
  0.00000000E+00  0.00000000E+00  0.00000000E+00
  0.00000000E+00  0.00000000E+00  0.00000000E+00
  0.00000000E+00  0.00000000E+00  0.00000000E+00
  0.00000000E+00  0.00000000E+00  0.00000000E+00
  0.00000000E+00  0.00000000E+00  0.00000000E+00
  0.00000000E+00  0.00000000E+00  0.00000000E+00
  0.00000000E+00  0.00000000E+00  0.00000000E+00
  0.00000000E+00  0.00000000E+00  0.00000000E+00
  0.00000000E+00  0.00000000E+00  0.00000000E+00
  0.00000000E+00  0.00000000E+00  0.00000000E+00
  0.00000000E+00  0.00000000E+00  0.00000000E+00
  0.00000000E+00  0.00000000E+00  0.00000000E+00
  0.00000000E+00  0.00000000E+00  0.00000000E+00
  0.00000000E+00  0.00000000E+00  0.00000000E+00
  0.00000000E+00  0.00000000E+00  0.00000000E+00
  0.00000000E+00  0.00000000E+00  0.00000000E+00
  0.00000000E+00  0.00000000E+00  0.00000000E+00
  0.00000000E+00  0.00000000E+00  0.00000000E+00
  0.00000000E+00  0.00000000E+00  0.00000000E+00
  0.00000000E+00  0.00000000E+00  0.00000000E+00
  0.00000000E+00  0.00000000E+00  0.00000000E+00
  0.00000000E+00  0.00000000E+00  0.00000000E+00
  0.00000000E+00  0.00000000E+00  0.00000000E+00
  0.00000000E+00  0.00000000E+00  0.00000000E+00
  0.00000000E+00  0.00000000E+00  0.00000000E+00
  0.00000000E+00  0.00000000E+00  0.00000000E+00
  0.00000000E+00  0.00000000E+00  0.00000000E+00
  0.00000000E+00  0.00000000E+00  0.00000000E+00
  0.00000000E+00  0.00000000E+00  0.00000000E+00
  0.00000000E+00  0.00000000E+00  0.00000000E+00
  0.00000000E+00  0.00000000E+00  0.00000000E+00
  0.00000000E+00  0.00000000E+00  0.00000000E+00
  0.00000000E+00  0.00000000E+00  0.00000000E+00
  0.00000000E+00  0.00000000E+00  0.00000000E+00
  0.00000000E+00  0.00000000E+00  0.00000000E+00
  0.00000000E+00  0.00000000E+00  0.00000000E+00
  0.00000000E+00  0.00000000E+00  0.00000000E+00
  0.00000000E+00  0.00000000E+00  0.00000000E+00
  0.00000000E+00  0.00000000E+00  0.00000000E+00
  0.00000000E+00  0.00000000E+00  0.00000000E+00
  0.00000000E+00  0.00000000E+00  0.00000000E+00
  0.00000000E+00  0.00000000E+00  0.00000000E+00
  0.00000000E+00  0.00000000E+00  0.00000000E+00
  0.00000000E+00  0.00000000E+00  0.00000000E+00
  0.00000000E+00  0.00000000E+00  0.00000000E+00
  0.00000000E+00  0.00000000E+00  0.00000000E+00
  0.00000000E+00  0.00000000E+00  0.00000000E+00
  0.00000000E+00  0.00000000E+00  0.00000000E+00
  0.00000000E+00  0.00000000E+00  0.00000000E+00
  0.00000000E+00  0.00000000E+00  0.00000000E+00
  0.00000000E+00  0.00000000E+00  0.00000000E+00
  0.00000000E+00  0.00000000E+00  0.00000000E+00
  0.00000000E+00  0.00000000E+00  0.00000000E+00
  0.00000000E+00  0.00000000E+00  0.00000000E+00
  0.00000000E+00  0.00000000E+00  0.00000000E+00
  0.00000000E+00  0.00000000E+00  0.00000000E+00
  0.00000000E+00  0.00000000E+00  0.00000000E+00
  0.00000000E+00  0.00000000E+00  0.00000000E+00
  0.00000000E+00  0.00000000E+00  0.00000000E+00
  0.00000000E+00  0.00000000E+00  0.00000000E+00
  0.00000000E+00  0.00000000E+00  0.00000000E+00
  0.00000000E+00  0.00000000E+00  0.00000000E+00
  0.00000000E+00  0.00000000E+00  0.00000000E+00
  0.00000000E+00  0.00000000E+00  0.00000000E+00
  0.00000000E+00  0.00000000E+00  0.00000000E+00
  0.00000000E+00  0.00000000E+00  0.00000000E+00
  0.00000000E+00  0.00000000E+00  0.00000000E+00
  0.00000000E+00  0.00000000E+00  0.00000000E+00
  0.00000000E+00  0.00000000E+00  0.00000000E+00
  0.00000000E+00  0.00000000E+00  0.00000000E+00
  0.00000000E+00  0.00000000E+00  0.00000000E+00
  0.00000000E+00  0.00000000E+00  0.00000000E+00
  0.00000000E+00  0.00000000E+00  0.00000000E+00
  0.00000000E+00  0.00000000E+00  0.00000000E+00
  0.00000000E+00  0.00000000E+00  0.00000000E+00
  0.00000000E+00  0.00000000E+00  0.00000000E+00
  0.00000000E+00  0.00000000E+00  0.00000000E+00
  0.00000000E+00  0.00000000E+00  0.00000000E+00
  0.00000000E+00  0.00000000E+00  0.00000000E+00
  0.00000000E+00  0.00000000E+00  0.00000000E+00
  0.00000000E+00  0.00000000E+00  0.00000000E+00
  0.00000000E+00  0.00000000E+00  0.00000000E+00
  0.00000000E+00  0.00000000E+00  0.00000000E+00
  0.00000000E+00  0.00000000E+00  0.00000000E+00
  0.00000000E+00  0.00000000E+00  0.00000000E+00
  0.00000000E+00  0.00000000E+00  0.00000000E+00
  0.00000000E+00  0.00000000E+00  0.00000000E+00
  0.00000000E+00  0.00000000E+00  0.00000000E+00
  0.00000000E+00  0.00000000E+00  0.00000000E+00
  0.00000000E+00  0.00000000E+00  0.00000000E+00
  0.00000000E+00  0.00000000E+00  0.00000000E+00
  0.00000000E+00  0.00000000E+00  0.00000000E+00
  0.00000000E+00  0.00000000E+00  0.00000000E+00
  0.00000000E+00  0.00000000E+00  0.00000000E+00
  0.00000000E+00  0.00000000E+00  0.00000000E+00
  0.00000000E+00  0.00000000E+00  0.00000000E+00
  0.00000000E+00  0.00000000E+00  0.00000000E+00
  0.00000000E+00  0.00000000E+00  0.00000000E+00
  0.00000000E+00  0.00000000E+00  0.00000000E+00
  0.00000000E+00  0.00000000E+00  0.00000000E+00
  0.00000000E+00  0.00000000E+00  0.00000000E+00
  0.00000000E+00  0.00000000E+00  0.00000000E+00
  0.00000000E+00  0.00000000E+00  0.00000000E+00
  0.00000000E+00  0.00000000E+00  0.00000000E+00
  0.00000000E+00  0.00000000E+00  0.00000000E+00
  0.00000000E+00  0.00000000E+00  0.00000000E+00
  0.00000000E+00  0.00000000E+00  0.00000000E+00
  0.00000000E+00  0.00000000E+00  0.00000000E+00
  0.00000000E+00  0.00000000E+00  0.00000000E+00
  0.00000000E+00  0.00000000E+00  0.00000000E+00
  0.00000000E+00  0.00000000E+00  0.00000000E+00
  0.00000000E+00  0.00000000E+00  0.00000000E+00
  0.00000000E+00  0.00000000E+00  0.00000000E+00
  0.00000000E+00  0.00000000E+00  0.00000000E+00
  0.00000000E+00  0.00000000E+00  0.00000000E+00
  0.00000000E+00  0.00000000E+00  0.00000000E+00
  0.00000000E+00  0.00000000E+00  0.00000000E+00
  0.00000000E+00  0.00000000E+00  0.00000000E+00
  0.00000000E+00  0.00000000E+00  0.00000000E+00
  0.00000000E+00  0.00000000E+00  0.00000000E+00
  0.00000000E+00  0.00000000E+00  0.00000000E+00
  0.00000000E+00  0.00000000E+00  0.00000000E+00
  0.00000000E+00  0.00000000E+00  0.00000000E+00
  0.00000000E+00  0.00000000E+00  0.00000000E+00
  0.00000000E+00  0.00000000E+00  0.00000000E+00
  0.00000000E+00  0.00000000E+00  0.00000000E+00
  0.00000000E+00  0.00000000E+00  0.00000000E+00
  0.00000000E+00  0.00000000E+00  0.00000000E+00
  0.00000000E+00  0.00000000E+00  0.00000000E+00
  0.00000000E+00  0.00000000E+00  0.00000000E+00
  0.00000000E+00  0.00000000E+00  0.00000000E+00
  0.00000000E+00  0.00000000E+00  0.00000000E+00
  0.00000000E+00  0.00000000E+00  0.00000000E+00
  0.00000000E+00  0.00000000E+00  0.00000000E+00
  0.00000000E+00  0.00000000E+00  0.00000000E+00
  0.00000000E+00  0.00000000E+00  0.00000000E+00
  0.00000000E+00  0.00000000E+00  0.00000000E+00
  0.00000000E+00  0.00000000E+00  0.00000000E+00
  0.00000000E+00  0.00000000E+00  0.00000000E+00
  0.00000000E+00  0.00000000E+00  0.00000000E+00
  0.00000000E+00  0.00000000E+00  0.00000000E+00
  0.00000000E+00  0.00000000E+00  0.00000000E+00
  0.00000000E+00  0.00000000E+00  0.00000000E+00
  0.00000000E+00  0.00000000E+00  0.00000000E+00
  0.00000000E+00  0.00000000E+00  0.00000000E+00
