TiOF2 2x2x2 config 1999                 
   1.00000000000000     
     7.8137294056999442   -0.0000023605520801    0.0000256345122032
    -0.0000039013452454    7.8634300012705394    0.0004980256716766
    -0.0000377240299993    0.0004870088649100    7.6752789359543616
   Ti   O    F 
     8     8    16
Direct
  0.9999999942681973  0.0000994703474898  0.9999869519592508
  0.0000012526045304  0.0006777362973590  0.4999908372203268
  0.0000012677029038  0.5000902627736443  0.9999886609760441
 -0.0000003189958066  0.5009590680367888  0.5000054354280762
  0.4999989834918140  0.0021548486274620  0.0002538448731098
  0.4999992886205687  0.9853291100468978  0.5003060590224736
  0.5000006836618374  0.4995918505848291  0.9999675455349540
  0.4999887574958294  0.5053324826667894  0.4999861537386907
  0.2343474208608344  0.5033776717661216  0.5000012961802263
  0.7656595076491229  0.5033759907731584  0.5000063056645552
  0.5000007013613101  0.2444364731112987  0.4999945881276093
  0.5000007257865109  0.7544701960975038  0.4999617935258331
  0.5000049493649370  0.0065222527302771  0.2432222172475089
  0.4999942225547545  0.0066067457721366  0.7565518032267847
  0.5000034467140202  0.4933284201262327  0.2405480614342062
  0.4999982331273472  0.4933969478129492  0.7594728274581229
  0.2431444613847673  0.9992344244750994  0.9999763658311628
  0.2377089055889370  0.9982938820092543  0.4999522710786753
  0.2391913008437327  0.5012858947242640  0.0000060240058181
  0.7568537991250431  0.9992370105265367  0.9999603273600758
  0.7622896343078265  0.9982948334582843  0.4999741344703784
  0.7608096103724193  0.5012854572562621  0.9999975563147137
  1.0000002248353352  0.2576048704044206  0.0000042752422839
  0.0000018423839488  0.2405801803369108  0.4999960111336554
 -0.0000002746536930  0.7425350326116661  0.9999956273288697
  0.0000004887875363  0.7610183702701815  0.5000009669908684
  0.4999978305627251  0.2497666638188138  0.9999449337409843
  0.5000009995192348  0.7514069264304042  0.9999575512366512
  0.9999878954914154  0.0007084593960278  0.2556672785255732
  0.0000110391208289  0.0006916023114260  0.7443042052321249
  0.9999971455966773  0.4991484024581064  0.2409951323352804
  0.0000059804645324  0.4991584619413963  0.7590229575551189
 
  0.00000000E+00  0.00000000E+00  0.00000000E+00
  0.00000000E+00  0.00000000E+00  0.00000000E+00
  0.00000000E+00  0.00000000E+00  0.00000000E+00
  0.00000000E+00  0.00000000E+00  0.00000000E+00
  0.00000000E+00  0.00000000E+00  0.00000000E+00
  0.00000000E+00  0.00000000E+00  0.00000000E+00
  0.00000000E+00  0.00000000E+00  0.00000000E+00
  0.00000000E+00  0.00000000E+00  0.00000000E+00
  0.00000000E+00  0.00000000E+00  0.00000000E+00
  0.00000000E+00  0.00000000E+00  0.00000000E+00
  0.00000000E+00  0.00000000E+00  0.00000000E+00
  0.00000000E+00  0.00000000E+00  0.00000000E+00
  0.00000000E+00  0.00000000E+00  0.00000000E+00
  0.00000000E+00  0.00000000E+00  0.00000000E+00
  0.00000000E+00  0.00000000E+00  0.00000000E+00
  0.00000000E+00  0.00000000E+00  0.00000000E+00
  0.00000000E+00  0.00000000E+00  0.00000000E+00
  0.00000000E+00  0.00000000E+00  0.00000000E+00
  0.00000000E+00  0.00000000E+00  0.00000000E+00
  0.00000000E+00  0.00000000E+00  0.00000000E+00
  0.00000000E+00  0.00000000E+00  0.00000000E+00
  0.00000000E+00  0.00000000E+00  0.00000000E+00
  0.00000000E+00  0.00000000E+00  0.00000000E+00
  0.00000000E+00  0.00000000E+00  0.00000000E+00
  0.00000000E+00  0.00000000E+00  0.00000000E+00
  0.00000000E+00  0.00000000E+00  0.00000000E+00
  0.00000000E+00  0.00000000E+00  0.00000000E+00
  0.00000000E+00  0.00000000E+00  0.00000000E+00
  0.00000000E+00  0.00000000E+00  0.00000000E+00
  0.00000000E+00  0.00000000E+00  0.00000000E+00
  0.00000000E+00  0.00000000E+00  0.00000000E+00
  0.00000000E+00  0.00000000E+00  0.00000000E+00
