TiOF2 2x2x2 config 0018                 
   1.00000000000000     
     7.9144249596928642    0.0000043828880481    0.0000013510136798
     0.0000043233663166    7.7576812017549646   -0.0000062926439012
     0.0000012874018535   -0.0000061123336190    7.5457443377117368
   Ti   O    F 
     8     8    16
Direct
  0.9999999946730048  0.9999999164122443  0.9878555566139122
  0.0000000067796599  0.0000006432682790  0.5098097272177081
  0.0000000141962269  0.4999999211261644  0.0009954818009353
  0.9999999793576342  0.5000006985271639  0.4997049528370395
  0.4999999832665669  0.0000032451839680  0.0003828417464908
  0.5000000215216077  0.9999000788964132  0.4982365147962967
  0.4999999929479116  0.5000030272965175  0.9831469711947571
  0.4999999765487428  0.4999225864639122  0.5023486945591940
  0.5000000167439405  0.2540801552721338  0.4988346026986125
  0.4999999717219424  0.7460145689412644  0.4988354879540098
  0.0000000372246105  0.9999997730925781  0.7507502497541996
  0.9999999892590626  0.4999998130389266  0.2487789345471926
  0.0000000169650331  0.4999998126765228  0.7522661608063569
  0.5000000178638865  0.0000135825094863  0.2439561875997002
  0.4999999788141583  0.0000118098234045  0.7586912558563168
  0.4999999824220115  0.5000092762693376  0.7555430668263229
  0.2407629286663605 -0.0000001073529789  0.0049493689267825
  0.2380835448848345  0.0000037391794618  0.4952538265935172
  0.2492770006944309  0.5000000803801772  0.0033757599699993
  0.2434874774719834  0.5000060733797542  0.4977489576659182
  0.7592370598307606 -0.0000001512769652  0.0049493217771450
  0.7619164653712610  0.0000035200823820  0.4952538623164476
  0.7507229965901389  0.5000000547236301  0.0033757544843457
  0.7565125104878133  0.5000059290592920  0.4977489780975987
  0.0000000339345868  0.2459566989839775  0.0052628431336960
  0.0000000165572495  0.2460947642641710  0.4955557044191456
 -0.0000000050592235  0.7540431245713699  0.0052628034029050
 -0.0000000146472077  0.7539072349422078  0.4955557061298268
  0.5000000156267710  0.2536037766283362  0.0073061816769491
  0.4999999880955538  0.7464044222860512  0.0073080972060101
  0.9999999699571726  0.9999998909488668  0.2490499296736035
  0.5000000312315140  0.5000120404019356  0.2419062177170645
 
  0.00000000E+00  0.00000000E+00  0.00000000E+00
  0.00000000E+00  0.00000000E+00  0.00000000E+00
  0.00000000E+00  0.00000000E+00  0.00000000E+00
  0.00000000E+00  0.00000000E+00  0.00000000E+00
  0.00000000E+00  0.00000000E+00  0.00000000E+00
  0.00000000E+00  0.00000000E+00  0.00000000E+00
  0.00000000E+00  0.00000000E+00  0.00000000E+00
  0.00000000E+00  0.00000000E+00  0.00000000E+00
  0.00000000E+00  0.00000000E+00  0.00000000E+00
  0.00000000E+00  0.00000000E+00  0.00000000E+00
  0.00000000E+00  0.00000000E+00  0.00000000E+00
  0.00000000E+00  0.00000000E+00  0.00000000E+00
  0.00000000E+00  0.00000000E+00  0.00000000E+00
  0.00000000E+00  0.00000000E+00  0.00000000E+00
  0.00000000E+00  0.00000000E+00  0.00000000E+00
  0.00000000E+00  0.00000000E+00  0.00000000E+00
  0.00000000E+00  0.00000000E+00  0.00000000E+00
  0.00000000E+00  0.00000000E+00  0.00000000E+00
  0.00000000E+00  0.00000000E+00  0.00000000E+00
  0.00000000E+00  0.00000000E+00  0.00000000E+00
  0.00000000E+00  0.00000000E+00  0.00000000E+00
  0.00000000E+00  0.00000000E+00  0.00000000E+00
  0.00000000E+00  0.00000000E+00  0.00000000E+00
  0.00000000E+00  0.00000000E+00  0.00000000E+00
  0.00000000E+00  0.00000000E+00  0.00000000E+00
  0.00000000E+00  0.00000000E+00  0.00000000E+00
  0.00000000E+00  0.00000000E+00  0.00000000E+00
  0.00000000E+00  0.00000000E+00  0.00000000E+00
  0.00000000E+00  0.00000000E+00  0.00000000E+00
  0.00000000E+00  0.00000000E+00  0.00000000E+00
  0.00000000E+00  0.00000000E+00  0.00000000E+00
  0.00000000E+00  0.00000000E+00  0.00000000E+00
