TiOF2 2x2x2 config 2036                 
   1.00000000000000     
     7.7358551342762505   -0.0000099066530144   -0.0000025559287316
    -0.0000099682613097    7.7879193670929254    0.0049099449900367
    -0.0000025446789969    0.0049569473561023    7.6867386266967657
   Ti   O    F 
     8     8    16
Direct
  0.9999997214725049  0.0005658739822257  0.9860929121399805
  0.9999979612706561  0.9990760737370473  0.5095519590354279
  0.9999965076131846  0.4998932599878798  0.9804334262670593
  0.0000810343985045  0.4998608878867496  0.5009485370415351
  0.4999997344403680  0.9825799615315982  0.9865402051621018
  0.4999974563731805  0.0200160268435196  0.5105824456731392
  0.4999963638533818  0.5095638848974182  0.0196066598052093
  0.5001316350729005  0.4949686050149859  0.4954369197304609
  0.2432460931223235  0.5006888520231783  0.5004997535617786
  0.7566469487875364  0.5006891217294790  0.5004994805905347
  0.4999940530449784  0.2459169758134752  0.5008651630895188
  0.4999997252884764  0.7514870040900558  0.0014358379782178
  0.9999998282178439  0.9996852002941109  0.7513159326507467
  0.9999906082559437  0.5009935921605224  0.7562125521682380
  0.4999997561426064  0.0006827029969082  0.7521539428976111
  0.4999895161101395  0.4999677229669988  0.2480782270577450
  0.2437829142893864  0.0037262678219608  0.0098884218030688
  0.2437826224201699  0.9962450341736018  0.4914308852294503
  0.2464694745237059  0.4950182643894105  0.0018165692272100
  0.7562165527835489  0.0037262354385715  0.0098884726639072
  0.7562122727194892  0.9962455429774607  0.4914308311816183
  0.7535219196235167  0.4950179725680540  0.0018191666947689
  0.9999997506773356  0.2461992697221163  0.0066216413967657
  0.9999922432537232  0.2400457478433432  0.4916035056516505
  0.9999998148852929  0.7541641448413661  0.0067497901198779
  0.9999910317570099  0.7586634752347226  0.4915911841436372
  0.4999997238552557  0.2470109029148401  0.0022761298141894
  0.4999903747066956  0.7575082544357377  0.4998407202820935
  0.9999997775446200  0.9996533167304676  0.2482142037956096
  0.9999881158961826  0.5007425042078835  0.2397170210744189
  0.4999997730847473  0.0010959584409278  0.2489369469846167
  0.4999866945148120  0.4983013623033763  0.7579205550878407
 
  0.00000000E+00  0.00000000E+00  0.00000000E+00
  0.00000000E+00  0.00000000E+00  0.00000000E+00
  0.00000000E+00  0.00000000E+00  0.00000000E+00
  0.00000000E+00  0.00000000E+00  0.00000000E+00
  0.00000000E+00  0.00000000E+00  0.00000000E+00
  0.00000000E+00  0.00000000E+00  0.00000000E+00
  0.00000000E+00  0.00000000E+00  0.00000000E+00
  0.00000000E+00  0.00000000E+00  0.00000000E+00
  0.00000000E+00  0.00000000E+00  0.00000000E+00
  0.00000000E+00  0.00000000E+00  0.00000000E+00
  0.00000000E+00  0.00000000E+00  0.00000000E+00
  0.00000000E+00  0.00000000E+00  0.00000000E+00
  0.00000000E+00  0.00000000E+00  0.00000000E+00
  0.00000000E+00  0.00000000E+00  0.00000000E+00
  0.00000000E+00  0.00000000E+00  0.00000000E+00
  0.00000000E+00  0.00000000E+00  0.00000000E+00
  0.00000000E+00  0.00000000E+00  0.00000000E+00
  0.00000000E+00  0.00000000E+00  0.00000000E+00
  0.00000000E+00  0.00000000E+00  0.00000000E+00
  0.00000000E+00  0.00000000E+00  0.00000000E+00
  0.00000000E+00  0.00000000E+00  0.00000000E+00
  0.00000000E+00  0.00000000E+00  0.00000000E+00
  0.00000000E+00  0.00000000E+00  0.00000000E+00
  0.00000000E+00  0.00000000E+00  0.00000000E+00
  0.00000000E+00  0.00000000E+00  0.00000000E+00
  0.00000000E+00  0.00000000E+00  0.00000000E+00
  0.00000000E+00  0.00000000E+00  0.00000000E+00
  0.00000000E+00  0.00000000E+00  0.00000000E+00
  0.00000000E+00  0.00000000E+00  0.00000000E+00
  0.00000000E+00  0.00000000E+00  0.00000000E+00
  0.00000000E+00  0.00000000E+00  0.00000000E+00
  0.00000000E+00  0.00000000E+00  0.00000000E+00
