Ti27 O27 F54                            
   1.00000000000000     
    11.5983537290937733    0.0118786895174764    0.0005038419985521
     0.0118795177774143   11.5850750587684725    0.0100799272014184
     0.0005116552968796    0.0101018638775528   11.5988601372803153
   Ti   O    F 
    27    27    54
Direct
  0.9989958725511272  0.0134508287331343  0.0019502006959371
  0.0056506843751336  0.0070693052396109  0.3450844446630370
  0.0093361924183242  0.9898600740441523  0.6576772755834384
  0.9901087008799223  0.3286251918086407  0.9909067518787609
  0.9934430583923941  0.3208309330074783  0.3315928925893488
  0.0108611227486577  0.3339161391718122  0.6768122776036805
  0.0111281713792977  0.6675581693479984  0.9885548167859994
  0.0127450614602367  0.6665517919750457  0.3328597480207804
  0.0089806825965084  0.6759273173866305  0.6760241378735614
  0.3427258737370735  0.9892003241402634  0.9907176027653577
  0.3198781573215967  0.0000023251699588  0.3334693828386506
  0.3227977453847046  0.0006114827061552  0.6777484990326457
  0.3340070769891028  0.3326471671480959  0.0002993493555010
  0.3347923067473673  0.3438353301332810  0.3459523520640531
  0.3253282636811790  0.3424268516453637  0.6562982876506780
  0.3254966224517233  0.6777529250882282  0.0088408663112247
  0.3281386214434932  0.6575813091459537  0.3223105859449689
  0.3225879550963171  0.6560592511833647  0.6654479416834249
  0.6538188557491225  0.9929526239945190  0.9946244604512700
  0.6655265669223169  0.9876734108179406  0.3341588442683303
  0.6665605354743107  0.9994096465799913  0.6799184640673559
  0.6797821743018702  0.3339473401291286  0.9920200618765591
  0.6778374796721209  0.3325706477844790  0.3336269878998905
  0.6670876646873793  0.3394996989909131  0.6780312902948822
  0.6662538491657344  0.6779475202179341  0.0090467978341735
  0.6671486691408717  0.6731115962372058  0.3219573022573670
  0.6663395213713557  0.6539493145552058  0.6656519660850151
  0.0038582203731536  0.1667324800086902  0.0058586148569049
  0.9996392884272396  0.1675293866202452  0.3257016001038906
  0.9964824510102090  0.8333180554660515  0.6686930739552324
  0.3341875095118638  0.4990404291940536  0.3365820003243982
  0.3431587494087509  0.4995984061702714  0.6661380508801500
  0.3377034010189277  0.8336366656172913  0.0004736308255531
  0.6621282870964933  0.4998844978097665  0.6656831169902802
  0.6655068284057890  0.8327823669798633  0.0027864310659425
  0.6677068072743992  0.8344517107026519  0.3321773369343219
  0.1682293428638815  0.9926152270258655  0.3353687905406701
  0.1679475473837897  0.0030419075395614  0.6637999052548906
  0.1662483612576224  0.3337095218735087  0.6700466004105365
  0.1664017195050462  0.6659011321657076  0.0017700693377947
  0.1644418391702942  0.6744003621634960  0.3325630571639664
  0.1676836401648387  0.6630547404190139  0.6637090995319355
  0.5005077651177388  0.0095775261894602  0.0063559924151093
  0.8322145489061796  0.3366846851415701  0.0110500414587094
  0.8304776798746047  0.3361595177351617  0.3290561134188437
  0.9938912549266163  0.0020201692874551  0.4985216237407997
  0.9943482106593038  0.3381133320790752  0.8341480730677375
  0.9956721256046137  0.6599459393450857  0.8340635706625719
  0.3352200897564046  0.0038342738432604  0.8329967060650958
  0.3356772998363127  0.3256909152563381  0.4990073961208950
  0.3418977959753207  0.6636471484730606  0.1671179443372708
  0.6642232794322425  0.0041636382093628  0.8313299596483859
  0.6709831185148829  0.3276864052532531  0.8332122945033973
  0.6625198717466318  0.6602692654551205  0.1681727656822005
  0.9929290993480890  0.1672532583078521  0.6691061607805437
  0.0015521860934271  0.4995854241453372  0.0096873195223708
  0.0033616473027962  0.4997060248573959  0.3339526262170480
  0.9905404807831033  0.4995118287091955  0.6566589061830186
  0.9945577340643155  0.8357895322731324  0.9986912771324512
  0.9859202159148168  0.8321943936252580  0.3318386135218745
  0.3230079232955561  0.1700749081353692  0.0059866619130133
  0.3321396507707775  0.1666981519840292  0.3250911744641698
  0.3415754838108143  0.1675829334372168  0.6682247714469014
  0.3391396520091661  0.4951479989419170  0.9948383253881445
  0.3451862976689668  0.8355217810649478  0.3339656105395932
  0.3386298777018126  0.8331795704806737  0.6650799041158422
  0.6703419863584301  0.1679268298246441  0.0090294498876347
  0.6661747849725970  0.1661577451832343  0.3332806351572444
  0.6665297338564926  0.1661643277999971  0.6575728205178208
  0.6601429482917567  0.4996535335510330  0.9952358040662830
  0.6593930996988817  0.4990334416821014  0.3422038915444574
  0.6708821962445342  0.8327878648134401  0.6644087039711835
  0.1650858059982809  0.9972006654480552  0.0038915597826090
  0.1704531630192392  0.3405132427151543  0.9982056223836864
  0.1664551346342549  0.3329595083912338  0.3313288776297654
  0.5009252268830409  0.0054017662053667  0.3309286635311821
  0.5023268939545034  0.9976255960868556  0.6579865976149790
  0.4978973175529333  0.3262845139057973  0.0022870432838005
  0.5019374481979213  0.3277267954162468  0.3286910522096633
  0.5016751296873352  0.3252310093251296  0.6698379604006703
  0.5013141741167004  0.6589629395363943  0.9903210731379488
  0.5020591313043212  0.6670937892957554  0.3430932278821786
  0.5032140243943743  0.6762890584704735  0.6672066167001773
  0.8326844153059483  0.0033981266297829  0.0021478424092649
  0.8304927641498026  0.0038836439928716  0.3293147482371523
  0.8313082341054994  0.0039408104549707  0.6676200597517621
  0.8317111839120486  0.3311639486668838  0.6556963899349171
  0.8321225272962849  0.6603494321054413  0.0024722763704759
  0.8321873858535227  0.6576364649964930  0.3355253099751536
  0.8305432600191622  0.6650238004419506  0.6620343960110446
  0.9970762859973306  0.9909001884762816  0.1669127966836186
  0.9971890161220358  0.0031787787652107  0.8357464599002142
  0.0099341997751807  0.3410563731366452  0.1664540573252395
  0.0007580567727246  0.3315509396272915  0.4983602870650685
  0.9910077187576221  0.6685321429609914  0.1676972824896410
  0.9933635345904435  0.6660998540678165  0.4978527096456631
  0.3317481358533669  0.0024578710952738  0.1677271810043308
  0.3414465547332739  0.0048742838815983  0.4981531555905150
  0.3331292010799842  0.3346007916345002  0.1637206925801564
  0.3383695972343261  0.3268391744553938  0.8373223531439820
  0.3386953857009587  0.6739623538197606  0.4988892082028329
  0.3381441783330956  0.6660546010982813  0.8329205874323122
  0.6706654559003553  0.0062222950893727  0.1690685043094220
  0.6689484938117971  0.0013649727844864  0.4992065407435931
  0.6566377770375169  0.3391102081975745  0.1676781539444221
  0.6611743512615860  0.3299353328663912  0.4990161791791863
  0.6676403201475196  0.6684229806221325  0.4999488092498012
  0.6713589989569471  0.6677239741126542  0.8319156202205917
 
  0.00000000E+00  0.00000000E+00  0.00000000E+00
  0.00000000E+00  0.00000000E+00  0.00000000E+00
  0.00000000E+00  0.00000000E+00  0.00000000E+00
  0.00000000E+00  0.00000000E+00  0.00000000E+00
  0.00000000E+00  0.00000000E+00  0.00000000E+00
  0.00000000E+00  0.00000000E+00  0.00000000E+00
  0.00000000E+00  0.00000000E+00  0.00000000E+00
  0.00000000E+00  0.00000000E+00  0.00000000E+00
  0.00000000E+00  0.00000000E+00  0.00000000E+00
  0.00000000E+00  0.00000000E+00  0.00000000E+00
  0.00000000E+00  0.00000000E+00  0.00000000E+00
  0.00000000E+00  0.00000000E+00  0.00000000E+00
  0.00000000E+00  0.00000000E+00  0.00000000E+00
  0.00000000E+00  0.00000000E+00  0.00000000E+00
  0.00000000E+00  0.00000000E+00  0.00000000E+00
  0.00000000E+00  0.00000000E+00  0.00000000E+00
  0.00000000E+00  0.00000000E+00  0.00000000E+00
  0.00000000E+00  0.00000000E+00  0.00000000E+00
  0.00000000E+00  0.00000000E+00  0.00000000E+00
  0.00000000E+00  0.00000000E+00  0.00000000E+00
  0.00000000E+00  0.00000000E+00  0.00000000E+00
  0.00000000E+00  0.00000000E+00  0.00000000E+00
  0.00000000E+00  0.00000000E+00  0.00000000E+00
  0.00000000E+00  0.00000000E+00  0.00000000E+00
  0.00000000E+00  0.00000000E+00  0.00000000E+00
  0.00000000E+00  0.00000000E+00  0.00000000E+00
  0.00000000E+00  0.00000000E+00  0.00000000E+00
  0.00000000E+00  0.00000000E+00  0.00000000E+00
  0.00000000E+00  0.00000000E+00  0.00000000E+00
  0.00000000E+00  0.00000000E+00  0.00000000E+00
  0.00000000E+00  0.00000000E+00  0.00000000E+00
  0.00000000E+00  0.00000000E+00  0.00000000E+00
  0.00000000E+00  0.00000000E+00  0.00000000E+00
  0.00000000E+00  0.00000000E+00  0.00000000E+00
  0.00000000E+00  0.00000000E+00  0.00000000E+00
  0.00000000E+00  0.00000000E+00  0.00000000E+00
  0.00000000E+00  0.00000000E+00  0.00000000E+00
  0.00000000E+00  0.00000000E+00  0.00000000E+00
  0.00000000E+00  0.00000000E+00  0.00000000E+00
  0.00000000E+00  0.00000000E+00  0.00000000E+00
  0.00000000E+00  0.00000000E+00  0.00000000E+00
  0.00000000E+00  0.00000000E+00  0.00000000E+00
  0.00000000E+00  0.00000000E+00  0.00000000E+00
  0.00000000E+00  0.00000000E+00  0.00000000E+00
  0.00000000E+00  0.00000000E+00  0.00000000E+00
  0.00000000E+00  0.00000000E+00  0.00000000E+00
  0.00000000E+00  0.00000000E+00  0.00000000E+00
  0.00000000E+00  0.00000000E+00  0.00000000E+00
  0.00000000E+00  0.00000000E+00  0.00000000E+00
  0.00000000E+00  0.00000000E+00  0.00000000E+00
  0.00000000E+00  0.00000000E+00  0.00000000E+00
  0.00000000E+00  0.00000000E+00  0.00000000E+00
  0.00000000E+00  0.00000000E+00  0.00000000E+00
  0.00000000E+00  0.00000000E+00  0.00000000E+00
  0.00000000E+00  0.00000000E+00  0.00000000E+00
  0.00000000E+00  0.00000000E+00  0.00000000E+00
  0.00000000E+00  0.00000000E+00  0.00000000E+00
  0.00000000E+00  0.00000000E+00  0.00000000E+00
  0.00000000E+00  0.00000000E+00  0.00000000E+00
  0.00000000E+00  0.00000000E+00  0.00000000E+00
  0.00000000E+00  0.00000000E+00  0.00000000E+00
  0.00000000E+00  0.00000000E+00  0.00000000E+00
  0.00000000E+00  0.00000000E+00  0.00000000E+00
  0.00000000E+00  0.00000000E+00  0.00000000E+00
  0.00000000E+00  0.00000000E+00  0.00000000E+00
  0.00000000E+00  0.00000000E+00  0.00000000E+00
  0.00000000E+00  0.00000000E+00  0.00000000E+00
  0.00000000E+00  0.00000000E+00  0.00000000E+00
  0.00000000E+00  0.00000000E+00  0.00000000E+00
  0.00000000E+00  0.00000000E+00  0.00000000E+00
  0.00000000E+00  0.00000000E+00  0.00000000E+00
  0.00000000E+00  0.00000000E+00  0.00000000E+00
  0.00000000E+00  0.00000000E+00  0.00000000E+00
  0.00000000E+00  0.00000000E+00  0.00000000E+00
  0.00000000E+00  0.00000000E+00  0.00000000E+00
  0.00000000E+00  0.00000000E+00  0.00000000E+00
  0.00000000E+00  0.00000000E+00  0.00000000E+00
  0.00000000E+00  0.00000000E+00  0.00000000E+00
  0.00000000E+00  0.00000000E+00  0.00000000E+00
  0.00000000E+00  0.00000000E+00  0.00000000E+00
  0.00000000E+00  0.00000000E+00  0.00000000E+00
  0.00000000E+00  0.00000000E+00  0.00000000E+00
  0.00000000E+00  0.00000000E+00  0.00000000E+00
  0.00000000E+00  0.00000000E+00  0.00000000E+00
  0.00000000E+00  0.00000000E+00  0.00000000E+00
  0.00000000E+00  0.00000000E+00  0.00000000E+00
  0.00000000E+00  0.00000000E+00  0.00000000E+00
  0.00000000E+00  0.00000000E+00  0.00000000E+00
  0.00000000E+00  0.00000000E+00  0.00000000E+00
  0.00000000E+00  0.00000000E+00  0.00000000E+00
  0.00000000E+00  0.00000000E+00  0.00000000E+00
  0.00000000E+00  0.00000000E+00  0.00000000E+00
  0.00000000E+00  0.00000000E+00  0.00000000E+00
  0.00000000E+00  0.00000000E+00  0.00000000E+00
  0.00000000E+00  0.00000000E+00  0.00000000E+00
  0.00000000E+00  0.00000000E+00  0.00000000E+00
  0.00000000E+00  0.00000000E+00  0.00000000E+00
  0.00000000E+00  0.00000000E+00  0.00000000E+00
  0.00000000E+00  0.00000000E+00  0.00000000E+00
  0.00000000E+00  0.00000000E+00  0.00000000E+00
  0.00000000E+00  0.00000000E+00  0.00000000E+00
  0.00000000E+00  0.00000000E+00  0.00000000E+00
  0.00000000E+00  0.00000000E+00  0.00000000E+00
  0.00000000E+00  0.00000000E+00  0.00000000E+00
  0.00000000E+00  0.00000000E+00  0.00000000E+00
  0.00000000E+00  0.00000000E+00  0.00000000E+00
  0.00000000E+00  0.00000000E+00  0.00000000E+00
  0.00000000E+00  0.00000000E+00  0.00000000E+00
