Ti27 O27 F54                            
   1.00000000000000     
    11.5819122246106279    0.0032310103957466   -0.0033996994646845
     0.0032063304682169   11.5982377066231557    0.0037088128089075
    -0.0032313125709954    0.0036870242715028   11.5916350916635409
   Ti   O    F 
    27    27    54
Direct
  0.9913481039251621  0.0113172466564464  0.0002736766781339
  0.9998839764908283  0.0099621033874726  0.3437893413942135
  0.0092906227541434  0.0056974618578849  0.6575987501202931
  0.9902233703370982  0.3248968714408562  0.0087426667813375
  0.0002125729959133  0.3250537305674968  0.3217496981875883
  0.9991999091064159  0.3206550217891575  0.6669096789166247
  0.0110371019411346  0.6664864675217075  0.0091301992813513
  0.9891396477506973  0.6663137344339134  0.3227933563512835
  0.0133580591658458  0.6666274217773989  0.6666783174535027
  0.3340203799147687  0.9989377572279707  0.9876969565444895
  0.3445227196670615  0.0113172443656424  0.3323645229557215
  0.3231605925294332  0.0096990283088587  0.6716727656267665
  0.3329075557678962  0.3436110504781311  0.9882503074818487
  0.3439668813807018  0.3219312976935100  0.3337667289491932
  0.3415914971278511  0.3233169413946300  0.6733254297850095
  0.3252482418490530  0.6565519704232869  0.9919272819757694
  0.3335850888677854  0.6669569663372883  0.3345531112753619
  0.3265773531074387  0.6674512887428818  0.6802262857263202
  0.6774379317549091  0.9908515993561267  0.9993440827420841
  0.6595686587879115  0.0109653519489825  0.3423932214382646
  0.6676237425658442  0.0106539361285058  0.6553285659964274
  0.6767381804622516  0.3339472156072674  0.0108421225401401
  0.6590185756694282  0.3242299110744185  0.3254747570432173
  0.6547625920353255  0.3226184199164734  0.6660717353240102
  0.6674861359424895  0.6760439884192451  0.0104840397268617
  0.6783100261483952  0.6664871265192502  0.3223479564232221
  0.6676454085007038  0.6665561334241019  0.6661867284834813
  0.0070394745220170  0.1653510900471105  0.9996821686993513
  0.9994973257094557  0.1670076363296218  0.3318958240100258
  0.9986184197983832  0.1689717616148840  0.6692435819224087
  0.3258479790959754  0.1663476376932991  0.3380160401308032
  0.3307930803263091  0.1660159162054597  0.6592900069231291
  0.3353587156691304  0.5007253020146933  0.0045616704652502
  0.6745688645049981  0.1674242240615840  0.3362808584163091
  0.6693386511562807  0.1669487262992533  0.6650055233451582
  0.6674432899284923  0.8314416325149381  0.9976331578698847
  0.1657325937171734  0.9908682277112746  0.6655392936406344
  0.1664792326742628  0.6715944497670634  0.9982294898892548
  0.1657802820231424  0.6710140826752706  0.6684751330306540
  0.4992234640181650  0.9993703814689425  0.3321713923317020
  0.4984538717719857  0.3346427435478461  0.3383318792219328
  0.5005654297249933  0.3382019194892436  0.6592252743432994
  0.8325721865759377  0.0037270207278581  0.9984236413575331
  0.8323899375569539  0.3321182719018339  0.9925797387932249
  0.8333948540884251  0.6667529116976922  0.3410577318995109
  0.9920778340222398  0.9971271978026124  0.4998388384004855
  0.9974525335847702  0.3415656170169470  0.1675227229540539
  0.9980688355854497  0.6616871203665724  0.1670619086512559
  0.3367432518999536  0.9976327340743936  0.8357125636142797
  0.3320621614066113  0.3333905083052997  0.8327513827528747
  0.3402340371513972  0.6696432572172597  0.8318736792428396
  0.6745864137718414  0.9916967992446217  0.5016898104263916
  0.6690565628494056  0.3398447716175426  0.1666412832736910
  0.6690516256908978  0.6604978683727794  0.1669376660295896
  0.0019969034258693  0.5006753306701270  0.9908721934324802
  0.0065485629544000  0.5021781434177512  0.3445475028847227
  0.9958180931993112  0.5028717741812869  0.6645684870018584
  0.9931645613920708  0.8319255047884511  0.9975990933388061
  0.0061786739132330  0.8312581102930565  0.3328100241523870
  0.9890519835952034  0.8299357149183137  0.6697995719636509
  0.3275771666416389  0.1651177991191730  0.0063498984955430
  0.3314986573208785  0.5047123541503566  0.3288968809714490
  0.3325636975328976  0.5031155110187413  0.6611966396846540
  0.3417561801979687  0.8327039112329047  0.0075848219252066
  0.3310875710550718  0.8293302939604317  0.3336269448510194
  0.3436766864309604  0.8307907965331509  0.6591411700716634
  0.6600314895793389  0.1655523106735544  0.9975154171633918
  0.6608157295141694  0.5020847217073054  0.9905955521743977
  0.6616296036163405  0.5032949000821461  0.3451032906151852
  0.6715364211049817  0.5043653716624590  0.6645344386331686
  0.6625496425895108  0.8310674965215696  0.3305574795218789
  0.6657561715146727  0.8286304768686250  0.6752060048063200
  0.1672191555925906  0.9884168668293327  0.0003265596902153
  0.1672776142350472  0.9919241845726603  0.3347534178456897
  0.1660417897909028  0.3363040306976401  0.0013023816392490
  0.1670778808759934  0.3419744333191304  0.3346762379717276
  0.1645067484801430  0.3433804864287069  0.6628777607915097
  0.1697653645348964  0.6667012396794334  0.3372541291428846
  0.4996476854428167  0.0037265827453794  0.0077441719655980
  0.5002584186033161  0.9941722807326414  0.6630224609580608
  0.4996269528998951  0.3277775054938914  0.0009657104790506
  0.5001488124588604  0.6674481523620770  0.0023413198741409
  0.4976061301320058  0.6672141545715462  0.3373082574918769
  0.5031839812552832  0.6620864316631838  0.6608456776259146
  0.8341524015262394  0.9884953487065573  0.3216370701629430
  0.8330524629678067  0.9930707411772488  0.6808893303907055
  0.8344504096215530  0.3462218522223992  0.3396650665725289
  0.8335468490001006  0.3417182914616603  0.6729558097082204
  0.8334691295088064  0.6603331943039876  0.9917165001359152
  0.8309730052737763  0.6667170966855807  0.6624452414105235
  0.0051169818865091  0.9915971076940551  0.1668741542691095
  0.0033545658902199  0.9935318970634199  0.8336712098198760
  0.9982422208781045  0.3375635820626712  0.5015218298558040
  0.0074803889731498  0.3405107299883809  0.8316844688478042
  0.0026792951948238  0.6706933947023046  0.5011676961628240
  0.9922059378106312  0.6661281633534912  0.8311726969757487
  0.3278409101327071  0.9966743910873035  0.1659463490955986
  0.3333533202891985  0.9890637062872187  0.4988491299252402
  0.3310862646902066  0.3320205129322176  0.1666791263647198
  0.3238168428553294  0.3448022815645970  0.4991947399165682
  0.3359899591954871  0.6710550700518354  0.1712510209045632
  0.3357210040088745  0.6653485279715028  0.4978852550338715
  0.6665576948317451  0.9989105038244475  0.1662563503942991
  0.6571481803320296  0.9989473935317790  0.8327622897652560
  0.6771018455500410  0.3415184779457761  0.5012891924627922
  0.6609297417371849  0.3377539721993585  0.8326361274884135
  0.6621185246034997  0.6735598972042283  0.5031059909082032
  0.6637178979905798  0.6622798984981557  0.8292253094267394
 
  0.00000000E+00  0.00000000E+00  0.00000000E+00
  0.00000000E+00  0.00000000E+00  0.00000000E+00
  0.00000000E+00  0.00000000E+00  0.00000000E+00
  0.00000000E+00  0.00000000E+00  0.00000000E+00
  0.00000000E+00  0.00000000E+00  0.00000000E+00
  0.00000000E+00  0.00000000E+00  0.00000000E+00
  0.00000000E+00  0.00000000E+00  0.00000000E+00
  0.00000000E+00  0.00000000E+00  0.00000000E+00
  0.00000000E+00  0.00000000E+00  0.00000000E+00
  0.00000000E+00  0.00000000E+00  0.00000000E+00
  0.00000000E+00  0.00000000E+00  0.00000000E+00
  0.00000000E+00  0.00000000E+00  0.00000000E+00
  0.00000000E+00  0.00000000E+00  0.00000000E+00
  0.00000000E+00  0.00000000E+00  0.00000000E+00
  0.00000000E+00  0.00000000E+00  0.00000000E+00
  0.00000000E+00  0.00000000E+00  0.00000000E+00
  0.00000000E+00  0.00000000E+00  0.00000000E+00
  0.00000000E+00  0.00000000E+00  0.00000000E+00
  0.00000000E+00  0.00000000E+00  0.00000000E+00
  0.00000000E+00  0.00000000E+00  0.00000000E+00
  0.00000000E+00  0.00000000E+00  0.00000000E+00
  0.00000000E+00  0.00000000E+00  0.00000000E+00
  0.00000000E+00  0.00000000E+00  0.00000000E+00
  0.00000000E+00  0.00000000E+00  0.00000000E+00
  0.00000000E+00  0.00000000E+00  0.00000000E+00
  0.00000000E+00  0.00000000E+00  0.00000000E+00
  0.00000000E+00  0.00000000E+00  0.00000000E+00
  0.00000000E+00  0.00000000E+00  0.00000000E+00
  0.00000000E+00  0.00000000E+00  0.00000000E+00
  0.00000000E+00  0.00000000E+00  0.00000000E+00
  0.00000000E+00  0.00000000E+00  0.00000000E+00
  0.00000000E+00  0.00000000E+00  0.00000000E+00
  0.00000000E+00  0.00000000E+00  0.00000000E+00
  0.00000000E+00  0.00000000E+00  0.00000000E+00
  0.00000000E+00  0.00000000E+00  0.00000000E+00
  0.00000000E+00  0.00000000E+00  0.00000000E+00
  0.00000000E+00  0.00000000E+00  0.00000000E+00
  0.00000000E+00  0.00000000E+00  0.00000000E+00
  0.00000000E+00  0.00000000E+00  0.00000000E+00
  0.00000000E+00  0.00000000E+00  0.00000000E+00
  0.00000000E+00  0.00000000E+00  0.00000000E+00
  0.00000000E+00  0.00000000E+00  0.00000000E+00
  0.00000000E+00  0.00000000E+00  0.00000000E+00
  0.00000000E+00  0.00000000E+00  0.00000000E+00
  0.00000000E+00  0.00000000E+00  0.00000000E+00
  0.00000000E+00  0.00000000E+00  0.00000000E+00
  0.00000000E+00  0.00000000E+00  0.00000000E+00
  0.00000000E+00  0.00000000E+00  0.00000000E+00
  0.00000000E+00  0.00000000E+00  0.00000000E+00
  0.00000000E+00  0.00000000E+00  0.00000000E+00
  0.00000000E+00  0.00000000E+00  0.00000000E+00
  0.00000000E+00  0.00000000E+00  0.00000000E+00
  0.00000000E+00  0.00000000E+00  0.00000000E+00
  0.00000000E+00  0.00000000E+00  0.00000000E+00
  0.00000000E+00  0.00000000E+00  0.00000000E+00
  0.00000000E+00  0.00000000E+00  0.00000000E+00
  0.00000000E+00  0.00000000E+00  0.00000000E+00
  0.00000000E+00  0.00000000E+00  0.00000000E+00
  0.00000000E+00  0.00000000E+00  0.00000000E+00
  0.00000000E+00  0.00000000E+00  0.00000000E+00
  0.00000000E+00  0.00000000E+00  0.00000000E+00
  0.00000000E+00  0.00000000E+00  0.00000000E+00
  0.00000000E+00  0.00000000E+00  0.00000000E+00
  0.00000000E+00  0.00000000E+00  0.00000000E+00
  0.00000000E+00  0.00000000E+00  0.00000000E+00
  0.00000000E+00  0.00000000E+00  0.00000000E+00
  0.00000000E+00  0.00000000E+00  0.00000000E+00
  0.00000000E+00  0.00000000E+00  0.00000000E+00
  0.00000000E+00  0.00000000E+00  0.00000000E+00
  0.00000000E+00  0.00000000E+00  0.00000000E+00
  0.00000000E+00  0.00000000E+00  0.00000000E+00
  0.00000000E+00  0.00000000E+00  0.00000000E+00
  0.00000000E+00  0.00000000E+00  0.00000000E+00
  0.00000000E+00  0.00000000E+00  0.00000000E+00
  0.00000000E+00  0.00000000E+00  0.00000000E+00
  0.00000000E+00  0.00000000E+00  0.00000000E+00
  0.00000000E+00  0.00000000E+00  0.00000000E+00
  0.00000000E+00  0.00000000E+00  0.00000000E+00
  0.00000000E+00  0.00000000E+00  0.00000000E+00
  0.00000000E+00  0.00000000E+00  0.00000000E+00
  0.00000000E+00  0.00000000E+00  0.00000000E+00
  0.00000000E+00  0.00000000E+00  0.00000000E+00
  0.00000000E+00  0.00000000E+00  0.00000000E+00
  0.00000000E+00  0.00000000E+00  0.00000000E+00
  0.00000000E+00  0.00000000E+00  0.00000000E+00
  0.00000000E+00  0.00000000E+00  0.00000000E+00
  0.00000000E+00  0.00000000E+00  0.00000000E+00
  0.00000000E+00  0.00000000E+00  0.00000000E+00
  0.00000000E+00  0.00000000E+00  0.00000000E+00
  0.00000000E+00  0.00000000E+00  0.00000000E+00
  0.00000000E+00  0.00000000E+00  0.00000000E+00
  0.00000000E+00  0.00000000E+00  0.00000000E+00
  0.00000000E+00  0.00000000E+00  0.00000000E+00
  0.00000000E+00  0.00000000E+00  0.00000000E+00
  0.00000000E+00  0.00000000E+00  0.00000000E+00
  0.00000000E+00  0.00000000E+00  0.00000000E+00
  0.00000000E+00  0.00000000E+00  0.00000000E+00
  0.00000000E+00  0.00000000E+00  0.00000000E+00
  0.00000000E+00  0.00000000E+00  0.00000000E+00
  0.00000000E+00  0.00000000E+00  0.00000000E+00
  0.00000000E+00  0.00000000E+00  0.00000000E+00
  0.00000000E+00  0.00000000E+00  0.00000000E+00
  0.00000000E+00  0.00000000E+00  0.00000000E+00
  0.00000000E+00  0.00000000E+00  0.00000000E+00
  0.00000000E+00  0.00000000E+00  0.00000000E+00
  0.00000000E+00  0.00000000E+00  0.00000000E+00
  0.00000000E+00  0.00000000E+00  0.00000000E+00
  0.00000000E+00  0.00000000E+00  0.00000000E+00
