TiOF2 2x2x2 config 1540                 
   1.00000000000000     
     7.7510668523914736   -0.0000078965283229   -0.0000009642741976
    -0.0000078008562119    7.6452511872214313   -0.0000017723879901
    -0.0000009675940017   -0.0000017963966415    7.7486085257175628
   Ti   O    F 
     8     8    16
Direct
  0.0002827036888848  0.9887786558814312  0.9865972612523431
  0.0002826744295433  0.9887788727555035  0.5134026832675519
  0.9872942565579728  0.5112259090139621  0.0004211553870727
  0.9872940353612057  0.5112260424560985  0.4995789385606931
  0.4997173179202531  0.9887788004145295  0.0134026598857309
  0.4997172970177810  0.9887786322071515  0.4865972843214576
  0.5127059859221709  0.5112260130859227  0.9995789227050141
  0.5127057503475989  0.5112259029364463  0.5004211765232386
  0.7500000463102129  0.4970858820827932  0.9999999931173159
  0.7499999498283262  0.4970858649612913  0.5000000492243758
  0.0018705591694827  0.7499916884708423  0.0028694599471244
  0.0018705402437580  0.7499917354348742  0.4971304729299519
  0.4981293991715032  0.7499916787099457  0.9971304092519739
  0.4981294055099652  0.7499916366416207  0.5028695434103455
  0.9992297433976457  0.0023549288938608  0.7500000340286676
  0.5007702849890356  0.0023548005063472  0.2500000302093818
  0.2500000336537502  0.0094987197484028  0.9999999919040653
  0.2499999911417156  0.0094987276221708  0.5000000043162126
  0.2500000663547375  0.4946771364880674  0.0000000439393392
  0.2499999703918471  0.4946771194932600  0.4999999935712794
  0.7499999737140908  0.0118340983353959  0.0000000142973435
  0.7500000371704079  0.0118341288019773  0.5000000063484056
  0.0040609735442142  0.2498913028635981  0.0045103197631031
  0.0040611205861241  0.2498912955785844  0.4954894811648490
  0.4959388401481314  0.2498912842713064  0.9954895821195183
  0.4959390726843357  0.2498912797579218  0.5045102830293214
  0.9991055263372557  0.0054807092331132  0.2500000549294171
  0.0082579139007027  0.4904638380346589  0.2500000223577500
  0.0079195018109114  0.4888294124624708  0.7500000283289840
  0.5008945151606807  0.0054807017946380  0.7500000332125045
  0.4920805212581332  0.4888294637185949  0.2500000455047560
  0.4917419922776363  0.4904637373432124  0.7500000211909269
 
  0.00000000E+00  0.00000000E+00  0.00000000E+00
  0.00000000E+00  0.00000000E+00  0.00000000E+00
  0.00000000E+00  0.00000000E+00  0.00000000E+00
  0.00000000E+00  0.00000000E+00  0.00000000E+00
  0.00000000E+00  0.00000000E+00  0.00000000E+00
  0.00000000E+00  0.00000000E+00  0.00000000E+00
  0.00000000E+00  0.00000000E+00  0.00000000E+00
  0.00000000E+00  0.00000000E+00  0.00000000E+00
  0.00000000E+00  0.00000000E+00  0.00000000E+00
  0.00000000E+00  0.00000000E+00  0.00000000E+00
  0.00000000E+00  0.00000000E+00  0.00000000E+00
  0.00000000E+00  0.00000000E+00  0.00000000E+00
  0.00000000E+00  0.00000000E+00  0.00000000E+00
  0.00000000E+00  0.00000000E+00  0.00000000E+00
  0.00000000E+00  0.00000000E+00  0.00000000E+00
  0.00000000E+00  0.00000000E+00  0.00000000E+00
  0.00000000E+00  0.00000000E+00  0.00000000E+00
  0.00000000E+00  0.00000000E+00  0.00000000E+00
  0.00000000E+00  0.00000000E+00  0.00000000E+00
  0.00000000E+00  0.00000000E+00  0.00000000E+00
  0.00000000E+00  0.00000000E+00  0.00000000E+00
  0.00000000E+00  0.00000000E+00  0.00000000E+00
  0.00000000E+00  0.00000000E+00  0.00000000E+00
  0.00000000E+00  0.00000000E+00  0.00000000E+00
  0.00000000E+00  0.00000000E+00  0.00000000E+00
  0.00000000E+00  0.00000000E+00  0.00000000E+00
  0.00000000E+00  0.00000000E+00  0.00000000E+00
  0.00000000E+00  0.00000000E+00  0.00000000E+00
  0.00000000E+00  0.00000000E+00  0.00000000E+00
  0.00000000E+00  0.00000000E+00  0.00000000E+00
  0.00000000E+00  0.00000000E+00  0.00000000E+00
  0.00000000E+00  0.00000000E+00  0.00000000E+00
