TiOF2 2x2x2 config 0018                 
   1.00000000000000     
     7.9132640095392768   -0.0000000129559441   -0.0000000039907889
     0.0000000144329345    7.7567288973682267   -0.0000040275351823
    -0.0000000051985679   -0.0000039102578410    7.5441092126316285
   Ti   O    F 
     8     8    16
Direct
 -0.0000000009295627 -0.0000000242155446 -0.0121194514501730
  0.0000000040124734  0.0000004579674669  0.5097761966990704
  0.0000000015639136  0.4999999877629985  0.0010456493116289
 -0.0000000026026321  0.5000004859210597  0.4997865039907783
  0.4999999963834814  0.0000030244996312  0.0003697665349426
  0.5000000021015201 -0.0000571890095197  0.4982467717023379
  0.5000000006658643  0.5000024650464017 -0.0168152405375577
  0.4999999972776011  0.4999560646587111  0.5023250973358624
  0.4999999977255562  0.2540766443878659  0.4988644081295292
  0.4999999977216862  0.7459765017917387  0.4988642146698142
  0.0000000180706264 -0.0000000489656735  0.7507327210920246
 -0.0000000090075306  0.4999999376657072  0.2487858954397342
  0.0000000047875885  0.4999999085104366  0.7522809096470943
  0.5000000150802136  0.0000069704952004  0.2438917756729280
  0.4999999867570874  0.0000053192537622  0.7586485328942627
  0.4999999938255761  0.5000054717976429  0.7555267873472810
  0.2407896005221085  0.0000000253996767  0.0049047418089456
  0.2380916758799112  0.0000021089694807  0.4952874724932364
  0.2492987683846621  0.5000000535193050  0.0034197308573426
  0.2435054901754062  0.5000034088876203  0.4977797489834342
  0.7592103960197154  0.0000000255142754  0.0049046816389537
  0.7619083270908446  0.0000021090112722  0.4952875205371650
  0.7507012335453020  0.5000000535538351  0.0034197023388105
  0.7564945057195013  0.5000034088690297  0.4977797682965373
  0.0000000044966315  0.2459656633259687  0.0051950885043931
  0.0000000019870522  0.2460966845573138  0.4955946627904468
  0.0000000045165872  0.7540343074824206  0.0051950902088646
  0.0000000019869882  0.7539045360288864  0.4955946334062039
  0.4999999961660899  0.2535888333725830  0.0072554820696518
  0.4999999961960141  0.7464161061448774  0.0072571066078976
 -0.0000000190401860 -0.0000000162184062  0.2490342072046755
  0.5000000129199063  0.5000067140139728  0.2418798237738870
 
  0.00000000E+00  0.00000000E+00  0.00000000E+00
  0.00000000E+00  0.00000000E+00  0.00000000E+00
  0.00000000E+00  0.00000000E+00  0.00000000E+00
  0.00000000E+00  0.00000000E+00  0.00000000E+00
  0.00000000E+00  0.00000000E+00  0.00000000E+00
  0.00000000E+00  0.00000000E+00  0.00000000E+00
  0.00000000E+00  0.00000000E+00  0.00000000E+00
  0.00000000E+00  0.00000000E+00  0.00000000E+00
  0.00000000E+00  0.00000000E+00  0.00000000E+00
  0.00000000E+00  0.00000000E+00  0.00000000E+00
  0.00000000E+00  0.00000000E+00  0.00000000E+00
  0.00000000E+00  0.00000000E+00  0.00000000E+00
  0.00000000E+00  0.00000000E+00  0.00000000E+00
  0.00000000E+00  0.00000000E+00  0.00000000E+00
  0.00000000E+00  0.00000000E+00  0.00000000E+00
  0.00000000E+00  0.00000000E+00  0.00000000E+00
  0.00000000E+00  0.00000000E+00  0.00000000E+00
  0.00000000E+00  0.00000000E+00  0.00000000E+00
  0.00000000E+00  0.00000000E+00  0.00000000E+00
  0.00000000E+00  0.00000000E+00  0.00000000E+00
  0.00000000E+00  0.00000000E+00  0.00000000E+00
  0.00000000E+00  0.00000000E+00  0.00000000E+00
  0.00000000E+00  0.00000000E+00  0.00000000E+00
  0.00000000E+00  0.00000000E+00  0.00000000E+00
  0.00000000E+00  0.00000000E+00  0.00000000E+00
  0.00000000E+00  0.00000000E+00  0.00000000E+00
  0.00000000E+00  0.00000000E+00  0.00000000E+00
  0.00000000E+00  0.00000000E+00  0.00000000E+00
  0.00000000E+00  0.00000000E+00  0.00000000E+00
  0.00000000E+00  0.00000000E+00  0.00000000E+00
  0.00000000E+00  0.00000000E+00  0.00000000E+00
  0.00000000E+00  0.00000000E+00  0.00000000E+00
