config 22                               
   1.00000000000000     
    15.4263309999999993    0.0000000000000000    0.0000000000000000
     0.0000000000000000   15.4263309999999993    0.0000000000000000
     0.0000000000000000    0.0000000000000000   15.4263309999999993
   Li   Ti   O    F 
     1    64    64   128
Direct
  0.3639993849890882  0.4007466719278375  0.4009820374109485
  0.9949373773887860  0.9955890328199275  0.9946440127340314
  0.0008845751911388  0.9919392942092524  0.4935107826311464
  0.0052613731064016  0.4951412077875209  0.9978581229610324
  0.9937876640683692  0.5023786762810619  0.5069862801304168
  0.4941089832667872  0.9946043647652121  0.0003484392440486
  0.5023277313840101  0.0068622932991901  0.5011288042255627
  0.5037178912120652  0.4955867514621767  0.9962253556494085
  0.4940423419376159  0.5000034084309364  0.4953388360239361
  0.0066809685294698  0.0027818582518219  0.2562248169680782
  0.0011209739309227  0.0075299425663295  0.7567078597760991
  0.9933011620748420  0.4938775916650269  0.2516045471089987
  0.9923330559276829  0.4989687674667515  0.7420956792780716
  0.5065021095166476  0.0090924748005582  0.2518570722509382
  0.4926294266977857  0.0042630783282439  0.7520160391168316
  0.4940608652318719  0.4963678001250715  0.2564349030824161
  0.5008197996163011  0.5043602048168595  0.7587900005639368
  0.9947612766327920  0.2570815983964574  0.0011378765447286
  0.9982122311659682  0.2484668344498271  0.4910845610281339
  0.9979990729731424  0.7580541125223443  0.0060709205959478
  0.9985786857046992  0.7566615946251031  0.5059072678252842
  0.4945731938102819  0.2579080908491986  0.0007312384935257
  0.5076268473840864  0.2456672982963590  0.4987426489777020
  0.5072529081148163  0.7565043464410356  0.9994114250657504
  0.5068261377344135  0.7533473160276130  0.5090767871519392
  0.9990695177286301  0.2581794386235286  0.2547817136542828
  0.0052740998341437  0.2421424713852762  0.7468980872897625
  0.0070717050594340  0.7484423432542912  0.2431269464491638
  0.9927362632149044  0.7506217335070494  0.7433557903318376
  0.5084888635418542  0.2428705897946168  0.2518556199359743
  0.5051351844693227  0.2422124344626828  0.7487452407883067
  0.5069250959200291  0.7517456848804395  0.2520211381422152
  0.5016944409748134  0.7422908172426704  0.7436990012180857
  0.2562003329261073  0.9985581625166067  0.0062269685566251
  0.2507548834930306  0.9942068184219216  0.5067610979091836
  0.2433724168703549  0.5076577060870779  0.9979413842925808
  0.2526416443698865  0.4958905982467740  0.5081642420127410
  0.7570674765290324  0.0003942986891706  0.9943890882503005
  0.7512687690509338  0.0066545421713779  0.4945663983205735
  0.7417645166272945  0.5005436586215873  0.0049137711421469
  0.7561951467764788  0.4977509435454435  0.5048892475325750
  0.2449787650282697  0.0020137641299739  0.2440232923415701
  0.2575938809883248  0.9978315263734855  0.7446164908866998
  0.2539789545120308  0.4921191709273062  0.2512589390253062
  0.2474495120172822  0.5063396565756381  0.7423723319780270
  0.7450206380959613  0.9999438763604641  0.2561100939496689
  0.7483461814020756  0.0060578269257341  0.7561327172129291
  0.7560312966802427  0.4993391758723810  0.2426878467697622
  0.7569605232921504  0.4979649637970288  0.7424013815613647
  0.2567706391525682  0.2515074004571565  0.0050707278856069
  0.2524152310689221  0.2566941727449961  0.5056219074684210
  0.2518512507303510  0.7423966110049045  0.9940444536269957
  0.2517024790063267  0.7559701576389788  0.4930533724081820
  0.7566222173680845  0.2505681954478694  0.0068983360189985
  0.7427098101713391  0.2429029959674658  0.4960074836330731
  0.7418259830916347  0.7498284929247159  0.9941197842003160
  0.7421100246074370  0.7523354107692866  0.4941847891091351
  0.2503786467410750  0.2569281871200478  0.2427899757297186
  0.2432921072346250  0.2520440065543619  0.7442121068714675
  0.2442907773889514  0.7478590184267254  0.2559540631344442
  0.2479014258506469  0.7421868460278013  0.7566568250409640
  0.7423532384463373  0.2506819722122920  0.2425752819310754
  0.7428522143282236  0.2418063015665340  0.7496259175668354
  0.7458766718094417  0.7503985165296170  0.2566084179592396
  0.7572645057280495  0.7506416231052491  0.7567909936855869
  0.0066972004775097  0.5013262935618902  0.6245498972575190
  0.9950075835699198  0.0059081590949435  0.3761477593912053
  0.9987691215656515  0.0028170283932585  0.8727436595774904
  0.5015622961835851  0.4863082585886278  0.3747528719690469
  0.4956259525048036  0.4984753636618793  0.8750824962907520
  0.9985958928427380  0.7459435003843444  0.1258138868971147
  0.0011763067925853  0.7463324715814422  0.6242695403128266
  0.5008393933935652  0.7549087618808069  0.6251230730105297
  0.9951941352635454  0.2466855551335043  0.3760094885955945
  0.2540535983362571  0.0024978463183214  0.1256013938167133
  0.2530656498020053  0.0027583127899971  0.6253548526929761
  0.2433790983315380  0.4906876999346999  0.6257403822288827
  0.7525563665658800  0.4935480695573741  0.1255563850742466
  0.7473959296247140  0.4947361221099403  0.6236671364689121
  0.7525245326834797  0.9963101688967697  0.3751954340649697
  0.7472237127547361  0.9965593916478569  0.8738178416375642
  0.2450090639578862  0.2530472980015839  0.1254282175507299
  0.2537926484086715  0.2551177551014017  0.6241471691247255
  0.7423364776475966  0.2569800217352177  0.1258056585604910
  0.2545646560784068  0.7450804230174914  0.3748390523153272
  0.2505762303118024  0.7506062982464450  0.8750446632720170
  0.7517552985644146  0.7534730399235167  0.3738753777653198
  0.7471995184230908  0.7537741212989797  0.8753682372710925
  0.1245191856593640  0.5028520940953618  0.9973126496946899
  0.6253758434184661  0.5061478336585774  0.0008950603830433
  0.1256090180937658  0.0027195061929236  0.2528703892300022
  0.6250364796095564  0.0007643247150826  0.2500095496292202
  0.6292562952285564  0.2552861915661478  0.4898568318281896
  0.6246708128399320  0.7428227222009663  0.0044635333903127
  0.6247686053124295  0.7592473975911322  0.4969646792554445
  0.1245103635887235  0.2497646474303647  0.7476435027753130
  0.1259747795008631  0.7513944917525844  0.2514824969053422
  0.6260002280714198  0.2466014863685799  0.2626219282796727
  0.6243488654523391  0.2508154283683360  0.7445329635501703
  0.6228818661115918  0.7542171149448643  0.2501697368735425
  0.3756361788314751  0.0004637082122315  0.9932120600394148
  0.3748683936677908  0.5000895430013477  0.4919185612355461
  0.8731153246011017  0.0030383472838886  0.0009640765058043
  0.8759152174157869  0.5001317616363545  0.4977297698903248
  0.3753531416254184  0.9945914957285054  0.7570255790876547
  0.3737962296795032  0.4912141065155307  0.2582414676104031
  0.8756729372829070  0.4992173712119156  0.2544652872814632
  0.8749944394967691  0.5070817889708510  0.7475032639128772
  0.3749424646273316  0.2474640155261457  0.0026189885237269
  0.8740025248400352  0.2470540946815095  0.0045110166644018
  0.8749445424122919  0.7439085328245325  0.7503658519595339
  0.5107568899880739  0.1179487635146429  0.4988311671785491
  0.9946886179642824  0.1260811881397288  0.7428646452196155
  0.4956483972101587  0.1261618210774361  0.2643335094256516
  0.4993122781424705  0.1223920947655067  0.7471088742112968
  0.5006843995902567  0.6251808510810399  0.7487858468518812
  0.9988512231398905  0.3753146681554979  0.0039803547920921
  0.0009947568773388  0.8748843311183566  0.0010817947104222
  0.0034785157725575  0.8746567541195642  0.4978644701965607
  0.5010467468287800  0.3743513573603019  0.0074361289205011
  0.5034658989575320  0.8752607351530981  0.0032711441067688
  0.0059609822529092  0.3742214719518657  0.2475996728373356
  0.2548326801411699  0.6250183802772257  0.0037156065135259
  0.7477763497187512  0.1232896371770494  0.5016101800048214
  0.2483273196781415  0.6241523041793459  0.7473191809903008
  0.7519262571199790  0.1242602633915708  0.7460713183642731
  0.2583762950351002  0.3744328909042441  0.4831095063377869
  0.2489518360556926  0.8756133999942328  0.4990982119865125
  0.2437498872647364  0.3744775205238880  0.2624171108457764
  0.0012704229539507  0.0019363145189396  0.1267813927138046
  0.0065970201509030  0.9971976841111930  0.6236068780643212
  0.9979566219492025  0.5086784562901097  0.1252880984009047
  0.4941111439853657  0.0074224326670351  0.1271040998017923
  0.4976363546989428  0.9872584974671850  0.6253716777238681
  0.4972351806817536  0.5099919312592494  0.1278251281022407
  0.5026469092798544  0.5025147292548566  0.6236501923603529
  0.0067138802586403  0.4961596259479644  0.3760510560950749
  0.9972264624941438  0.4976444810969899  0.8728709512339388
  0.5029325052257806  0.9892173719741646  0.3762979131960070
  0.5141311841836476  0.0019109009556184  0.8758667222073748
  0.0079199993946130  0.2459299013049533  0.1269277082688776
  0.9994415508953516  0.2594496443636239  0.6212733418546943
  0.5074351994806406  0.2378984255208786  0.1264178715972056
  0.4870141149403228  0.2477007487250022  0.6263237842315804
  0.4952168446731073  0.7453179041378565  0.1271360296242367
  0.9966326026789551  0.2497904258252453  0.8740007604256632
  0.9948106613182954  0.7502708002668649  0.3750255917278847
  0.0026498427643351  0.7507102368848856  0.8739665259662727
  0.4870845448864526  0.2739469072815874  0.3707696733255905
  0.5017217482269596  0.2508596348350624  0.8746089687956027
  0.4933845506778273  0.7517048250926672  0.3755091657242833
  0.4997867305718576  0.7488992020991558  0.8745948258590318
  0.2493004800711325  0.4907991855186278  0.1250408493413543
  0.7490646329875039  0.0053851037389523  0.1261571774012183
  0.7459730557512032  0.9965202583329773  0.6236232991398615
  0.2532425064888875  0.0026887844038367  0.3757954017944488
  0.2433488267294568  0.9950887917010801  0.8746686197728580
  0.2444792823732654  0.5127388782685200  0.3747783268653396
  0.2578741577726977  0.4999451696439209  0.8735478068133777
  0.7445464233743621  0.5062167592502380  0.3745861539316174
  0.7503610060455785  0.5042126223715861  0.8738200816769641
  0.2526988250982380  0.7546164993882847  0.1251012113119294
  0.2488194176807114  0.7515943222166125  0.6250629018733360
  0.7527174578051169  0.2589217617665546  0.6226192672163106
  0.7535247059936631  0.7458535987216298  0.1256834076736040
  0.7485676239913693  0.7461592292555477  0.6243756144272293
  0.2517358189204027  0.2416513982001206  0.3736329548446327
  0.2486465776192402  0.2500845757747193  0.8752174045381212
  0.7673393316092457  0.2443607814965767  0.3721493246664727
  0.7496715504383693  0.2467075457143511  0.8754061831579545
  0.1259485952470885  0.0010777547441724  0.0014320223442145
  0.1257598465108288  0.0100496274498356  0.4965647783087246
  0.1245317579919241  0.5010227773627223  0.4947068556932698
  0.6250356865263311  0.0006392100346611  0.0077832086603638
  0.6259342465412852  0.9812415750564122  0.5014419256228380
  0.6249613674121562  0.4960577453098353  0.4992132122749243
  0.1268261968694446  0.0027565506638038  0.7488616570485781
  0.1245984118933346  0.5061505556292918  0.2456518364037850
  0.1236316255231284  0.4942260029885400  0.7604924313174635
  0.6236499361664777  0.9949531425428897  0.7428577769015661
  0.6248254281831696  0.4989241101047133  0.2477731563555342
  0.6260341738169201  0.4936450739960261  0.7525994448652419
  0.1245578621647087  0.2511982658222717  0.9952928852449602
  0.1240936206143505  0.2463484158798837  0.4995222037307487
  0.1252069334087388  0.7456074586594399  0.0015415965843922
  0.1248390042598272  0.7443873816981622  0.4960612888267987
  0.6255472831421863  0.2507974343554701  0.9953611827517178
  0.1242208434649442  0.2377635770206618  0.2555885093369012
  0.1233801315410960  0.7524387851500188  0.7504689008433421
  0.6264362938909720  0.7531342712061290  0.7489718878124019
  0.3768935578061386  0.0040770557359930  0.4975200943351679
  0.3730367169979312  0.4960337250114024  0.0056124801121915
  0.8761276617890671  0.0008335994291869  0.5103022783786826
  0.8745457079960374  0.4988494948942403  0.9977001637569458
  0.3769619017391322  0.9970720770306295  0.2557591555488756
  0.3743370099379851  0.4976311521124819  0.7431306068570711
  0.8744698209862118  0.9993614799140544  0.2455740742166409
  0.8744723172458179  0.9927032931828934  0.7414964780655402
  0.3766960400546116  0.2459909441383918  0.4914430582818912
  0.3763594830966153  0.7565039260127426  0.0006558736751432
  0.3766205097651723  0.7435056083240495  0.5030239993046757
  0.8759886832102546  0.2546951015637299  0.5052623729112090
  0.8723652040041564  0.7535602395509216  0.9978271457124502
  0.8733918931298802  0.7451423005547404  0.5023377965497448
  0.3770746496461156  0.2590263072825176  0.2457621601772091
  0.3742876890713637  0.2505100893845063  0.7569360360298734
  0.3770636176350946  0.7476503741507516  0.2477569385747418
  0.3746939047573892  0.7551075428414817  0.7495399766039004
  0.8745992730537669  0.2550971056042254  0.2413870951848589
  0.8739820362192926  0.2547365888164206  0.7478926758348400
  0.8740020445705794  0.7451702530865699  0.2495584865692345
  0.0044713746637482  0.1269419045361551  0.0015353511940796
  0.9957614666949209  0.1260792544434365  0.5095077876051417
  0.9944425124656816  0.6252570390775329  0.9942219966229013
  0.0008493710539266  0.6259998385396460  0.4926626385869934
  0.5046578346888052  0.1247020165581408  0.9978209984186670
  0.4899732301541466  0.6272043202710630  0.0001575676543764
  0.5056614166647287  0.6263931548754100  0.4958697540000224
  0.9923953658549366  0.1275910829016504  0.2462712035161486
  0.0011930394436202  0.6231362584200235  0.2577432536147077
  0.0101248195305710  0.6242645347362911  0.7551567428331684
  0.5010090427630285  0.6249786491921021  0.2572178345441095
  0.0058851233022512  0.3742849217961410  0.4971868532380759
  0.4911244608243702  0.3759848182537035  0.5083091497918559
  0.4874321398378744  0.8750550107298097  0.4946527125231550
  0.9965537211632781  0.3744647160660758  0.7515254656657965
  0.9953165403738793  0.8756122034154659  0.2514804123960928
  0.0009114279493496  0.8756047532716820  0.7480086692718519
  0.5048570766540699  0.3729145050005867  0.2327777562894078
  0.4968514519341143  0.3739673040158222  0.7461186624149428
  0.4956389841459383  0.8758992827295330  0.2462247122822795
  0.5029911523753784  0.8737767819693800  0.7587372480771863
  0.2450252970399029  0.1250209000052691  0.9948177249232898
  0.2522468909035178  0.1260399838559955  0.4990432770422870
  0.2489500864778741  0.6255049426879037  0.5074619466856451
  0.7420406490760437  0.1260615482489215  0.0001690145798257
  0.7600253603534647  0.6253877548800870  0.0008090119837719
  0.7459338155283515  0.6253494530789758  0.5000913653845113
  0.2597036806790541  0.1269100594731695  0.2513899323409269
  0.2529982328106494  0.1250914898412301  0.7552326284028854
  0.2527710991751977  0.6228768014437307  0.2394503312287819
  0.7577696375013689  0.1258356960777708  0.2491987960084710
  0.7449220274878620  0.6250477126677776  0.2484769588640167
  0.7395691753262054  0.6244560651432627  0.7486999087643202
  0.2494213859804931  0.3762560548573277  0.9950623254931897
  0.2457968137493987  0.8735828332441822  0.0028208982008546
  0.7492740035353866  0.3751267056334109  0.9892015470302442
  0.7549323711139816  0.3736300844677469  0.4889139391152821
  0.7466165394404753  0.8748122122075166  0.0100086493942729
  0.7614893928977048  0.8750632348200418  0.5054070034637139
  0.2520085521842664  0.3761678878693839  0.7586932270076223
  0.2548348608684210  0.8752476291916355  0.2520461243485710
  0.2445974428349405  0.8731656108310304  0.7464671498915454
  0.7487446052508614  0.3746682601080801  0.2628920527376082
  0.7532030452684917  0.3737701531314671  0.7565374122778545
  0.7552802863980275  0.8748075288201563  0.2402022069937780
  0.7507763676710055  0.8745896049275743  0.7426497221334047
 
  0.00000000E+00  0.00000000E+00  0.00000000E+00
  0.00000000E+00  0.00000000E+00  0.00000000E+00
  0.00000000E+00  0.00000000E+00  0.00000000E+00
  0.00000000E+00  0.00000000E+00  0.00000000E+00
  0.00000000E+00  0.00000000E+00  0.00000000E+00
  0.00000000E+00  0.00000000E+00  0.00000000E+00
  0.00000000E+00  0.00000000E+00  0.00000000E+00
  0.00000000E+00  0.00000000E+00  0.00000000E+00
  0.00000000E+00  0.00000000E+00  0.00000000E+00
  0.00000000E+00  0.00000000E+00  0.00000000E+00
  0.00000000E+00  0.00000000E+00  0.00000000E+00
  0.00000000E+00  0.00000000E+00  0.00000000E+00
  0.00000000E+00  0.00000000E+00  0.00000000E+00
  0.00000000E+00  0.00000000E+00  0.00000000E+00
  0.00000000E+00  0.00000000E+00  0.00000000E+00
  0.00000000E+00  0.00000000E+00  0.00000000E+00
  0.00000000E+00  0.00000000E+00  0.00000000E+00
  0.00000000E+00  0.00000000E+00  0.00000000E+00
  0.00000000E+00  0.00000000E+00  0.00000000E+00
  0.00000000E+00  0.00000000E+00  0.00000000E+00
  0.00000000E+00  0.00000000E+00  0.00000000E+00
  0.00000000E+00  0.00000000E+00  0.00000000E+00
  0.00000000E+00  0.00000000E+00  0.00000000E+00
  0.00000000E+00  0.00000000E+00  0.00000000E+00
  0.00000000E+00  0.00000000E+00  0.00000000E+00
  0.00000000E+00  0.00000000E+00  0.00000000E+00
  0.00000000E+00  0.00000000E+00  0.00000000E+00
  0.00000000E+00  0.00000000E+00  0.00000000E+00
  0.00000000E+00  0.00000000E+00  0.00000000E+00
  0.00000000E+00  0.00000000E+00  0.00000000E+00
  0.00000000E+00  0.00000000E+00  0.00000000E+00
  0.00000000E+00  0.00000000E+00  0.00000000E+00
  0.00000000E+00  0.00000000E+00  0.00000000E+00
  0.00000000E+00  0.00000000E+00  0.00000000E+00
  0.00000000E+00  0.00000000E+00  0.00000000E+00
  0.00000000E+00  0.00000000E+00  0.00000000E+00
  0.00000000E+00  0.00000000E+00  0.00000000E+00
  0.00000000E+00  0.00000000E+00  0.00000000E+00
  0.00000000E+00  0.00000000E+00  0.00000000E+00
  0.00000000E+00  0.00000000E+00  0.00000000E+00
  0.00000000E+00  0.00000000E+00  0.00000000E+00
  0.00000000E+00  0.00000000E+00  0.00000000E+00
  0.00000000E+00  0.00000000E+00  0.00000000E+00
  0.00000000E+00  0.00000000E+00  0.00000000E+00
  0.00000000E+00  0.00000000E+00  0.00000000E+00
  0.00000000E+00  0.00000000E+00  0.00000000E+00
  0.00000000E+00  0.00000000E+00  0.00000000E+00
  0.00000000E+00  0.00000000E+00  0.00000000E+00
  0.00000000E+00  0.00000000E+00  0.00000000E+00
  0.00000000E+00  0.00000000E+00  0.00000000E+00
  0.00000000E+00  0.00000000E+00  0.00000000E+00
  0.00000000E+00  0.00000000E+00  0.00000000E+00
  0.00000000E+00  0.00000000E+00  0.00000000E+00
  0.00000000E+00  0.00000000E+00  0.00000000E+00
  0.00000000E+00  0.00000000E+00  0.00000000E+00
  0.00000000E+00  0.00000000E+00  0.00000000E+00
  0.00000000E+00  0.00000000E+00  0.00000000E+00
  0.00000000E+00  0.00000000E+00  0.00000000E+00
  0.00000000E+00  0.00000000E+00  0.00000000E+00
  0.00000000E+00  0.00000000E+00  0.00000000E+00
  0.00000000E+00  0.00000000E+00  0.00000000E+00
  0.00000000E+00  0.00000000E+00  0.00000000E+00
  0.00000000E+00  0.00000000E+00  0.00000000E+00
  0.00000000E+00  0.00000000E+00  0.00000000E+00
  0.00000000E+00  0.00000000E+00  0.00000000E+00
  0.00000000E+00  0.00000000E+00  0.00000000E+00
  0.00000000E+00  0.00000000E+00  0.00000000E+00
  0.00000000E+00  0.00000000E+00  0.00000000E+00
  0.00000000E+00  0.00000000E+00  0.00000000E+00
  0.00000000E+00  0.00000000E+00  0.00000000E+00
  0.00000000E+00  0.00000000E+00  0.00000000E+00
  0.00000000E+00  0.00000000E+00  0.00000000E+00
  0.00000000E+00  0.00000000E+00  0.00000000E+00
  0.00000000E+00  0.00000000E+00  0.00000000E+00
  0.00000000E+00  0.00000000E+00  0.00000000E+00
  0.00000000E+00  0.00000000E+00  0.00000000E+00
  0.00000000E+00  0.00000000E+00  0.00000000E+00
  0.00000000E+00  0.00000000E+00  0.00000000E+00
  0.00000000E+00  0.00000000E+00  0.00000000E+00
  0.00000000E+00  0.00000000E+00  0.00000000E+00
  0.00000000E+00  0.00000000E+00  0.00000000E+00
  0.00000000E+00  0.00000000E+00  0.00000000E+00
  0.00000000E+00  0.00000000E+00  0.00000000E+00
  0.00000000E+00  0.00000000E+00  0.00000000E+00
  0.00000000E+00  0.00000000E+00  0.00000000E+00
  0.00000000E+00  0.00000000E+00  0.00000000E+00
  0.00000000E+00  0.00000000E+00  0.00000000E+00
  0.00000000E+00  0.00000000E+00  0.00000000E+00
  0.00000000E+00  0.00000000E+00  0.00000000E+00
  0.00000000E+00  0.00000000E+00  0.00000000E+00
  0.00000000E+00  0.00000000E+00  0.00000000E+00
  0.00000000E+00  0.00000000E+00  0.00000000E+00
  0.00000000E+00  0.00000000E+00  0.00000000E+00
  0.00000000E+00  0.00000000E+00  0.00000000E+00
  0.00000000E+00  0.00000000E+00  0.00000000E+00
  0.00000000E+00  0.00000000E+00  0.00000000E+00
  0.00000000E+00  0.00000000E+00  0.00000000E+00
  0.00000000E+00  0.00000000E+00  0.00000000E+00
  0.00000000E+00  0.00000000E+00  0.00000000E+00
  0.00000000E+00  0.00000000E+00  0.00000000E+00
  0.00000000E+00  0.00000000E+00  0.00000000E+00
  0.00000000E+00  0.00000000E+00  0.00000000E+00
  0.00000000E+00  0.00000000E+00  0.00000000E+00
  0.00000000E+00  0.00000000E+00  0.00000000E+00
  0.00000000E+00  0.00000000E+00  0.00000000E+00
  0.00000000E+00  0.00000000E+00  0.00000000E+00
  0.00000000E+00  0.00000000E+00  0.00000000E+00
  0.00000000E+00  0.00000000E+00  0.00000000E+00
  0.00000000E+00  0.00000000E+00  0.00000000E+00
  0.00000000E+00  0.00000000E+00  0.00000000E+00
  0.00000000E+00  0.00000000E+00  0.00000000E+00
  0.00000000E+00  0.00000000E+00  0.00000000E+00
  0.00000000E+00  0.00000000E+00  0.00000000E+00
  0.00000000E+00  0.00000000E+00  0.00000000E+00
  0.00000000E+00  0.00000000E+00  0.00000000E+00
  0.00000000E+00  0.00000000E+00  0.00000000E+00
  0.00000000E+00  0.00000000E+00  0.00000000E+00
  0.00000000E+00  0.00000000E+00  0.00000000E+00
  0.00000000E+00  0.00000000E+00  0.00000000E+00
  0.00000000E+00  0.00000000E+00  0.00000000E+00
  0.00000000E+00  0.00000000E+00  0.00000000E+00
  0.00000000E+00  0.00000000E+00  0.00000000E+00
  0.00000000E+00  0.00000000E+00  0.00000000E+00
  0.00000000E+00  0.00000000E+00  0.00000000E+00
  0.00000000E+00  0.00000000E+00  0.00000000E+00
  0.00000000E+00  0.00000000E+00  0.00000000E+00
  0.00000000E+00  0.00000000E+00  0.00000000E+00
  0.00000000E+00  0.00000000E+00  0.00000000E+00
  0.00000000E+00  0.00000000E+00  0.00000000E+00
  0.00000000E+00  0.00000000E+00  0.00000000E+00
  0.00000000E+00  0.00000000E+00  0.00000000E+00
  0.00000000E+00  0.00000000E+00  0.00000000E+00
  0.00000000E+00  0.00000000E+00  0.00000000E+00
  0.00000000E+00  0.00000000E+00  0.00000000E+00
  0.00000000E+00  0.00000000E+00  0.00000000E+00
  0.00000000E+00  0.00000000E+00  0.00000000E+00
  0.00000000E+00  0.00000000E+00  0.00000000E+00
  0.00000000E+00  0.00000000E+00  0.00000000E+00
  0.00000000E+00  0.00000000E+00  0.00000000E+00
  0.00000000E+00  0.00000000E+00  0.00000000E+00
  0.00000000E+00  0.00000000E+00  0.00000000E+00
  0.00000000E+00  0.00000000E+00  0.00000000E+00
  0.00000000E+00  0.00000000E+00  0.00000000E+00
  0.00000000E+00  0.00000000E+00  0.00000000E+00
  0.00000000E+00  0.00000000E+00  0.00000000E+00
  0.00000000E+00  0.00000000E+00  0.00000000E+00
  0.00000000E+00  0.00000000E+00  0.00000000E+00
  0.00000000E+00  0.00000000E+00  0.00000000E+00
  0.00000000E+00  0.00000000E+00  0.00000000E+00
  0.00000000E+00  0.00000000E+00  0.00000000E+00
  0.00000000E+00  0.00000000E+00  0.00000000E+00
  0.00000000E+00  0.00000000E+00  0.00000000E+00
  0.00000000E+00  0.00000000E+00  0.00000000E+00
  0.00000000E+00  0.00000000E+00  0.00000000E+00
  0.00000000E+00  0.00000000E+00  0.00000000E+00
  0.00000000E+00  0.00000000E+00  0.00000000E+00
  0.00000000E+00  0.00000000E+00  0.00000000E+00
  0.00000000E+00  0.00000000E+00  0.00000000E+00
  0.00000000E+00  0.00000000E+00  0.00000000E+00
  0.00000000E+00  0.00000000E+00  0.00000000E+00
  0.00000000E+00  0.00000000E+00  0.00000000E+00
  0.00000000E+00  0.00000000E+00  0.00000000E+00
  0.00000000E+00  0.00000000E+00  0.00000000E+00
  0.00000000E+00  0.00000000E+00  0.00000000E+00
  0.00000000E+00  0.00000000E+00  0.00000000E+00
  0.00000000E+00  0.00000000E+00  0.00000000E+00
  0.00000000E+00  0.00000000E+00  0.00000000E+00
  0.00000000E+00  0.00000000E+00  0.00000000E+00
  0.00000000E+00  0.00000000E+00  0.00000000E+00
  0.00000000E+00  0.00000000E+00  0.00000000E+00
  0.00000000E+00  0.00000000E+00  0.00000000E+00
  0.00000000E+00  0.00000000E+00  0.00000000E+00
  0.00000000E+00  0.00000000E+00  0.00000000E+00
  0.00000000E+00  0.00000000E+00  0.00000000E+00
  0.00000000E+00  0.00000000E+00  0.00000000E+00
  0.00000000E+00  0.00000000E+00  0.00000000E+00
  0.00000000E+00  0.00000000E+00  0.00000000E+00
  0.00000000E+00  0.00000000E+00  0.00000000E+00
  0.00000000E+00  0.00000000E+00  0.00000000E+00
  0.00000000E+00  0.00000000E+00  0.00000000E+00
  0.00000000E+00  0.00000000E+00  0.00000000E+00
  0.00000000E+00  0.00000000E+00  0.00000000E+00
  0.00000000E+00  0.00000000E+00  0.00000000E+00
  0.00000000E+00  0.00000000E+00  0.00000000E+00
  0.00000000E+00  0.00000000E+00  0.00000000E+00
  0.00000000E+00  0.00000000E+00  0.00000000E+00
  0.00000000E+00  0.00000000E+00  0.00000000E+00
  0.00000000E+00  0.00000000E+00  0.00000000E+00
  0.00000000E+00  0.00000000E+00  0.00000000E+00
  0.00000000E+00  0.00000000E+00  0.00000000E+00
  0.00000000E+00  0.00000000E+00  0.00000000E+00
  0.00000000E+00  0.00000000E+00  0.00000000E+00
  0.00000000E+00  0.00000000E+00  0.00000000E+00
  0.00000000E+00  0.00000000E+00  0.00000000E+00
  0.00000000E+00  0.00000000E+00  0.00000000E+00
  0.00000000E+00  0.00000000E+00  0.00000000E+00
  0.00000000E+00  0.00000000E+00  0.00000000E+00
  0.00000000E+00  0.00000000E+00  0.00000000E+00
  0.00000000E+00  0.00000000E+00  0.00000000E+00
  0.00000000E+00  0.00000000E+00  0.00000000E+00
  0.00000000E+00  0.00000000E+00  0.00000000E+00
  0.00000000E+00  0.00000000E+00  0.00000000E+00
  0.00000000E+00  0.00000000E+00  0.00000000E+00
  0.00000000E+00  0.00000000E+00  0.00000000E+00
  0.00000000E+00  0.00000000E+00  0.00000000E+00
  0.00000000E+00  0.00000000E+00  0.00000000E+00
  0.00000000E+00  0.00000000E+00  0.00000000E+00
  0.00000000E+00  0.00000000E+00  0.00000000E+00
  0.00000000E+00  0.00000000E+00  0.00000000E+00
  0.00000000E+00  0.00000000E+00  0.00000000E+00
  0.00000000E+00  0.00000000E+00  0.00000000E+00
  0.00000000E+00  0.00000000E+00  0.00000000E+00
  0.00000000E+00  0.00000000E+00  0.00000000E+00
  0.00000000E+00  0.00000000E+00  0.00000000E+00
  0.00000000E+00  0.00000000E+00  0.00000000E+00
  0.00000000E+00  0.00000000E+00  0.00000000E+00
  0.00000000E+00  0.00000000E+00  0.00000000E+00
  0.00000000E+00  0.00000000E+00  0.00000000E+00
  0.00000000E+00  0.00000000E+00  0.00000000E+00
  0.00000000E+00  0.00000000E+00  0.00000000E+00
  0.00000000E+00  0.00000000E+00  0.00000000E+00
  0.00000000E+00  0.00000000E+00  0.00000000E+00
  0.00000000E+00  0.00000000E+00  0.00000000E+00
  0.00000000E+00  0.00000000E+00  0.00000000E+00
  0.00000000E+00  0.00000000E+00  0.00000000E+00
  0.00000000E+00  0.00000000E+00  0.00000000E+00
  0.00000000E+00  0.00000000E+00  0.00000000E+00
  0.00000000E+00  0.00000000E+00  0.00000000E+00
  0.00000000E+00  0.00000000E+00  0.00000000E+00
  0.00000000E+00  0.00000000E+00  0.00000000E+00
  0.00000000E+00  0.00000000E+00  0.00000000E+00
  0.00000000E+00  0.00000000E+00  0.00000000E+00
  0.00000000E+00  0.00000000E+00  0.00000000E+00
  0.00000000E+00  0.00000000E+00  0.00000000E+00
  0.00000000E+00  0.00000000E+00  0.00000000E+00
  0.00000000E+00  0.00000000E+00  0.00000000E+00
  0.00000000E+00  0.00000000E+00  0.00000000E+00
  0.00000000E+00  0.00000000E+00  0.00000000E+00
  0.00000000E+00  0.00000000E+00  0.00000000E+00
  0.00000000E+00  0.00000000E+00  0.00000000E+00
  0.00000000E+00  0.00000000E+00  0.00000000E+00
  0.00000000E+00  0.00000000E+00  0.00000000E+00
  0.00000000E+00  0.00000000E+00  0.00000000E+00
  0.00000000E+00  0.00000000E+00  0.00000000E+00
  0.00000000E+00  0.00000000E+00  0.00000000E+00
  0.00000000E+00  0.00000000E+00  0.00000000E+00
  0.00000000E+00  0.00000000E+00  0.00000000E+00
  0.00000000E+00  0.00000000E+00  0.00000000E+00
  0.00000000E+00  0.00000000E+00  0.00000000E+00
  0.00000000E+00  0.00000000E+00  0.00000000E+00
  0.00000000E+00  0.00000000E+00  0.00000000E+00
  0.00000000E+00  0.00000000E+00  0.00000000E+00
  0.00000000E+00  0.00000000E+00  0.00000000E+00
  0.00000000E+00  0.00000000E+00  0.00000000E+00
  0.00000000E+00  0.00000000E+00  0.00000000E+00
  0.00000000E+00  0.00000000E+00  0.00000000E+00
  0.00000000E+00  0.00000000E+00  0.00000000E+00
