TiOF2 2x2x2 config 1619                 
   1.00000000000000     
     7.7599382943697890    0.0000000273133624   -0.0000000275125140
    -0.0000000192716415    7.6589111727575219    0.0048016284556786
    -0.0000000354548872    0.0047185009666903    7.7568623684639144
   Ti   O    F 
     8     8    16
Direct
  0.0003722911291106  0.9874123210946664  0.9865055455173675
  0.0003722820019192  0.0125876224565076  0.5134943379484085
  0.9872353006517329  0.5126966395212662  0.0004393937224236
  0.9872352890114442  0.4873032748072887  0.4995605985188760
  0.4996277823984769  0.0125876119725774  0.0134944182796417
  0.4996277717139037  0.9874124348410831  0.4865056631433049
  0.5127647260138914  0.4873033110841902  0.9995606209143091
  0.5127647172118088  0.5126967502286917  0.5004394259908551
  0.7500000221004157  0.4999999542701090  0.0000000139765888
  0.7500000057767053  0.5000000856050804  0.4999999985990300
  0.0012041812241534  0.2500014796288639  0.4981593983045087
  0.0012042673931276  0.7499984977069545  0.0018404239888667
  0.4987958264255070  0.2500014737247156  0.9981595770522631
  0.4987957102669753  0.7499985316100961  0.5018406101403130
  0.9994835539586759  0.0000000493068768  0.7499999684612533
  0.5005164987949300  0.9999999924621790  0.2500000220329284
  0.2500000116206280  0.0000000371889399  0.9999999446191694
  0.2500000080066087  0.0000000950665537  0.5000000400209714
  0.2499999823864343  0.4999998359470297  0.9999999994479936
  0.2499999920187506  0.5000000594211826  0.5000000124441044
  0.7500000465562024  0.9999998747845282  0.0000000169895245
  0.7500000365521231  0.0000000407173957  0.4999999849183254
  0.0039638743144508  0.2498827514228310  0.0045292337035079
  0.0039639316049502  0.7501171926250194  0.4954706228862733
  0.4960360323410100  0.2498828408194669  0.5045293427484765
  0.4960359745300664  0.7501171924099452  0.9954707659282391
  0.9994068927232505  0.0000000421020800  0.2499999732012341
  0.0084125302632785  0.4999999523419163  0.2499999842012812
  0.0081468174630928  0.4999999712421399  0.7499999859668591
  0.5005932229413048  0.0000000414378505  0.7500000245420182
  0.4918530458363435  0.5000000549922419  0.2500000322162705
  0.4915873747687129  0.4999999871597254  0.7500000195748058
 
  0.00000000E+00  0.00000000E+00  0.00000000E+00
  0.00000000E+00  0.00000000E+00  0.00000000E+00
  0.00000000E+00  0.00000000E+00  0.00000000E+00
  0.00000000E+00  0.00000000E+00  0.00000000E+00
  0.00000000E+00  0.00000000E+00  0.00000000E+00
  0.00000000E+00  0.00000000E+00  0.00000000E+00
  0.00000000E+00  0.00000000E+00  0.00000000E+00
  0.00000000E+00  0.00000000E+00  0.00000000E+00
  0.00000000E+00  0.00000000E+00  0.00000000E+00
  0.00000000E+00  0.00000000E+00  0.00000000E+00
  0.00000000E+00  0.00000000E+00  0.00000000E+00
  0.00000000E+00  0.00000000E+00  0.00000000E+00
  0.00000000E+00  0.00000000E+00  0.00000000E+00
  0.00000000E+00  0.00000000E+00  0.00000000E+00
  0.00000000E+00  0.00000000E+00  0.00000000E+00
  0.00000000E+00  0.00000000E+00  0.00000000E+00
  0.00000000E+00  0.00000000E+00  0.00000000E+00
  0.00000000E+00  0.00000000E+00  0.00000000E+00
  0.00000000E+00  0.00000000E+00  0.00000000E+00
  0.00000000E+00  0.00000000E+00  0.00000000E+00
  0.00000000E+00  0.00000000E+00  0.00000000E+00
  0.00000000E+00  0.00000000E+00  0.00000000E+00
  0.00000000E+00  0.00000000E+00  0.00000000E+00
  0.00000000E+00  0.00000000E+00  0.00000000E+00
  0.00000000E+00  0.00000000E+00  0.00000000E+00
  0.00000000E+00  0.00000000E+00  0.00000000E+00
  0.00000000E+00  0.00000000E+00  0.00000000E+00
  0.00000000E+00  0.00000000E+00  0.00000000E+00
  0.00000000E+00  0.00000000E+00  0.00000000E+00
  0.00000000E+00  0.00000000E+00  0.00000000E+00
  0.00000000E+00  0.00000000E+00  0.00000000E+00
  0.00000000E+00  0.00000000E+00  0.00000000E+00
