TiOF2 2x2x2 config 1619                 
   1.00000000000000     
     7.7599382943697890    0.0000000273133624   -0.0000000275125140
    -0.0000000192716415    7.6589111727575219    0.0048016284556786
    -0.0000000354548872    0.0047185009666903    7.7568623684639144
   Ti   O    F 
     8     8    16
Direct
  0.0003722911291141 -0.0125876789053369 -0.0134944544826296
  0.0003722820019224  0.0125876224565066  0.5134943379484108
 -0.0127646993482663  0.5126966395212672  0.0004393937224207
 -0.0127647109885546  0.4873032748072922  0.4995605985188727
  0.4996277823984772  0.0125876119725774  0.0134944182796410
  0.4996277717139020 -0.0125875651589134  0.4865056631433053
  0.5127647260138914  0.4873033110841938 -0.0004393790856929
  0.5127647172118091  0.5126967502286932  0.5004394259908539
  0.7500000221004182  0.4999999542701123  0.0000000139765854
  0.7500000057767044  0.5000000856050809  0.4999999985990305
  0.0012041812241550  0.2500014796288609  0.4981593983045093
  0.0012042673931265  0.7499984977069517  0.0018404239888685
  0.4987958264255087  0.2500014737247162 -0.0018404229477343
  0.4987957102669740  0.7499985316100941  0.5018406101403114
 -0.0005164460413222  0.0000000493068796  0.7499999684612524
  0.5005164987949268 -0.0000000075378198  0.2500000220329314
  0.2500000116206270  0.0000000371889416 -0.0000000553808283
  0.2500000080066075  0.0000000950665533  0.5000000400209710
  0.2499999823864322  0.4999998359470303 -0.0000000005520088
  0.2499999920187504  0.5000000594211832  0.5000000124441055
  0.7500000465561997 -0.0000001252154732  0.0000000169895262
  0.7500000365521267  0.0000000407173976  0.4999999849183222
  0.0039638743144515  0.2498827514228296  0.0045292337035090
  0.0039639316049524  0.7501171926250173  0.4954706228862736
  0.4960360323410120  0.2498828408194673  0.5045293427484769
  0.4960359745300693  0.7501171924099451 -0.0045292340717584
 -0.0005931072767478  0.0000000421020817  0.2499999732012376
  0.0084125302632809  0.4999999523419134  0.2499999842012826
  0.0081468174630895  0.4999999712421364  0.7499999859668617
  0.5005932229413056  0.0000000414378521  0.7500000245420189
  0.4918530458363448  0.5000000549922431  0.2500000322162687
  0.4915873747687119  0.4999999871597238  0.7500000195748046
 
  0.00000000E+00  0.00000000E+00  0.00000000E+00
  0.00000000E+00  0.00000000E+00  0.00000000E+00
  0.00000000E+00  0.00000000E+00  0.00000000E+00
  0.00000000E+00  0.00000000E+00  0.00000000E+00
  0.00000000E+00  0.00000000E+00  0.00000000E+00
  0.00000000E+00  0.00000000E+00  0.00000000E+00
  0.00000000E+00  0.00000000E+00  0.00000000E+00
  0.00000000E+00  0.00000000E+00  0.00000000E+00
  0.00000000E+00  0.00000000E+00  0.00000000E+00
  0.00000000E+00  0.00000000E+00  0.00000000E+00
  0.00000000E+00  0.00000000E+00  0.00000000E+00
  0.00000000E+00  0.00000000E+00  0.00000000E+00
  0.00000000E+00  0.00000000E+00  0.00000000E+00
  0.00000000E+00  0.00000000E+00  0.00000000E+00
  0.00000000E+00  0.00000000E+00  0.00000000E+00
  0.00000000E+00  0.00000000E+00  0.00000000E+00
  0.00000000E+00  0.00000000E+00  0.00000000E+00
  0.00000000E+00  0.00000000E+00  0.00000000E+00
  0.00000000E+00  0.00000000E+00  0.00000000E+00
  0.00000000E+00  0.00000000E+00  0.00000000E+00
  0.00000000E+00  0.00000000E+00  0.00000000E+00
  0.00000000E+00  0.00000000E+00  0.00000000E+00
  0.00000000E+00  0.00000000E+00  0.00000000E+00
  0.00000000E+00  0.00000000E+00  0.00000000E+00
  0.00000000E+00  0.00000000E+00  0.00000000E+00
  0.00000000E+00  0.00000000E+00  0.00000000E+00
  0.00000000E+00  0.00000000E+00  0.00000000E+00
  0.00000000E+00  0.00000000E+00  0.00000000E+00
  0.00000000E+00  0.00000000E+00  0.00000000E+00
  0.00000000E+00  0.00000000E+00  0.00000000E+00
  0.00000000E+00  0.00000000E+00  0.00000000E+00
  0.00000000E+00  0.00000000E+00  0.00000000E+00
