TiOF2 2x2x2 config 0215                 
   1.00000000000000     
     7.8780113258784707    0.0000002407967784   -0.0000003825829816
     0.0000003069329655    7.7242169970735857    0.0000593068087500
    -0.0000004481511395    0.0000549647997221    7.5843856044164486
   Ti   O    F 
     8     8    16
Direct
  0.0000001569413755  0.0008176278870664  0.9820268533344603
  0.9999999947568057  0.9820306656032045  0.5037129804601577
  0.0000001548782222  0.5004120966764845  0.0024991211844139
  0.9999996080798397  0.5062767669203154  0.5010714613609935
  0.5000001155330125  0.0128568635249380  0.0125163549565315
  0.4999999863204820  0.0133915474588093  0.4889688204704044
  0.5000001213408609  0.4885080269345607  0.9877911803813930
  0.4999995052908091  0.4884036434151469  0.5109358107635202
  0.9999998899973903  0.7530387031580759  0.4979294999636537
  0.4999998241824670  0.2489368112340173  0.9993170149748494
  0.4999997688755897  0.2493946645517653  0.5005132568994313
  0.0000001394535047  0.0032410079536760  0.7521458920534485
  0.9999999182658712  0.4988835778854650  0.2475729133747748
  0.0000000052189293  0.4983809168752984  0.7542965885911670
  0.5000001308853257  0.9939561505292218  0.2497803698036805
  0.4999998720328023  0.5055316053769090  0.7501417815829399
  0.2473462525842862  0.9975115271541455  0.0001928981520720
  0.2497229388733615  0.0005641578621649  0.5005271451744093
  0.2517447577221859  0.5030500322072982  0.0042698491179891
  0.2524774374637246  0.5000947687389967  0.4959125562161191
  0.7526540222855687  0.9975123893266300  0.0001928763691410
  0.7502770452614556  0.0005643262704567  0.5005272836656900
  0.7482554733700866  0.5030494549408857  0.0042697518201891
  0.7475219412536589  0.5000946303754503  0.4959127336905951
  0.0000008133405274  0.2464507534518532  0.0069965644924679
  0.0000000193752285  0.2452581910622982  0.4966334372214405
  0.9999997572675952  0.7549562748870855  0.0078098762668333
  0.5000004373697067  0.7510081125502808  0.9993169567787561
  0.4999999053744588  0.7508917556791488  0.5005624127473425
  0.9999999149424923  0.0056564769108647  0.2454525769061462
  0.5000000627296046  0.9884658886178599  0.7507646468666493
  0.5000000287327779  0.5108105839796409  0.2494385343583332
 
  0.00000000E+00  0.00000000E+00  0.00000000E+00
  0.00000000E+00  0.00000000E+00  0.00000000E+00
  0.00000000E+00  0.00000000E+00  0.00000000E+00
  0.00000000E+00  0.00000000E+00  0.00000000E+00
  0.00000000E+00  0.00000000E+00  0.00000000E+00
  0.00000000E+00  0.00000000E+00  0.00000000E+00
  0.00000000E+00  0.00000000E+00  0.00000000E+00
  0.00000000E+00  0.00000000E+00  0.00000000E+00
  0.00000000E+00  0.00000000E+00  0.00000000E+00
  0.00000000E+00  0.00000000E+00  0.00000000E+00
  0.00000000E+00  0.00000000E+00  0.00000000E+00
  0.00000000E+00  0.00000000E+00  0.00000000E+00
  0.00000000E+00  0.00000000E+00  0.00000000E+00
  0.00000000E+00  0.00000000E+00  0.00000000E+00
  0.00000000E+00  0.00000000E+00  0.00000000E+00
  0.00000000E+00  0.00000000E+00  0.00000000E+00
  0.00000000E+00  0.00000000E+00  0.00000000E+00
  0.00000000E+00  0.00000000E+00  0.00000000E+00
  0.00000000E+00  0.00000000E+00  0.00000000E+00
  0.00000000E+00  0.00000000E+00  0.00000000E+00
  0.00000000E+00  0.00000000E+00  0.00000000E+00
  0.00000000E+00  0.00000000E+00  0.00000000E+00
  0.00000000E+00  0.00000000E+00  0.00000000E+00
  0.00000000E+00  0.00000000E+00  0.00000000E+00
  0.00000000E+00  0.00000000E+00  0.00000000E+00
  0.00000000E+00  0.00000000E+00  0.00000000E+00
  0.00000000E+00  0.00000000E+00  0.00000000E+00
  0.00000000E+00  0.00000000E+00  0.00000000E+00
  0.00000000E+00  0.00000000E+00  0.00000000E+00
  0.00000000E+00  0.00000000E+00  0.00000000E+00
  0.00000000E+00  0.00000000E+00  0.00000000E+00
  0.00000000E+00  0.00000000E+00  0.00000000E+00
