TiOF2 2x2x2 config 0215                 
   1.00000000000000     
     7.8780113258784707    0.0000002407967784   -0.0000003825829816
     0.0000003069329655    7.7242169970735857    0.0000593068087500
    -0.0000004481511395    0.0000549647997221    7.5843856044164486
   Ti   O    F 
     8     8    16
Direct
  0.0000001569413745  0.0008176278870665 -0.0179731466655407
 -0.0000000052431923 -0.0179693343967980  0.5037129804601592
  0.0000001548782219  0.5004120966764863  0.0024991211844115
 -0.0000003919201583  0.5062767669203130  0.5010714613609928
  0.5000001155330132  0.0128568635249379  0.0125163549565296
  0.4999999863204789  0.0133915474588094  0.4889688204704045
  0.5000001213408578  0.4885080269345632 -0.0122088196186061
  0.4999995052908089  0.4884036434151484  0.5109358107635186
 -0.0000001100026064  0.7530387031580750  0.4979294999636560
  0.4999998241824701  0.2489368112340139 -0.0006829850251498
  0.4999997688755897  0.2493946645517657  0.5005132568994294
  0.0000001394535053  0.0032410079536785  0.7521458920534513
 -0.0000000817341307  0.4988835778854662  0.2475729133747782
  0.0000000052189306  0.4983809168752950  0.7542965885911671
  0.5000001308853246 -0.0060438494707798  0.2497803698036801
  0.4999998720328030  0.5055316053769093  0.7501417815829416
  0.2473462525842842 -0.0024884728458511  0.0001928981520727
  0.2497229388733627  0.0005641578621654  0.5005271451744091
  0.2517447577221829  0.5030500322072949  0.0042698491179923
  0.2524774374637282  0.5000947687389986  0.4959125562161205
  0.7526540222855719 -0.0024876106733692  0.0001928763691383
  0.7502770452614552  0.0005643262704574  0.5005272836656909
  0.7482554733700862  0.5030494549408874  0.0042697518201887
  0.7475219412536581  0.5000946303754522  0.4959127336905981
  0.0000008133405258  0.2464507534518506  0.0069965644924672
  0.0000000193752312  0.2452581910622957  0.4966334372214389
 -0.0000002427324056  0.7549562748870852  0.0078098762668336
  0.5000004373697068  0.7510081125502803 -0.0006830432212440
  0.4999999053744618  0.7508917556791497  0.5005624127473395
 -0.0000000850575105  0.0056564769108613  0.2454525769061477
  0.5000000627296030 -0.0115341113821372  0.7507646468666521
  0.5000000287327790  0.5108105839796391  0.2494385343583322
 
  0.00000000E+00  0.00000000E+00  0.00000000E+00
  0.00000000E+00  0.00000000E+00  0.00000000E+00
  0.00000000E+00  0.00000000E+00  0.00000000E+00
  0.00000000E+00  0.00000000E+00  0.00000000E+00
  0.00000000E+00  0.00000000E+00  0.00000000E+00
  0.00000000E+00  0.00000000E+00  0.00000000E+00
  0.00000000E+00  0.00000000E+00  0.00000000E+00
  0.00000000E+00  0.00000000E+00  0.00000000E+00
  0.00000000E+00  0.00000000E+00  0.00000000E+00
  0.00000000E+00  0.00000000E+00  0.00000000E+00
  0.00000000E+00  0.00000000E+00  0.00000000E+00
  0.00000000E+00  0.00000000E+00  0.00000000E+00
  0.00000000E+00  0.00000000E+00  0.00000000E+00
  0.00000000E+00  0.00000000E+00  0.00000000E+00
  0.00000000E+00  0.00000000E+00  0.00000000E+00
  0.00000000E+00  0.00000000E+00  0.00000000E+00
  0.00000000E+00  0.00000000E+00  0.00000000E+00
  0.00000000E+00  0.00000000E+00  0.00000000E+00
  0.00000000E+00  0.00000000E+00  0.00000000E+00
  0.00000000E+00  0.00000000E+00  0.00000000E+00
  0.00000000E+00  0.00000000E+00  0.00000000E+00
  0.00000000E+00  0.00000000E+00  0.00000000E+00
  0.00000000E+00  0.00000000E+00  0.00000000E+00
  0.00000000E+00  0.00000000E+00  0.00000000E+00
  0.00000000E+00  0.00000000E+00  0.00000000E+00
  0.00000000E+00  0.00000000E+00  0.00000000E+00
  0.00000000E+00  0.00000000E+00  0.00000000E+00
  0.00000000E+00  0.00000000E+00  0.00000000E+00
  0.00000000E+00  0.00000000E+00  0.00000000E+00
  0.00000000E+00  0.00000000E+00  0.00000000E+00
  0.00000000E+00  0.00000000E+00  0.00000000E+00
  0.00000000E+00  0.00000000E+00  0.00000000E+00
