TiOF2 2x2x2 config 0273                 
   1.00000000000000     
     7.8688188096957763   -0.0000000008624130    0.0000000135231884
     0.0000000012218506    7.6491160305869244   -0.0000000863698522
     0.0000000101724186   -0.0000000860724266    7.6551416174477165
   Ti   O    F 
     8     8    16
Direct
  0.9999999998753637  0.9887108236816147  0.9880651198942232
  0.0000000001983622  0.9880938677995914  0.5118624089325294
  0.9999999998861711  0.5112890519646101  0.9880650731669647
  0.0000000001884288  0.5119062133044565  0.5118623612495128
  0.4999999999953673  0.9879470290747037  0.0118378443619278
  0.4999999997432667  0.0125661743987919  0.4882470890540063
  0.4999999999740652  0.5120526575755449  0.0118376331817274
  0.4999999997106386  0.4874339103897398  0.4882468522274479
  0.9999999998131628  0.7499998985907794  0.0067699104498260
  0.0000000018075283  0.7499999717344039  0.4931967909607593
  0.4999999969734361  0.2500003366315582  0.5053028355026044
  0.5000000001111857  0.7500004623812941  0.9944485085569639
  0.9999999998675477  0.0062555971206208  0.7500086010497924
  0.9999999998983569  0.4937443199677674  0.7500085204815079
  0.4999999997919247  0.9995663668044017  0.2500073149238347
  0.4999999997942268  0.5004338058749838  0.2500080419654580
  0.2500079687643364  0.0066266352929816  0.9998871252897956
  0.2500248140958234  0.9994362345856445  0.5001299167654309
  0.2500078752297483  0.4933729244671738  0.9998870377206757
  0.2500248895553980  0.5005639618108333  0.5001298703076316
  0.7499920311437691  0.0066266293318549  0.9998871257715791
  0.7499751858643009  0.9994362353784396  0.5001299169527016
  0.7499921246934775  0.4933729304285137  0.9998870381871825
  0.7499751103944305  0.5005639610339472  0.5001298705360497
  0.9999999926012606  0.2499999288281813  0.0091131325042255
  0.0000000053522697  0.2500000325137179  0.4911074905343753
  0.5000000073547071  0.2499998640007135  0.9899689929325675
  0.4999999958008985  0.7500000459713192  0.5099699171847973
  0.0000000004890097  0.0086474619444559  0.2500911343056131
  0.0000000004873328  0.4913524862833327  0.2500911319952692
  0.5000000002827676  0.9996678275523578  0.7499078354868942
  0.5000000002614300  0.5003323532817063  0.7499075575661323
 
  0.00000000E+00  0.00000000E+00  0.00000000E+00
  0.00000000E+00  0.00000000E+00  0.00000000E+00
  0.00000000E+00  0.00000000E+00  0.00000000E+00
  0.00000000E+00  0.00000000E+00  0.00000000E+00
  0.00000000E+00  0.00000000E+00  0.00000000E+00
  0.00000000E+00  0.00000000E+00  0.00000000E+00
  0.00000000E+00  0.00000000E+00  0.00000000E+00
  0.00000000E+00  0.00000000E+00  0.00000000E+00
  0.00000000E+00  0.00000000E+00  0.00000000E+00
  0.00000000E+00  0.00000000E+00  0.00000000E+00
  0.00000000E+00  0.00000000E+00  0.00000000E+00
  0.00000000E+00  0.00000000E+00  0.00000000E+00
  0.00000000E+00  0.00000000E+00  0.00000000E+00
  0.00000000E+00  0.00000000E+00  0.00000000E+00
  0.00000000E+00  0.00000000E+00  0.00000000E+00
  0.00000000E+00  0.00000000E+00  0.00000000E+00
  0.00000000E+00  0.00000000E+00  0.00000000E+00
  0.00000000E+00  0.00000000E+00  0.00000000E+00
  0.00000000E+00  0.00000000E+00  0.00000000E+00
  0.00000000E+00  0.00000000E+00  0.00000000E+00
  0.00000000E+00  0.00000000E+00  0.00000000E+00
  0.00000000E+00  0.00000000E+00  0.00000000E+00
  0.00000000E+00  0.00000000E+00  0.00000000E+00
  0.00000000E+00  0.00000000E+00  0.00000000E+00
  0.00000000E+00  0.00000000E+00  0.00000000E+00
  0.00000000E+00  0.00000000E+00  0.00000000E+00
  0.00000000E+00  0.00000000E+00  0.00000000E+00
  0.00000000E+00  0.00000000E+00  0.00000000E+00
  0.00000000E+00  0.00000000E+00  0.00000000E+00
  0.00000000E+00  0.00000000E+00  0.00000000E+00
  0.00000000E+00  0.00000000E+00  0.00000000E+00
  0.00000000E+00  0.00000000E+00  0.00000000E+00
