config 53                               
   1.00000000000000     
    15.4263309999999993    0.0000000000000000    0.0000000000000000
     0.0000000000000000   15.4263309999999993    0.0000000000000000
     0.0000000000000000    0.0000000000000000   15.4263309999999993
   Li   Ti   O    F 
     1    64    64   128
Direct
  0.8739428728911842  0.4367158662859411  0.1177983151511549
  0.9948521351152714  0.9950432316906132  0.9952657342881439
  0.9988100432901001  0.9903900209848943  0.4945403771223953
  0.0103495643594644  0.4960854130150891  0.9947038813806851
  0.9947093308612396  0.5043994390325895  0.5078546153724078
  0.4940110498231243  0.9937241492886101  0.9998226590186375
  0.5020456620732208  0.0085788332791790  0.4984807748412861
  0.5027425397656388  0.4947843651746032  0.9962357845173030
  0.4919633321506682  0.4990580700848070  0.4955263252594059
  0.0066033393029251  0.0028683488693640  0.2562306154650480
  0.0018423952818867  0.0068123021547336  0.7580281523394859
  0.9952370071916737  0.4919459387141384  0.2520551988623479
  0.9936243197562644  0.5003884829689849  0.7403287937107674
  0.5050745522992137  0.0094448355846035  0.2503702938763679
  0.4931642543406060  0.0051549828441838  0.7526355538068634
  0.4911844868253509  0.4953104817453370  0.2572104876278427
  0.5009006169394422  0.5034719895879156  0.7587207104004996
  0.9947245329026114  0.2586702277358280  0.0029105633511154
  0.9991814133695478  0.2494712179519637  0.4913442355726453
  0.9976798453949125  0.7579949550428303  0.0073831230088110
  0.9971276901262971  0.7556597467909710  0.5070930937569312
  0.4942494744265109  0.2576711301494826  0.0019109071512960
  0.5099197413852780  0.2457442520173012  0.4978493480884817
  0.5068452806303407  0.7559542399757300  0.9996816971255771
  0.5076217373568968  0.7531079868482051  0.5083563227649931
  0.0019085951148160  0.2591156086398635  0.2547754813723421
  0.0069923669404749  0.2427417295298616  0.7492848465064638
  0.0061201454420181  0.7465049458417797  0.2435106683231057
  0.9928937840723229  0.7495942392287086  0.7431051871276670
  0.5078654033092709  0.2404400136389094  0.2517308103022896
  0.5075570959529411  0.2431249796821611  0.7509282944464855
  0.5061438899919752  0.7503750271664136  0.2518137262670798
  0.5021725378035259  0.7413946550122082  0.7435745104761847
  0.2561464926543676  0.9984008395823141  0.0056796419996371
  0.2516307031675455  0.9933696091672874  0.5061876116349254
  0.2465709476214082  0.5081038212024694  0.9969493652289227
  0.2550397049597691  0.4942688687405438  0.5064824975126423
  0.7562183034857763  0.0012880678957597  0.9939197112390491
  0.7496937342536321  0.0081137973852569  0.4949660110438098
  0.7384627000775759  0.4997871307840550  0.0050419277853191
  0.7557671978265978  0.4970255943620516  0.5074102871558074
  0.2446311531746179  0.0028065289824697  0.2435379735554793
  0.2582893431276495  0.9979145076732018  0.7443184046630895
  0.2541527801879765  0.4907038880925111  0.2513834202972097
  0.2469411717939864  0.5056439797552140  0.7403435502135303
  0.7438646912390449  0.0022805719332610  0.2556453118104041
  0.7479757141983467  0.0078798652268540  0.7555027737544617
  0.7505559142720872  0.4973334493524968  0.2458106530728577
  0.7577120218598320  0.4971604534490732  0.7431863372103353
  0.2565271913188513  0.2515611938347750  0.0065032060827162
  0.2545885061836250  0.2566134851051286  0.5054321793089472
  0.2517517338762540  0.7427741588872909  0.9935532028186845
  0.2527754212638728  0.7549703716517845  0.4926229934245437
  0.7554718930446571  0.2519228559105449  0.0084834467386861
  0.7430371813180444  0.2422322802716415  0.4984853159655249
  0.7413139429248979  0.7477094073146525  0.9940897968934437
  0.7418012797959753  0.7516956313285763  0.4933500826968070
  0.2507645452908873  0.2575447838039864  0.2439856720554065
  0.2443770916677540  0.2517901233063929  0.7440738454155361
  0.2435750637404028  0.7466883378010583  0.2556363321778364
  0.2479414369883729  0.7414056311986766  0.7561552810393439
  0.7417589846499320  0.2508865394440437  0.2429827653084428
  0.7448373133633938  0.2418381980358844  0.7509993794150612
  0.7454924540244851  0.7481960843463308  0.2565506056996257
  0.7573846212126538  0.7491973996998317  0.7570236055992446
  0.0134419287904009  0.5142812985960342  0.6246075933317039
  0.9969367639779831  0.9951508773191872  0.3763539489479096
  0.0020569799746090  0.9919703551554763  0.8734816758313497
  0.4954956391102864  0.4886250887290774  0.3757270448272336
  0.4897480183526328  0.4922440316311130  0.8746248768397922
  0.9984184333426405  0.7369012393676896  0.1257899464610545
  0.0032767851625794  0.7359722290831777  0.6244833809614141
  0.5038182348039133  0.7477682049333102  0.6243586420051227
  0.9925903117659403  0.2589896363128914  0.3769990026626943
  0.2565459582582844  0.0022597468312673  0.1250604418257760
  0.2585486944982752  0.0030562514577337  0.6251214743852580
  0.2353977481691486  0.4930021749380855  0.6254372256920412
  0.7517817696597541  0.4755814222349736  0.1208529238379252
  0.7436999027347061  0.4838932414411100  0.6253483055590149
  0.7485676523061073  0.0113897279324972  0.3762468036890591
  0.7438068461118705  0.0114647207184005  0.8735287951041901
  0.2422689712630839  0.2503673883107143  0.1257473482532748
  0.2506909237510441  0.2508040274016056  0.6251820602599325
  0.7408154272359596  0.2701266626548746  0.1266892655674535
  0.2553163312467727  0.7445916634968780  0.3746452518617176
  0.2524057286297505  0.7507212691786300  0.8751747927049809
  0.7523075751125182  0.7391496485667685  0.3744066570765079
  0.7488050955358720  0.7387316711773428  0.8755796689317329
  0.1265485408961573  0.5039997248548382  0.9869035013211623
  0.6230688528019013  0.5103353997626816  0.9961696108185287
  0.1251566484841454  0.0114983583473103  0.2504757789359356
  0.6243192809561549  0.0124172516740788  0.2477760950016885
  0.6253518771372698  0.2626252998907810  0.4906545416003717
  0.6239090733434907  0.7386598119897777  0.0029710434343782
  0.6247519329840633  0.7675632498368373  0.4944731382083180
  0.1250983999552337  0.2529912246081724  0.7525961763070411
  0.1247601132825291  0.7411615407254225  0.2528420076372909
  0.6253891467042326  0.2331118435009213  0.2615847455172733
  0.6262944134320986  0.2541475390861398  0.7516160902611914
  0.6219509925594490  0.7427398337712386  0.2516177055143403
  0.3756149470124756  0.9976376847328582  0.9898215823055665
  0.3757363894703736  0.5100534514872167  0.5081076710624592
  0.8723877561077187  0.0008233612348476  0.9982439151173127
  0.8756741619743994  0.5078414359006348  0.5055211234335929
  0.3764307776131837  0.9979995840008919  0.7605185841514144
  0.3724250221361770  0.4855201639191520  0.2453391851742750
  0.8815466276863257  0.4802496274431484  0.2380326874269288
  0.8757911285786032  0.5090454959937802  0.7417840760822938
  0.3752931316659817  0.2490730619128341  0.0071987420117265
  0.8733093213211720  0.2530139049934508  0.0090751626589653
  0.8749005697938518  0.7423531921298483  0.7482930038870472
  0.5168311101112792  0.1225228884879851  0.4894441596439416
  0.9978843654399600  0.1262086468053654  0.7572154938510514
  0.4853141896022345  0.1248947268975229  0.2673793329461951
  0.5032784617732071  0.1238186211242125  0.7538131948112775
  0.5032145569041273  0.6248280852386230  0.7542811158792526
  0.9992725004747259  0.3765669446188067  0.0178690959740983
  0.0024664962478910  0.8748566011128269  0.0107055094043331
  0.9881190213848523  0.8740940068488429  0.5092195461872172
  0.5044221083398936  0.3736249421091566  0.0117069694222453
  0.5061970792867782  0.8750406633657470  0.0089631050205096
  0.0201225037307974  0.3720060483738268  0.2376224556101233
  0.2581258093327934  0.6248862817936622  0.0037162351338281
  0.7352548221362508  0.1252809788278654  0.5138234335901258
  0.2458571026811319  0.6243754026006489  0.7480014421111253
  0.7502121120693936  0.1250493416658747  0.7341582487528079
  0.2592490758561858  0.3730658617022728  0.4928284637920187
  0.2603423842734072  0.8755292999672564  0.4986840430220221
  0.2336110387283701  0.3735439854133513  0.2579545432992068
  0.9973726216315282  0.0118604983325376  0.1268439446827044
  0.0020848048755872  0.0080622948207663  0.6238579326023014
  0.0043723945621970  0.5140541612761208  0.1231223424489608
  0.4901542754771144  0.0135962693143542  0.1260728284409872
  0.4938134281886320  0.0025247093450942  0.6225857926052545
  0.5005758295483893  0.5113367673212574  0.1269509898111431
  0.5124268909753342  0.5038780910691912  0.6242639332536530
  0.9967063619723596  0.4843048871130033  0.3770653966746950
  0.9899823461280862  0.4843671603249224  0.8721537436558132
  0.5065981846917585  0.9835545146719278  0.3762703711018289
  0.5185063020901276  0.9932652727172855  0.8751078986076867
  0.0087892464559406  0.2348760041433188  0.1274205594422058
  0.0030644435511895  0.2443829052747664  0.6221517315114268
  0.5103250654248792  0.2323156414012002  0.1266807903143015
  0.5023800377470762  0.2409478685214995  0.6225023229496066
  0.4954429201921374  0.7393195345735364  0.1267735916020894
  0.9926971225923124  0.2652342985765667  0.8751134330489898
  0.9934157349989862  0.7585817832118673  0.3754853364389694
  0.0000885646541606  0.7589479799879105  0.8743486173979237
  0.4899637718001979  0.2670607024021235  0.3752682251169227
  0.4967011628859977  0.2587832257231822  0.8748048215169406
  0.4915400892147208  0.7604465436751449  0.3754620437060551
  0.4976349844249924  0.7570775085230171  0.8741836214464704
  0.2389194713673267  0.4924471952612388  0.1239405360852894
  0.7501759998962241  0.9889923496331086  0.1266410007670066
  0.7497071566990617  0.9855648431602739  0.6227742335509858
  0.2508834495081205  0.0024864547279126  0.3754057024052840
  0.2401181985425126  0.9946284564144654  0.8742746016418953
  0.2522417982811762  0.5124187831429670  0.3751251629466226
  0.2658524876539862  0.5004100596562294  0.8732907672888930
  0.7524285427009838  0.5141768366738875  0.3759611178598845
  0.7572079298069142  0.5144899243416351  0.8746009079491817
  0.2496676403681654  0.7554440356619132  0.1247650455506267
  0.2479753757069036  0.7521438106945607  0.6249143718414049
  0.7486609408639164  0.2685985507842905  0.6232792063560352
  0.7506068428851956  0.7629545230109501  0.1253783863911855
  0.7469594465190968  0.7588112318108263  0.6244468641677242
  0.2575514113366503  0.2422310947021213  0.3743531620271122
  0.2547160341653001  0.2503465738794545  0.8754628377098274
  0.7641414776509862  0.2313492714076932  0.3746433407508133
  0.7552501637156436  0.2324105287217437  0.8766522738396478
  0.1251418698654307  0.0039049383777195  0.0047432419871068
  0.1251843577206802  0.9937621205751936  0.5010506671274136
  0.1234628279941231  0.4933067009615406  0.4881435905382099
  0.6247483473500336  0.0044909166341817  0.0104870788457676
  0.6240398260760195  0.9785511631396907  0.5042918931217532
  0.6263638484419046  0.4871032302394956  0.4941098586465153
  0.1270362937573768  0.9994817388567480  0.7441916684198366
  0.1253856506870907  0.5164063375118108  0.2534833953128244
  0.1236983089413299  0.4917419615718523  0.7668073837600072
  0.6239485834759285  0.9939947748116802  0.7378003289021786
  0.6188142484483891  0.5118934666773962  0.2500191761444011
  0.6269291716861758  0.4912114933970641  0.7605099452074008
  0.1237636017347741  0.2514010622300234  0.9922132062787351
  0.1245351829561683  0.2545809241464383  0.4951474896132645
  0.1244253181508000  0.7418525037305981  0.9993914975585092
  0.1242640263577386  0.7582558216006925  0.4950376679747150
  0.6259070576183083  0.2466552625542326  0.9923047097732610
  0.1254747098868493  0.2278030259419206  0.2604869218246835
  0.1233313373953793  0.7553405603373055  0.7523746253427654
  0.6264116215557910  0.7557737638978005  0.7517954544973493
  0.3783146343391565  0.0153889752743814  0.4913246102412515
  0.3729400267308550  0.4919867478066634  0.0118694492838707
  0.8744950752661461  0.0157002869042091  0.5066940717373283
  0.8758596026887668  0.4927902403365014  0.0074964102957787
  0.3771276336693960  0.9869327850516021  0.2575592194488928
  0.3750519307106875  0.5007058640467419  0.7351111109622086
  0.8730429483649143  0.9906016164068921  0.2487251700845259
  0.8743431846035782  0.9952824302953523  0.7453622012020961
  0.3800547126817654  0.2344765178954677  0.5007326545985432
  0.3757278390497774  0.7605075314609694  0.0028064593881437
  0.3776277555479161  0.7365072678288312  0.5034052629609164
  0.8746425683326402  0.2416662908998084  0.5082856285845223
  0.8718325199827469  0.7552429219327881  0.9992109690705410
  0.8723979431731853  0.7355467302409798  0.5047374161248910
  0.3781965813571946  0.2653850432024791  0.2423007619993986
  0.3769255872070404  0.2479360959689819  0.7490316600823554
  0.3758889231414720  0.7595423149263751  0.2461405302531748
  0.3751963200723454  0.7527874876524974  0.7473334262050814
  0.8752137638364225  0.2667024566747214  0.2410479056879142
  0.8747248035069681  0.2533669419432820  0.7451772362081742
  0.8736076015723478  0.7606003669825743  0.2488689393110891
  0.0006723210423429  0.1283258217760556  0.9910413621247476
  0.0068967243436529  0.1256482937913025  0.4963366939680800
  0.9919848139159270  0.6235079259547481  0.9860645984543808
  0.0084883074728506  0.6263233380794135  0.4820566066318007
  0.5022992753210713  0.1242932564377938  0.9906342564617786
  0.4852466436808144  0.6271260329243363  0.9942703143161550
  0.5144160839376760  0.6264778097445661  0.4913418872929299
  0.9834026148554579  0.1273193774258349  0.2574950267306367
  0.9877069023609546  0.6225669952101657  0.2652648111165853
  0.0111836623619255  0.6241843172564510  0.7665700597716621
  0.4862396380492403  0.6260844797116001  0.2613600182737592
  0.9950757739713301  0.3742248603804993  0.5125176810036508
  0.4873900529685263  0.3711366197494725  0.5120173529684054
  0.4822143682500884  0.8783840140260782  0.5044296949688698
  0.9957183981432961  0.3751438055633377  0.7364784333832535
  0.0064439020488515  0.8756080450691720  0.2411311244039372
  0.9984881137793487  0.8750802846783297  0.7375394752186526
  0.5138677776735072  0.3708933882230401  0.2373804672696367
  0.4956684648567658  0.3731249647454424  0.7392515517295254
  0.5071777465536501  0.8760354209726596  0.2394219033178492
  0.5011380791355690  0.8752801019353341  0.7476431918651905
  0.2463011374489704  0.1248661610467725  0.9936357807972476
  0.2422553255763462  0.1242754754317264  0.4979644316759469
  0.2396121417765959  0.6262870915333827  0.5065150416670813
  0.7464696220072998  0.1263228365928397  0.0183514867596452
  0.7617985007054330  0.6246089702386133  0.0170767476660689
  0.7361858642806614  0.6248066383915650  0.5125590896075984
  0.2685117528898345  0.1260798201780241  0.2514562570501303
  0.2503040329747380  0.1245432684092407  0.7570381748308983
  0.2615461321780232  0.6233479742134660  0.2390319220864901
  0.7675119323442081  0.1262451193114632  0.2342959173422046
  0.7609547180058117  0.6279536046079567  0.2324737820521678
  0.7380004397469867  0.6240526626804755  0.7367126507074763
  0.2478645770523921  0.3761224807919467  0.9956909570279610
  0.2417519420730689  0.8738059102261613  0.0021771341003392
  0.7453056341109545  0.3742816484655895  0.9760043443867047
  0.7627180368162660  0.3719803303625244  0.4825664019824293
  0.7420535373825700  0.8746834379461207  0.9911165332845014
  0.7672745205181525  0.8762629646875261  0.4907802276117673
  0.2565130990575491  0.3760696513828601  0.7577183858965393
  0.2429611874724231  0.8754480331770390  0.2525417197609927
  0.2482048916824012  0.8733793342911871  0.7464627211641893
  0.7359113410426341  0.3695366826772729  0.2767976934746067
  0.7574983409777146  0.3737227308920430  0.7677715468696189
  0.7403281365141036  0.8758033378082476  0.2602433133431772
  0.7523235578387618  0.8749377457663696  0.7579685850314669
 
  0.00000000E+00  0.00000000E+00  0.00000000E+00
  0.00000000E+00  0.00000000E+00  0.00000000E+00
  0.00000000E+00  0.00000000E+00  0.00000000E+00
  0.00000000E+00  0.00000000E+00  0.00000000E+00
  0.00000000E+00  0.00000000E+00  0.00000000E+00
  0.00000000E+00  0.00000000E+00  0.00000000E+00
  0.00000000E+00  0.00000000E+00  0.00000000E+00
  0.00000000E+00  0.00000000E+00  0.00000000E+00
  0.00000000E+00  0.00000000E+00  0.00000000E+00
  0.00000000E+00  0.00000000E+00  0.00000000E+00
  0.00000000E+00  0.00000000E+00  0.00000000E+00
  0.00000000E+00  0.00000000E+00  0.00000000E+00
  0.00000000E+00  0.00000000E+00  0.00000000E+00
  0.00000000E+00  0.00000000E+00  0.00000000E+00
  0.00000000E+00  0.00000000E+00  0.00000000E+00
  0.00000000E+00  0.00000000E+00  0.00000000E+00
  0.00000000E+00  0.00000000E+00  0.00000000E+00
  0.00000000E+00  0.00000000E+00  0.00000000E+00
  0.00000000E+00  0.00000000E+00  0.00000000E+00
  0.00000000E+00  0.00000000E+00  0.00000000E+00
  0.00000000E+00  0.00000000E+00  0.00000000E+00
  0.00000000E+00  0.00000000E+00  0.00000000E+00
  0.00000000E+00  0.00000000E+00  0.00000000E+00
  0.00000000E+00  0.00000000E+00  0.00000000E+00
  0.00000000E+00  0.00000000E+00  0.00000000E+00
  0.00000000E+00  0.00000000E+00  0.00000000E+00
  0.00000000E+00  0.00000000E+00  0.00000000E+00
  0.00000000E+00  0.00000000E+00  0.00000000E+00
  0.00000000E+00  0.00000000E+00  0.00000000E+00
  0.00000000E+00  0.00000000E+00  0.00000000E+00
  0.00000000E+00  0.00000000E+00  0.00000000E+00
  0.00000000E+00  0.00000000E+00  0.00000000E+00
  0.00000000E+00  0.00000000E+00  0.00000000E+00
  0.00000000E+00  0.00000000E+00  0.00000000E+00
  0.00000000E+00  0.00000000E+00  0.00000000E+00
  0.00000000E+00  0.00000000E+00  0.00000000E+00
  0.00000000E+00  0.00000000E+00  0.00000000E+00
  0.00000000E+00  0.00000000E+00  0.00000000E+00
  0.00000000E+00  0.00000000E+00  0.00000000E+00
  0.00000000E+00  0.00000000E+00  0.00000000E+00
  0.00000000E+00  0.00000000E+00  0.00000000E+00
  0.00000000E+00  0.00000000E+00  0.00000000E+00
  0.00000000E+00  0.00000000E+00  0.00000000E+00
  0.00000000E+00  0.00000000E+00  0.00000000E+00
  0.00000000E+00  0.00000000E+00  0.00000000E+00
  0.00000000E+00  0.00000000E+00  0.00000000E+00
  0.00000000E+00  0.00000000E+00  0.00000000E+00
  0.00000000E+00  0.00000000E+00  0.00000000E+00
  0.00000000E+00  0.00000000E+00  0.00000000E+00
  0.00000000E+00  0.00000000E+00  0.00000000E+00
  0.00000000E+00  0.00000000E+00  0.00000000E+00
  0.00000000E+00  0.00000000E+00  0.00000000E+00
  0.00000000E+00  0.00000000E+00  0.00000000E+00
  0.00000000E+00  0.00000000E+00  0.00000000E+00
  0.00000000E+00  0.00000000E+00  0.00000000E+00
  0.00000000E+00  0.00000000E+00  0.00000000E+00
  0.00000000E+00  0.00000000E+00  0.00000000E+00
  0.00000000E+00  0.00000000E+00  0.00000000E+00
  0.00000000E+00  0.00000000E+00  0.00000000E+00
  0.00000000E+00  0.00000000E+00  0.00000000E+00
  0.00000000E+00  0.00000000E+00  0.00000000E+00
  0.00000000E+00  0.00000000E+00  0.00000000E+00
  0.00000000E+00  0.00000000E+00  0.00000000E+00
  0.00000000E+00  0.00000000E+00  0.00000000E+00
  0.00000000E+00  0.00000000E+00  0.00000000E+00
  0.00000000E+00  0.00000000E+00  0.00000000E+00
  0.00000000E+00  0.00000000E+00  0.00000000E+00
  0.00000000E+00  0.00000000E+00  0.00000000E+00
  0.00000000E+00  0.00000000E+00  0.00000000E+00
  0.00000000E+00  0.00000000E+00  0.00000000E+00
  0.00000000E+00  0.00000000E+00  0.00000000E+00
  0.00000000E+00  0.00000000E+00  0.00000000E+00
  0.00000000E+00  0.00000000E+00  0.00000000E+00
  0.00000000E+00  0.00000000E+00  0.00000000E+00
  0.00000000E+00  0.00000000E+00  0.00000000E+00
  0.00000000E+00  0.00000000E+00  0.00000000E+00
  0.00000000E+00  0.00000000E+00  0.00000000E+00
  0.00000000E+00  0.00000000E+00  0.00000000E+00
  0.00000000E+00  0.00000000E+00  0.00000000E+00
  0.00000000E+00  0.00000000E+00  0.00000000E+00
  0.00000000E+00  0.00000000E+00  0.00000000E+00
  0.00000000E+00  0.00000000E+00  0.00000000E+00
  0.00000000E+00  0.00000000E+00  0.00000000E+00
  0.00000000E+00  0.00000000E+00  0.00000000E+00
  0.00000000E+00  0.00000000E+00  0.00000000E+00
  0.00000000E+00  0.00000000E+00  0.00000000E+00
  0.00000000E+00  0.00000000E+00  0.00000000E+00
  0.00000000E+00  0.00000000E+00  0.00000000E+00
  0.00000000E+00  0.00000000E+00  0.00000000E+00
  0.00000000E+00  0.00000000E+00  0.00000000E+00
  0.00000000E+00  0.00000000E+00  0.00000000E+00
  0.00000000E+00  0.00000000E+00  0.00000000E+00
  0.00000000E+00  0.00000000E+00  0.00000000E+00
  0.00000000E+00  0.00000000E+00  0.00000000E+00
  0.00000000E+00  0.00000000E+00  0.00000000E+00
  0.00000000E+00  0.00000000E+00  0.00000000E+00
  0.00000000E+00  0.00000000E+00  0.00000000E+00
  0.00000000E+00  0.00000000E+00  0.00000000E+00
  0.00000000E+00  0.00000000E+00  0.00000000E+00
  0.00000000E+00  0.00000000E+00  0.00000000E+00
  0.00000000E+00  0.00000000E+00  0.00000000E+00
  0.00000000E+00  0.00000000E+00  0.00000000E+00
  0.00000000E+00  0.00000000E+00  0.00000000E+00
  0.00000000E+00  0.00000000E+00  0.00000000E+00
  0.00000000E+00  0.00000000E+00  0.00000000E+00
  0.00000000E+00  0.00000000E+00  0.00000000E+00
  0.00000000E+00  0.00000000E+00  0.00000000E+00
  0.00000000E+00  0.00000000E+00  0.00000000E+00
  0.00000000E+00  0.00000000E+00  0.00000000E+00
  0.00000000E+00  0.00000000E+00  0.00000000E+00
  0.00000000E+00  0.00000000E+00  0.00000000E+00
  0.00000000E+00  0.00000000E+00  0.00000000E+00
  0.00000000E+00  0.00000000E+00  0.00000000E+00
  0.00000000E+00  0.00000000E+00  0.00000000E+00
  0.00000000E+00  0.00000000E+00  0.00000000E+00
  0.00000000E+00  0.00000000E+00  0.00000000E+00
  0.00000000E+00  0.00000000E+00  0.00000000E+00
  0.00000000E+00  0.00000000E+00  0.00000000E+00
  0.00000000E+00  0.00000000E+00  0.00000000E+00
  0.00000000E+00  0.00000000E+00  0.00000000E+00
  0.00000000E+00  0.00000000E+00  0.00000000E+00
  0.00000000E+00  0.00000000E+00  0.00000000E+00
  0.00000000E+00  0.00000000E+00  0.00000000E+00
  0.00000000E+00  0.00000000E+00  0.00000000E+00
  0.00000000E+00  0.00000000E+00  0.00000000E+00
  0.00000000E+00  0.00000000E+00  0.00000000E+00
  0.00000000E+00  0.00000000E+00  0.00000000E+00
  0.00000000E+00  0.00000000E+00  0.00000000E+00
  0.00000000E+00  0.00000000E+00  0.00000000E+00
  0.00000000E+00  0.00000000E+00  0.00000000E+00
  0.00000000E+00  0.00000000E+00  0.00000000E+00
  0.00000000E+00  0.00000000E+00  0.00000000E+00
  0.00000000E+00  0.00000000E+00  0.00000000E+00
  0.00000000E+00  0.00000000E+00  0.00000000E+00
  0.00000000E+00  0.00000000E+00  0.00000000E+00
  0.00000000E+00  0.00000000E+00  0.00000000E+00
  0.00000000E+00  0.00000000E+00  0.00000000E+00
  0.00000000E+00  0.00000000E+00  0.00000000E+00
  0.00000000E+00  0.00000000E+00  0.00000000E+00
  0.00000000E+00  0.00000000E+00  0.00000000E+00
  0.00000000E+00  0.00000000E+00  0.00000000E+00
  0.00000000E+00  0.00000000E+00  0.00000000E+00
  0.00000000E+00  0.00000000E+00  0.00000000E+00
  0.00000000E+00  0.00000000E+00  0.00000000E+00
  0.00000000E+00  0.00000000E+00  0.00000000E+00
  0.00000000E+00  0.00000000E+00  0.00000000E+00
  0.00000000E+00  0.00000000E+00  0.00000000E+00
  0.00000000E+00  0.00000000E+00  0.00000000E+00
  0.00000000E+00  0.00000000E+00  0.00000000E+00
  0.00000000E+00  0.00000000E+00  0.00000000E+00
  0.00000000E+00  0.00000000E+00  0.00000000E+00
  0.00000000E+00  0.00000000E+00  0.00000000E+00
  0.00000000E+00  0.00000000E+00  0.00000000E+00
  0.00000000E+00  0.00000000E+00  0.00000000E+00
  0.00000000E+00  0.00000000E+00  0.00000000E+00
  0.00000000E+00  0.00000000E+00  0.00000000E+00
  0.00000000E+00  0.00000000E+00  0.00000000E+00
  0.00000000E+00  0.00000000E+00  0.00000000E+00
  0.00000000E+00  0.00000000E+00  0.00000000E+00
  0.00000000E+00  0.00000000E+00  0.00000000E+00
  0.00000000E+00  0.00000000E+00  0.00000000E+00
  0.00000000E+00  0.00000000E+00  0.00000000E+00
  0.00000000E+00  0.00000000E+00  0.00000000E+00
  0.00000000E+00  0.00000000E+00  0.00000000E+00
  0.00000000E+00  0.00000000E+00  0.00000000E+00
  0.00000000E+00  0.00000000E+00  0.00000000E+00
  0.00000000E+00  0.00000000E+00  0.00000000E+00
  0.00000000E+00  0.00000000E+00  0.00000000E+00
  0.00000000E+00  0.00000000E+00  0.00000000E+00
  0.00000000E+00  0.00000000E+00  0.00000000E+00
  0.00000000E+00  0.00000000E+00  0.00000000E+00
  0.00000000E+00  0.00000000E+00  0.00000000E+00
  0.00000000E+00  0.00000000E+00  0.00000000E+00
  0.00000000E+00  0.00000000E+00  0.00000000E+00
  0.00000000E+00  0.00000000E+00  0.00000000E+00
  0.00000000E+00  0.00000000E+00  0.00000000E+00
  0.00000000E+00  0.00000000E+00  0.00000000E+00
  0.00000000E+00  0.00000000E+00  0.00000000E+00
  0.00000000E+00  0.00000000E+00  0.00000000E+00
  0.00000000E+00  0.00000000E+00  0.00000000E+00
  0.00000000E+00  0.00000000E+00  0.00000000E+00
  0.00000000E+00  0.00000000E+00  0.00000000E+00
  0.00000000E+00  0.00000000E+00  0.00000000E+00
  0.00000000E+00  0.00000000E+00  0.00000000E+00
  0.00000000E+00  0.00000000E+00  0.00000000E+00
  0.00000000E+00  0.00000000E+00  0.00000000E+00
  0.00000000E+00  0.00000000E+00  0.00000000E+00
  0.00000000E+00  0.00000000E+00  0.00000000E+00
  0.00000000E+00  0.00000000E+00  0.00000000E+00
  0.00000000E+00  0.00000000E+00  0.00000000E+00
  0.00000000E+00  0.00000000E+00  0.00000000E+00
  0.00000000E+00  0.00000000E+00  0.00000000E+00
  0.00000000E+00  0.00000000E+00  0.00000000E+00
  0.00000000E+00  0.00000000E+00  0.00000000E+00
  0.00000000E+00  0.00000000E+00  0.00000000E+00
  0.00000000E+00  0.00000000E+00  0.00000000E+00
  0.00000000E+00  0.00000000E+00  0.00000000E+00
  0.00000000E+00  0.00000000E+00  0.00000000E+00
  0.00000000E+00  0.00000000E+00  0.00000000E+00
  0.00000000E+00  0.00000000E+00  0.00000000E+00
  0.00000000E+00  0.00000000E+00  0.00000000E+00
  0.00000000E+00  0.00000000E+00  0.00000000E+00
  0.00000000E+00  0.00000000E+00  0.00000000E+00
  0.00000000E+00  0.00000000E+00  0.00000000E+00
  0.00000000E+00  0.00000000E+00  0.00000000E+00
  0.00000000E+00  0.00000000E+00  0.00000000E+00
  0.00000000E+00  0.00000000E+00  0.00000000E+00
  0.00000000E+00  0.00000000E+00  0.00000000E+00
  0.00000000E+00  0.00000000E+00  0.00000000E+00
  0.00000000E+00  0.00000000E+00  0.00000000E+00
  0.00000000E+00  0.00000000E+00  0.00000000E+00
  0.00000000E+00  0.00000000E+00  0.00000000E+00
  0.00000000E+00  0.00000000E+00  0.00000000E+00
  0.00000000E+00  0.00000000E+00  0.00000000E+00
  0.00000000E+00  0.00000000E+00  0.00000000E+00
  0.00000000E+00  0.00000000E+00  0.00000000E+00
  0.00000000E+00  0.00000000E+00  0.00000000E+00
  0.00000000E+00  0.00000000E+00  0.00000000E+00
  0.00000000E+00  0.00000000E+00  0.00000000E+00
  0.00000000E+00  0.00000000E+00  0.00000000E+00
  0.00000000E+00  0.00000000E+00  0.00000000E+00
  0.00000000E+00  0.00000000E+00  0.00000000E+00
  0.00000000E+00  0.00000000E+00  0.00000000E+00
  0.00000000E+00  0.00000000E+00  0.00000000E+00
  0.00000000E+00  0.00000000E+00  0.00000000E+00
  0.00000000E+00  0.00000000E+00  0.00000000E+00
  0.00000000E+00  0.00000000E+00  0.00000000E+00
  0.00000000E+00  0.00000000E+00  0.00000000E+00
  0.00000000E+00  0.00000000E+00  0.00000000E+00
  0.00000000E+00  0.00000000E+00  0.00000000E+00
  0.00000000E+00  0.00000000E+00  0.00000000E+00
  0.00000000E+00  0.00000000E+00  0.00000000E+00
  0.00000000E+00  0.00000000E+00  0.00000000E+00
  0.00000000E+00  0.00000000E+00  0.00000000E+00
  0.00000000E+00  0.00000000E+00  0.00000000E+00
  0.00000000E+00  0.00000000E+00  0.00000000E+00
  0.00000000E+00  0.00000000E+00  0.00000000E+00
  0.00000000E+00  0.00000000E+00  0.00000000E+00
  0.00000000E+00  0.00000000E+00  0.00000000E+00
  0.00000000E+00  0.00000000E+00  0.00000000E+00
  0.00000000E+00  0.00000000E+00  0.00000000E+00
  0.00000000E+00  0.00000000E+00  0.00000000E+00
  0.00000000E+00  0.00000000E+00  0.00000000E+00
  0.00000000E+00  0.00000000E+00  0.00000000E+00
  0.00000000E+00  0.00000000E+00  0.00000000E+00
  0.00000000E+00  0.00000000E+00  0.00000000E+00
  0.00000000E+00  0.00000000E+00  0.00000000E+00
  0.00000000E+00  0.00000000E+00  0.00000000E+00
  0.00000000E+00  0.00000000E+00  0.00000000E+00
  0.00000000E+00  0.00000000E+00  0.00000000E+00
  0.00000000E+00  0.00000000E+00  0.00000000E+00
  0.00000000E+00  0.00000000E+00  0.00000000E+00
  0.00000000E+00  0.00000000E+00  0.00000000E+00
  0.00000000E+00  0.00000000E+00  0.00000000E+00
  0.00000000E+00  0.00000000E+00  0.00000000E+00
  0.00000000E+00  0.00000000E+00  0.00000000E+00
  0.00000000E+00  0.00000000E+00  0.00000000E+00
