TiOF2 2x2x2 config 1065                 
   1.00000000000000     
     7.8274375485482359   -0.0008358203361388   -0.0010140065752679
    -0.0008537155815408    7.7241429422399674   -0.0007212292359812
    -0.0009777715210808   -0.0007042133867912    7.6198732313322273
   Ti   O    F 
     8     8    16
Direct
  0.0000944999900838  0.9851369510695207  0.9949129078668122
  0.0008976377035523  0.0005632826619859  0.5166236777078410
  0.0010684246663430  0.5110242517256296  0.9869223291805227
  0.9818807275230910  0.5002494389017613  0.5092145615010892
  0.5002450924141328  0.0024817793019096  0.0002755264706806
  0.5000979315149152  0.0067888299751928  0.4995725319787070
  0.5001739386503274  0.4807112734864063  0.0005014148209455
  0.5089661713843014  0.4838048537370483  0.4999241698179517
  0.7516924487972432  0.5003072552762333  0.4991537925276504
  0.9999421683860703  0.7502648217043699  0.0037383261766450
  0.5009780182713044  0.2559588162724040  0.9995370340961287
  0.4992778027374456  0.2540884105631491  0.5001909538661948
  0.9997728802053985  0.0030027895828937  0.7483272669212795
  0.0018127801254764  0.4972246757905197  0.7502838779874637
  0.5003714540372570  0.9980797303328899  0.2489101555293232
  0.5004625749748683  0.9980316111810197  0.7505696468265555
  0.2455893034502594  0.0023133087424867  0.0038717044943937
  0.2442225930109672  0.9968506107612640  0.4953689754829256
  0.2509403415152605  0.4998103318736256  0.0044077642836058
  0.2482636201027759  0.5023461813950476  0.4974460783611931
  0.7547485862833199  0.0022452947816660  0.0039874693740600
  0.7571269837396386  0.9964143490069901  0.4951562650023646
  0.7497594484522452  0.5000492341787321  0.0048906868012679
  0.9997662791812800  0.2502711626667917  0.0065315694149959
  0.0053606516610074  0.2480988820268308  0.4897105826492947
  0.0043441812286673  0.7523993082291796  0.4878132337031076
  0.5011532168459283  0.7434954305068757  0.9994602305356253
  0.4978287124222902  0.7464787633413650  0.5002970696748932
  0.9998013306836597  0.0050347571534033  0.2528323789796545
  0.0043486290362011  0.4955688710234512  0.2490182836017496
  0.4951149050505919  0.5156910666191052  0.2484009657212454
  0.4938966659540753  0.5152136761302089  0.7521485686437543
 
  0.00000000E+00  0.00000000E+00  0.00000000E+00
  0.00000000E+00  0.00000000E+00  0.00000000E+00
  0.00000000E+00  0.00000000E+00  0.00000000E+00
  0.00000000E+00  0.00000000E+00  0.00000000E+00
  0.00000000E+00  0.00000000E+00  0.00000000E+00
  0.00000000E+00  0.00000000E+00  0.00000000E+00
  0.00000000E+00  0.00000000E+00  0.00000000E+00
  0.00000000E+00  0.00000000E+00  0.00000000E+00
  0.00000000E+00  0.00000000E+00  0.00000000E+00
  0.00000000E+00  0.00000000E+00  0.00000000E+00
  0.00000000E+00  0.00000000E+00  0.00000000E+00
  0.00000000E+00  0.00000000E+00  0.00000000E+00
  0.00000000E+00  0.00000000E+00  0.00000000E+00
  0.00000000E+00  0.00000000E+00  0.00000000E+00
  0.00000000E+00  0.00000000E+00  0.00000000E+00
  0.00000000E+00  0.00000000E+00  0.00000000E+00
  0.00000000E+00  0.00000000E+00  0.00000000E+00
  0.00000000E+00  0.00000000E+00  0.00000000E+00
  0.00000000E+00  0.00000000E+00  0.00000000E+00
  0.00000000E+00  0.00000000E+00  0.00000000E+00
  0.00000000E+00  0.00000000E+00  0.00000000E+00
  0.00000000E+00  0.00000000E+00  0.00000000E+00
  0.00000000E+00  0.00000000E+00  0.00000000E+00
  0.00000000E+00  0.00000000E+00  0.00000000E+00
  0.00000000E+00  0.00000000E+00  0.00000000E+00
  0.00000000E+00  0.00000000E+00  0.00000000E+00
  0.00000000E+00  0.00000000E+00  0.00000000E+00
  0.00000000E+00  0.00000000E+00  0.00000000E+00
  0.00000000E+00  0.00000000E+00  0.00000000E+00
  0.00000000E+00  0.00000000E+00  0.00000000E+00
  0.00000000E+00  0.00000000E+00  0.00000000E+00
  0.00000000E+00  0.00000000E+00  0.00000000E+00
