TiOF2 2x2x2 config 2652                 
   1.00000000000000     
     7.7872775175099651   -0.0003984564434100   -0.0003729488051943
    -0.0004296489447634    7.6759583476768070   -0.0021068741929062
    -0.0003615876340690   -0.0020917820105635    7.7375274660592686
   Ti   O    F 
     8     8    16
Direct
  0.9786788516307183  0.0007070665530122  0.0006919713350797
  0.9997278938135423  0.9809427963928243  0.5004871082762108
  0.0002738003132450  0.5000191556646811  0.9792589100462692
  0.0166875537664595  0.5022240715681647  0.5033649269955021
  0.4996198405273375  0.0001793308856861  0.0011553037136167
  0.4997864309987605  0.0008142057984841  0.4810162598630043
  0.5002267486630458  0.5002849663521118  0.0079183975800703
  0.4908860539178548  0.5001256380804406  0.4838941547305993
  0.2480701958275588  0.4982848576205399  0.4990668761045498
  0.7572693133398261  0.9997895861463491  0.9982273622697306
  0.9985304986060513  0.7545280760324147  0.4980874456541500
  0.4986293002285365  0.2501114664088746  0.9986347954077033
  0.4986537991656022  0.7500733508845130  0.9986927029716242
  0.9985479195464961  0.4982825122077656  0.7525011644472670
  0.4974223086177219  0.9999910723216132  0.2576022832858627
  0.5015961006966663  0.5004802383434139  0.2551130641471957
  0.2389240715800369  0.9995891171667353  0.9973459778053808
  0.2477818787488459  0.0053738175072482  0.5037891504045078
  0.2438579231368720  0.5005967779799576  0.0029130823733396
  0.7521435461668347  0.0048608185730359  0.5038661278602206
  0.7568839301105470  0.5005946991875163  0.0033530629816241
  0.7520935676114888  0.4973885560500051  0.5001278202944590
  0.0058797295467912  0.2505586557077564  0.0065534126719129
  0.9962315316787311  0.2436670333259841  0.4968374231538917
  0.0057003479684710  0.7503073343318718  0.0069729974332731
  0.5050872114454137  0.2481089298991535  0.5137891549221436
  0.5059014159099533  0.7529384280414249  0.5132392562251127
  0.0042590131442637  0.0054791710990614  0.2518673940714393
  0.0040648712815923  0.0060210132279508  0.7494605417628506
  0.9963668425545151  0.4973688135653731  0.2457870792423051
  0.4962926773218044  0.9997313615236791  0.7417925787030413
  0.5039248321344232  0.5005770815523576  0.7465922132660339
 
  0.00000000E+00  0.00000000E+00  0.00000000E+00
  0.00000000E+00  0.00000000E+00  0.00000000E+00
  0.00000000E+00  0.00000000E+00  0.00000000E+00
  0.00000000E+00  0.00000000E+00  0.00000000E+00
  0.00000000E+00  0.00000000E+00  0.00000000E+00
  0.00000000E+00  0.00000000E+00  0.00000000E+00
  0.00000000E+00  0.00000000E+00  0.00000000E+00
  0.00000000E+00  0.00000000E+00  0.00000000E+00
  0.00000000E+00  0.00000000E+00  0.00000000E+00
  0.00000000E+00  0.00000000E+00  0.00000000E+00
  0.00000000E+00  0.00000000E+00  0.00000000E+00
  0.00000000E+00  0.00000000E+00  0.00000000E+00
  0.00000000E+00  0.00000000E+00  0.00000000E+00
  0.00000000E+00  0.00000000E+00  0.00000000E+00
  0.00000000E+00  0.00000000E+00  0.00000000E+00
  0.00000000E+00  0.00000000E+00  0.00000000E+00
  0.00000000E+00  0.00000000E+00  0.00000000E+00
  0.00000000E+00  0.00000000E+00  0.00000000E+00
  0.00000000E+00  0.00000000E+00  0.00000000E+00
  0.00000000E+00  0.00000000E+00  0.00000000E+00
  0.00000000E+00  0.00000000E+00  0.00000000E+00
  0.00000000E+00  0.00000000E+00  0.00000000E+00
  0.00000000E+00  0.00000000E+00  0.00000000E+00
  0.00000000E+00  0.00000000E+00  0.00000000E+00
  0.00000000E+00  0.00000000E+00  0.00000000E+00
  0.00000000E+00  0.00000000E+00  0.00000000E+00
  0.00000000E+00  0.00000000E+00  0.00000000E+00
  0.00000000E+00  0.00000000E+00  0.00000000E+00
  0.00000000E+00  0.00000000E+00  0.00000000E+00
  0.00000000E+00  0.00000000E+00  0.00000000E+00
  0.00000000E+00  0.00000000E+00  0.00000000E+00
  0.00000000E+00  0.00000000E+00  0.00000000E+00
