TiOF2 2x2x2 config 1102                 
   1.00000000000000     
     7.8401973846709687   -0.0000003538266685    0.0000247678301754
     0.0000174621180986    7.8155059024467226   -0.0000056660703336
     0.0000137179509980   -0.0000056509334299    7.6592542375938111
   Ti   O    F 
     8     8    16
Direct
  0.0010886394450297  0.9999991959337200  0.0000024751787965
  0.0012211859257202  0.9999968652776386  0.5000023702195402
  0.9791999743410256  0.4999987476673264  0.9999958614252525
  0.9809503771320714  0.4999959615798946  0.4999957304787440
  0.5004469425735409  1.0000015326112115  0.9998795972340826
  0.5007800637529237 -0.0000306647287426  0.4998978136283689
  0.5008087517590945  0.4999929179053282  0.0001388809171780
  0.4996537429137200  0.5000405308240613  0.5000771355379920
  0.7582849732984479  0.4999968713232453  0.9999984525024934
  0.7627199876676676  0.5000055516551356  0.4999886152629798
  0.4998464802764007  0.2468705706928803  0.5000158780319396
  0.4998388551972413  0.7531453999520091  0.5000175027773527
  0.5013130698451501  1.0000206482442420  0.2449797794631064
  0.5013145346987316  1.0000239408905525  0.7551185436964283
  0.4984964833236598  0.4999874099565377  0.2463484396440949
  0.4985009093841519  0.4999818793479314  0.7535390160874501
  0.2452375949258155  0.0000078825646163  0.0000078960147313
  0.2376902418370915  0.0000030904014303  0.5000133406347258
  0.2412777805618800  0.4999990314818531  0.9999863068572137
  0.2368815249028674  0.4999937253658162  0.4999845712303066
  0.7565168518884969  0.9999928160543733  0.0000119891461035
  0.7643888094161219  0.9999917836687480  0.5000070117536436
  0.0042265018954667  0.2534968466892725  0.0000005584560524
  0.0027183929977744  0.2440805658596366  0.4999994132343394
  0.0042234350703447  0.7465010838487163  0.9999983249637238
  0.0027293756513493  0.7559142149863537  0.5000010707036961
  0.4977064417720300  0.2484250024147545  0.9999996374857003
  0.4976999850267915  0.7515723694015876  0.9999968700679847
  0.9998759946299763  0.9999974972719969  0.2571505209428377
  0.9998685032410450 -0.0000002833725223  0.7428554220228091
  0.0122478357426359  0.4999993018164386  0.2503903397628303
  0.0122457589057285  0.4999977124139520  0.7496006346375165
 
  0.00000000E+00  0.00000000E+00  0.00000000E+00
  0.00000000E+00  0.00000000E+00  0.00000000E+00
  0.00000000E+00  0.00000000E+00  0.00000000E+00
  0.00000000E+00  0.00000000E+00  0.00000000E+00
  0.00000000E+00  0.00000000E+00  0.00000000E+00
  0.00000000E+00  0.00000000E+00  0.00000000E+00
  0.00000000E+00  0.00000000E+00  0.00000000E+00
  0.00000000E+00  0.00000000E+00  0.00000000E+00
  0.00000000E+00  0.00000000E+00  0.00000000E+00
  0.00000000E+00  0.00000000E+00  0.00000000E+00
  0.00000000E+00  0.00000000E+00  0.00000000E+00
  0.00000000E+00  0.00000000E+00  0.00000000E+00
  0.00000000E+00  0.00000000E+00  0.00000000E+00
  0.00000000E+00  0.00000000E+00  0.00000000E+00
  0.00000000E+00  0.00000000E+00  0.00000000E+00
  0.00000000E+00  0.00000000E+00  0.00000000E+00
  0.00000000E+00  0.00000000E+00  0.00000000E+00
  0.00000000E+00  0.00000000E+00  0.00000000E+00
  0.00000000E+00  0.00000000E+00  0.00000000E+00
  0.00000000E+00  0.00000000E+00  0.00000000E+00
  0.00000000E+00  0.00000000E+00  0.00000000E+00
  0.00000000E+00  0.00000000E+00  0.00000000E+00
  0.00000000E+00  0.00000000E+00  0.00000000E+00
  0.00000000E+00  0.00000000E+00  0.00000000E+00
  0.00000000E+00  0.00000000E+00  0.00000000E+00
  0.00000000E+00  0.00000000E+00  0.00000000E+00
  0.00000000E+00  0.00000000E+00  0.00000000E+00
  0.00000000E+00  0.00000000E+00  0.00000000E+00
  0.00000000E+00  0.00000000E+00  0.00000000E+00
  0.00000000E+00  0.00000000E+00  0.00000000E+00
  0.00000000E+00  0.00000000E+00  0.00000000E+00
  0.00000000E+00  0.00000000E+00  0.00000000E+00
