TiOF2 2x2x2 config 0012                 
   1.00000000000000     
     7.8836497548333346   -0.0000012974395641   -0.0000012055753377
    -0.0000012817246832    7.7839462927892020   -0.0000042281734930
    -0.0000011413706025   -0.0000039163031725    7.5083060978214746
   Ti   O    F 
     8     8    16
Direct
  0.0000000197096927  0.0002293361966240  0.0003414573252292
  0.9999999998446819  0.0002292162787123  0.4996547588947803
  0.9999999822367656  0.4997708549348822  0.9996578766088725
 -0.0000000019264022  0.4997709457610233  0.5003445220910877
  0.5000000206360314  0.9870442371349865  0.9892180349991352
  0.5000000017511175  0.9870416709541777  0.5107776963535776
  0.4999999848845655  0.5129560269009923  0.0107825123719182
  0.5000000067042590  0.5129584191003955  0.4892227722177976
  0.4999999980796769  0.7499991555568882  1.0000000330120458
  0.4999999997510264  0.7500004290544993  0.5000000113694706
  1.0000000127845809  0.9994573659743975  0.2500003206962819
  0.0000000150434998  0.9994462113052207  0.7500008526417679
  0.9999999861638709  0.5005538709649031  0.2499993716922966
 -0.0000000118562915  0.5005434320261666  0.7500001358319766
  0.4999999989949865  0.0069877437538131  0.7500100340440107
  0.4999999992654358  0.4930116986773876  0.2499884886019936
  0.2506188573402947  0.0019845183781837  0.0043964651902228
  0.2506174814471751  0.0019836546007829  0.4956038135643249
  0.2506189400361340  0.4980155398970698  0.9956035747172149
  0.2506173781675989  0.4980162548450475  0.5043962618322625
  0.7493811645336059  0.0019844335874386  0.0043965158657725
  0.7493824925988302  0.0019836429367218  0.4956038653082728
  0.7493810280795256  0.4980154553636931  0.9956036258425889
  0.7493826468552387  0.4980162434817333  0.5043963132721985
  0.0000000005505162  0.2500001684093892  0.9999999554446611
  1.0000000000713281  0.2500001084705054  0.5000003714292737
  1.0000000006896486  0.7500000917226910  0.0000003717472950
  1.0000000001815526  0.7500001285781146  0.4999999534640207
  0.4999999985997975  0.2500001409155237  1.0000000207051785
  0.4999999998559554  0.2499997968354834  0.5000000113693699
  0.4999999844639812  0.0132266419608016  0.2499995879307337
  0.5000000144613352  0.4867725654417577  0.7500004135643530
 
  0.00000000E+00  0.00000000E+00  0.00000000E+00
  0.00000000E+00  0.00000000E+00  0.00000000E+00
  0.00000000E+00  0.00000000E+00  0.00000000E+00
  0.00000000E+00  0.00000000E+00  0.00000000E+00
  0.00000000E+00  0.00000000E+00  0.00000000E+00
  0.00000000E+00  0.00000000E+00  0.00000000E+00
  0.00000000E+00  0.00000000E+00  0.00000000E+00
  0.00000000E+00  0.00000000E+00  0.00000000E+00
  0.00000000E+00  0.00000000E+00  0.00000000E+00
  0.00000000E+00  0.00000000E+00  0.00000000E+00
  0.00000000E+00  0.00000000E+00  0.00000000E+00
  0.00000000E+00  0.00000000E+00  0.00000000E+00
  0.00000000E+00  0.00000000E+00  0.00000000E+00
  0.00000000E+00  0.00000000E+00  0.00000000E+00
  0.00000000E+00  0.00000000E+00  0.00000000E+00
  0.00000000E+00  0.00000000E+00  0.00000000E+00
  0.00000000E+00  0.00000000E+00  0.00000000E+00
  0.00000000E+00  0.00000000E+00  0.00000000E+00
  0.00000000E+00  0.00000000E+00  0.00000000E+00
  0.00000000E+00  0.00000000E+00  0.00000000E+00
  0.00000000E+00  0.00000000E+00  0.00000000E+00
  0.00000000E+00  0.00000000E+00  0.00000000E+00
  0.00000000E+00  0.00000000E+00  0.00000000E+00
  0.00000000E+00  0.00000000E+00  0.00000000E+00
  0.00000000E+00  0.00000000E+00  0.00000000E+00
  0.00000000E+00  0.00000000E+00  0.00000000E+00
  0.00000000E+00  0.00000000E+00  0.00000000E+00
  0.00000000E+00  0.00000000E+00  0.00000000E+00
  0.00000000E+00  0.00000000E+00  0.00000000E+00
  0.00000000E+00  0.00000000E+00  0.00000000E+00
  0.00000000E+00  0.00000000E+00  0.00000000E+00
  0.00000000E+00  0.00000000E+00  0.00000000E+00
