config 21                               
   1.00000000000000     
    15.4263309999999993    0.0000000000000000    0.0000000000000000
     0.0000000000000000   15.4263309999999993    0.0000000000000000
     0.0000000000000000    0.0000000000000000   15.4263309999999993
   Li   Ti   O    F 
     1    64    64   128
Direct
  0.3753187843191038  0.3766830073352740  0.0496762682066013
  0.9947902977125636  0.9950731693455506  0.9943542092929443
  0.9996584236869699  0.9920465340606676  0.4933053158714478
  0.0042196729707316  0.4947220720469342  0.9976441890727373
  0.9943120143270912  0.5026209783995512  0.5073535283326539
  0.4941811309669628  0.9935708275913357  1.0002212096326566
  0.5010106138056281  0.0079333425374637  0.4999070912424405
  0.5081099267423796  0.4969345263953256  0.9965027628067038
  0.4918213954018220  0.4987589483233888  0.4962184640404069
  0.0067944974898454  0.0032105259037455  0.2560079523242207
  0.0009586668871921  0.0076782205555166  0.7565070752295976
  0.9939875622063791  0.4937460155807681  0.2515366700782092
  0.9928304872998668  0.4990653898526527  0.7418159986835158
  0.5060854274795161  0.0090618614639970  0.2508831042404843
  0.4925399003933392  0.0047355966154108  0.7526352970123259
  0.4931942827415874  0.4967221312673735  0.2580110143155873
  0.5006695628192044  0.5038411552900183  0.7590994862517022
  0.9925871828654843  0.2568398087572926  0.0012352715024083
  0.9987632266101778  0.2483048965357042  0.4913209371373880
  0.9979389516029293  0.7576900069330169  0.0063398242729151
  0.9974687245109451  0.7567589919530925  0.5060495964136330
  0.4952108220251507  0.2557406408959176  0.0024070400359551
  0.5085516516624549  0.2454523652115765  0.4993634139174654
  0.5074410247084064  0.7563055413037127 -0.0000119335410953
  0.5065878638699237  0.7527748174314728  0.5096136197398837
  0.0001098636607731  0.2583975386537538  0.2549838359610662
  0.0059177989939282  0.2422444786233110  0.7470964165661100
  0.0067507874961154  0.7485149381101395  0.2433580187294001
  0.9926953141209065  0.7506476789389762  0.7434308017459080
  0.5094542372488446  0.2420792019644241  0.2524985415907709
  0.5063894975494022  0.2427262968949937  0.7509131515810802
  0.5066661010485037  0.7516903112078193  0.2525080317989436
  0.5015247929275520  0.7417478522617547  0.7442736164596235
  0.2561785440995356  0.9969521065054954  0.0058349805441820
  0.2499187346872551  0.9938595543414253  0.5064970524580243
  0.2408768341922662  0.5094805421278130  0.9977106395764969
  0.2542448783431492  0.4945395359378880  0.5071047086922282
  0.7566324464431168  0.0005066941569281  0.9941907348480076
  0.7504763976336482  0.0065155711654010  0.4944389816962964
  0.7440940292047545  0.5006992759061702  0.0053561438415337
  0.7554793338692315  0.4976349068433229  0.5056983509110138
  0.2449673296958193  0.0027201019596879  0.2436613391413705
  0.2573966911207944  0.9972921765868653  0.7443495497267559
  0.2551664752031070  0.4918881017553849  0.2531505036267942
  0.2468960724445849  0.5058746203138578  0.7412773844123498
  0.7448053407162954  0.0006224706724829  0.2557166173763682
  0.7481009616037944  0.0061901236440847  0.7560647058179362
  0.7559870443142828  0.4989811553878491  0.2432397296058987
  0.7571945533859672  0.4980365778951271  0.7427304005559586
  0.2504650632229501  0.2480408446370487  0.0031509101469255
  0.2532095892557529  0.2569181498762927  0.5047644866055345
  0.2518495188090350  0.7429862937882543  0.9938374008537812
  0.2515106545130115  0.7551862158293312  0.4929979618307814
  0.7556124628092593  0.2507143182844942  0.0076340883842240
  0.7432124312309571  0.2425121484018052  0.4978664661874156
  0.7416748529264067  0.7497987451019479  0.9942956362378003
  0.7413825255157326  0.7522585629980943  0.4943556627123560
  0.2512192588976236  0.2578018332612752  0.2435361671345387
  0.2438627762831127  0.2511315605697432  0.7428079537066715
  0.2438445951575786  0.7479182409772712  0.2559185714695393
  0.2478590249043426  0.7415319207513287  0.7566671422786274
  0.7426548506000332  0.2508433387199352  0.2429665633500327
  0.7440521589631529  0.2418397935189936  0.7509156671045721
  0.7454553847582713  0.7502782354964017  0.2568956181511719
  0.7571871436541937  0.7506311755640286  0.7569840226856541
  0.0094045389302488  0.5018105569401394  0.6247029133424835
  0.9947761141239294  0.0061379709886771  0.3760509904880658
  0.9986167472090343  0.0023541460766260  0.8726578317585701
  0.4977727724945659  0.4909043615692074  0.3760196153858212
  0.4928828779404971  0.4953306928392648  0.8756360468560974
  0.9983460590646399  0.7456718597116435  0.1259644495911691
  0.0009796863490801  0.7461333183476061  0.6243296154420906
  0.5007665808667514  0.7526186985781368  0.6254004057175057
  0.9943353886788413  0.2471626789055491  0.3764542777622938
  0.2547652846763734  0.0026898276628273  0.1254524845846276
  0.2540460787450048  0.0029083744372744  0.6253805642166274
  0.2377216798437498  0.4946088784552453  0.6261759550306168
  0.7502494036255095  0.4924744222186512  0.1257056394417874
  0.7449647435349260  0.4937714153186423  0.6243485048628782
  0.7509611617517340  0.9986184819705691  0.3760605925973060
  0.7460362125032293  0.9976661003182892  0.8735378264550593
  0.2442363608151604  0.2549625677750192  0.1287558689039319
  0.2530561440774968  0.2501056521500349  0.6247363797347399
  0.7399821888120667  0.2576526132454151  0.1267373279409835
  0.2544877779960916  0.7457814189828746  0.3749170719996936
  0.2505891375824768  0.7518323349843660  0.8754610869998064
  0.7514367688963964  0.7524935639062024  0.3743312525564249
  0.7471351018679193  0.7533532399120608  0.8755831264278140
  0.1234782592395898  0.5025299489557933  0.9938033484093831
  0.6277941043857460  0.5071516897549327  0.9965304462516538
  0.1253689058604023  0.0049123256820564  0.2523084432396834
  0.6250031029032435  0.0026258032929196  0.2500028996414865
  0.6246423605746020  0.2560231820155961  0.4950272369299024
  0.6246261935106683  0.7406556634245557  0.0045015390141893
  0.6242891440622166  0.7621827173470227  0.4970688843369709
  0.1243376541517522  0.2495760835804127  0.7493315394145372
  0.1253232066222123  0.7504852758158689  0.2519828667758385
  0.6266385883881191  0.2441878625004616  0.2656023916045966
  0.6251583384132282  0.2516217745856286  0.7477436883896007
  0.6227437498405054  0.7535948510937641  0.2507201908298875
  0.3764097034148479  0.9970814302059273  0.9925930497265388
  0.3754333228567329  0.5046385678110422  0.5064231663962731
  0.8724198847403019  0.0021402773286280  0.0003886032505074
  0.8754584965119224  0.5005050826732509  0.5008480164457655
  0.3759825490328557  0.9955113285807055  0.7569713650644909
  0.3748131307845659  0.4936909086702952  0.2457556435181401
  0.8757281577250491  0.4968656125539663  0.2518436326860919
  0.8752429796754535  0.5074389031586254  0.7449125120318107
  0.3809659824041136  0.2534441056120941  0.0127226290105995
  0.8724801125517322  0.2457294102337549  0.0068470534494003
  0.8746944508228591  0.7439603519007019  0.7502570947072319
  0.5099128565084750  0.1223979022200744  0.4944279592815861
  0.9946181842689492  0.1259363165798404  0.7430952830917797
  0.4942503227481101  0.1254918150702246  0.2652771348265704
  0.5003652055909483  0.1234961843142319  0.7501612515943012
  0.5006842660077763  0.6248956726968525  0.7513325109567751
  0.9962261981796992  0.3755789114056570  0.0045219979241891
  0.0012057372786577  0.8746259187094316  0.0013275430157653
 -0.0021898776928358  0.8749375379079302  0.4980802740585969
  0.4986531626120667  0.3768657042057129  0.0152243744169556
  0.5057258014118696  0.8747318765405975  0.0058562079982998
  0.0082928132703808  0.3741562983578584  0.2470703890239730
  0.2561842761562981  0.6256888655793456  0.0039614651847825
  0.7432162867961393  0.1248782472437412  0.5035459461688764
  0.2485528397831982  0.6244086775311382  0.7495576920853779
  0.7517250082088507  0.1244600948313622  0.7448509543236352
  0.2513631532855617  0.3735404366442401  0.4930646979274426
  0.2513628906350276  0.8756260713451831  0.4995514590885329
  0.2415452723332841  0.3757689886031619  0.2614781835352146
 -0.0000513242913336  0.0020395759270201  0.1268376286356397
  0.0053896550276310  0.9970819411081573  0.6234954417993681
  1.0007839671326619  0.5091016393316372  0.1252224248250400
  0.4934842071211908  0.0102051878939795  0.1267250340640506
  0.4969740147744600  0.9956728022246998  0.6233998902919233
  0.5052620740983862  0.5120798277420022  0.1282756465761038
  0.5090837569881418  0.5014627396134866  0.6253257846286127
  0.0027363706435999  0.4952363204695847  0.3762015086699596
  0.9936427618318939  0.4971387128113872  0.8729721710840788
  0.5037333064087162  0.9882361402624552  0.3770582269009402
  0.5156425884405510 -0.0012392276352106  0.8756217456129205
  0.0073967827902056  0.2456566314814991  0.1271431996158195
  0.9989569334315200  0.2592462113896096  0.6213612050426289
  0.5165382364685266  0.2353435432198091  0.1279642116716176
  0.4953954794131945  0.2449289867861674  0.6232725271890261
  0.4953263810157254  0.7434393058321224  0.1275253220646062
  0.9920439516277916  0.2501815619568863  0.8737712421649321
  0.9936672648637941  0.7506777881536215  0.3751970840008922
  0.0021446710037718  0.7508808276174403  0.8740159040470857
  0.4920734448969209  0.2658870528161550  0.3763303593276340
  0.4987696460321627  0.2553836682428104  0.8753143448945941
  0.4931986075627696  0.7558275292540749  0.3762182539406749
  0.4999108548705881  0.7523354281403070  0.8747418966474745
  0.2434746200279393  0.4915227114395493  0.1252492324229030
  0.7493515251610847  0.0050722112003492  0.1267042288947948
  0.7454368173821508  0.9961534609352877  0.6229968072615355
  0.2529594073956807  0.0019232233759270  0.3756391158528210
  0.2433861228556995  0.9900741464601969  0.8740591520060792
  0.2508015726537018  0.5148565622403832  0.3760781049321441
  0.2614729861655035  0.4995565374487316  0.8745689859718071
  0.7476290575649365  0.5069888978178767  0.3750069939601418
  0.7545772843456841  0.5053178678978776  0.8742518046875656
  0.2525199450820017  0.7548734759665683  0.1254836881347636
  0.2490968460575697  0.7512652387506535  0.6252580178548255
  0.7508642142802667  0.2606193755330739  0.6230109663206270
  0.7529669889616251  0.7474139879212210  0.1260802175918423
  0.7477419391934366  0.7475834724347297  0.6245335165149208
  0.2524633763206132  0.2418803804862333  0.3758221103915104
  0.2537558357131244  0.2516378331563543  0.8734102361922043
  0.7641002011052316  0.2433678869877326  0.3745690756625944
  0.7532762963695088  0.2452544049934343  0.8758130930712363
  0.1253168107892806  1.0002483264982927  0.0019686027159377
  0.1248286930419537  0.0062509724012681  0.4970152438996803
  0.1237400891635584  0.5016211800246982  0.4910931702076328
  0.6250342560471223  0.0010644818153432  0.0089032786022125
  0.6238710084820360  0.9834725717719126  0.5020781850744019
  0.6252799601882472  0.4929657059005758  0.4968318249732840
  0.1267322363620436  0.0024650397540604  0.7481017841455802
  0.1242242230673413  0.5090329716154023  0.2502600154076076
  0.1233239195635450  0.4940677283086544  0.7645772055289590
  0.6234490034106157  0.9955568120518071  0.7410722304180795
  0.6255595634788348  0.4994156587711315  0.2518935410103357
  0.6263484343863144  0.4933465731797629  0.7575316112110996
  0.1187572805461079  0.2510483455277037  0.9919845915910240
  0.1235503769819775  0.2447804450592476  0.4995439375855956
  0.1249146517807911  0.7438133887085422  0.0016354302754293
  0.1239105441393418  0.7485899587979545  0.4956988298700460
  0.6272634559900752  0.2540714611658764  0.9911744745766486
  0.1241744466223854  0.2357385995902264  0.2578938248480649
  0.1232106579114101  0.7528199367564483  0.7506501597464391
  0.6261483746171491  0.7533647236534723  0.7495956767753907
  0.3774908537124449  0.0071462684208087  0.4959175020892973
  0.3742337293970683  0.4948249661221084  0.0150623409977638
  0.8746215271853203  0.0057309426676644  0.5098140979384748
  0.8747217225156957  0.5001489573291923  1.0003694484499297
  0.3774271206057578  0.9952521033134050  0.2564756571155213
  0.3746178965344612  0.4976663499882768  0.7397386942005887
  0.8737643831453262  0.9975872529876857  0.2467859840692779
  0.8739885662588476  0.9928094820874047  0.7416113725959399
  0.3791024216465635  0.2423482742571934  0.4969273097149703
  0.3765493219804146  0.7582349958706304  0.0010095713339845
  0.3769783513059866  0.7429925217162326  0.5026385310757719
  0.8743152174989350  0.2514049986716170  0.5057584026865803
  0.8720921918821827  0.7546297253727772  0.9981689560549014
  0.8721762145511950  0.7435906202448296  0.5031783447570596
  0.3797142971685790  0.2600195538477100  0.2446549231439947
  0.3761816163972078  0.2500623343067199  0.7518803209784705
  0.3771410475212237  0.7498361866773862  0.2481867425001879
  0.3750041731440969  0.7552818442330537  0.7502499178790397
  0.8743450193754804  0.2575047262316519  0.2432885101756466
  0.8736748959059165  0.2547233356680924  0.7456207259263410
  0.8734111930287253  0.7478721809251564  0.2494950447468299
  0.0025104417357607  0.1262748391362187  0.0014050914637717
  0.9964277603489990  0.1258586415690250  0.5096436975006895
  0.9935859318568043  0.6251060882169696  0.9939958465384809
  1.0007720483900693  0.6263721402087105  0.4923485449901022
  0.5056023781849309  0.1243372159848653  0.9947915142466696
  0.4889538459022869  0.6271357997702732  0.9979870574853021
  0.5085810879971838  0.6263978982173420  0.4962420880942423
  0.9898628761802053  0.1277794360342980  0.2463511910578709
  0.9978184512054505  0.6234112378431281  0.2581936764229236
  0.0101945560113953  0.6243895528799566  0.7555965061352502
  0.5005416833517882  0.6261217670606465  0.2595115428555224
  0.0039522515160228  0.3739675538111827  0.4980142083846004
  0.4933939197096797  0.3716671960360881  0.5105475028899523
  0.4871415230421732  0.8778839779402506  0.4996278521067801
  0.9963644069815861  0.3744629732336860  0.7510670952502164
  0.9967928745438990  0.8760200030396290  0.2513664500380777
  0.0004558508263093  0.8756113715014723  0.7477153684460595
  0.5064518929144064  0.3719234224481051  0.2363221797249064
  0.4968574348109294  0.3731903552844804  0.7434657114895568
  0.4974425236297721  0.8764772159214215  0.2443790864280604
  0.5031146129280049  0.8748730951365751  0.7539513416236279
  0.2465635242349301  0.1192037164876931  0.9895137472109415
  0.2503972486472076  0.1242916792237723  0.4984569316497315
  0.2460861899634267  0.6266124633203519  0.5069651876353185
  0.7405408044889233  0.1260605974722457  0.0015993102793718
  0.7614720745839124  0.6257272833814717  0.0026106912981224
  0.7429554563789595  0.6253626427062955  0.5014990763852348
  0.2620826256474587  0.1267377110729997  0.2524824165844850
  0.2527484226505123  0.1240360840884487  0.7579275459929827
  0.2531085997029213  0.6238683797661309  0.2399707705036908
  0.7604622303441317  0.1261286465954061  0.2490087087581427
  0.7468233653586130  0.6250791326246775  0.2475496267102650
  0.7392861506811770  0.6246459372207441  0.7481091030204124
  0.2593336705738538  0.3803513644208841  0.9998954911873066
  0.2433605910767780  0.8725059966726861  0.0044210833765924
  0.7517790392713278  0.3754500355258477  0.9889383837313301
  0.7540796851318592  0.3724092792160240  0.4887480278153579
  0.7447303993150185  0.8749889284293952  0.0093724472887760
  0.7616803130027689  0.8761669671398651  0.5040615899889863
  0.2526822246212860  0.3758444080051494  0.7565118031032253
  0.2528507864681652  0.8757732404760331  0.2519637373234351
  0.2453673805478865  0.8729095509135298  0.7449820822480997
  0.7470934178844838  0.3743462100403885  0.2646708928774743
  0.7538653205959672  0.3737986623930762  0.7579740198681572
  0.7529525119371833  0.8754006366420096  0.2424496883188783
  0.7504241658543099  0.8748758798359794  0.7432963094142371
 
  0.00000000E+00  0.00000000E+00  0.00000000E+00
  0.00000000E+00  0.00000000E+00  0.00000000E+00
  0.00000000E+00  0.00000000E+00  0.00000000E+00
  0.00000000E+00  0.00000000E+00  0.00000000E+00
  0.00000000E+00  0.00000000E+00  0.00000000E+00
  0.00000000E+00  0.00000000E+00  0.00000000E+00
  0.00000000E+00  0.00000000E+00  0.00000000E+00
  0.00000000E+00  0.00000000E+00  0.00000000E+00
  0.00000000E+00  0.00000000E+00  0.00000000E+00
  0.00000000E+00  0.00000000E+00  0.00000000E+00
  0.00000000E+00  0.00000000E+00  0.00000000E+00
  0.00000000E+00  0.00000000E+00  0.00000000E+00
  0.00000000E+00  0.00000000E+00  0.00000000E+00
  0.00000000E+00  0.00000000E+00  0.00000000E+00
  0.00000000E+00  0.00000000E+00  0.00000000E+00
  0.00000000E+00  0.00000000E+00  0.00000000E+00
  0.00000000E+00  0.00000000E+00  0.00000000E+00
  0.00000000E+00  0.00000000E+00  0.00000000E+00
  0.00000000E+00  0.00000000E+00  0.00000000E+00
  0.00000000E+00  0.00000000E+00  0.00000000E+00
  0.00000000E+00  0.00000000E+00  0.00000000E+00
  0.00000000E+00  0.00000000E+00  0.00000000E+00
  0.00000000E+00  0.00000000E+00  0.00000000E+00
  0.00000000E+00  0.00000000E+00  0.00000000E+00
  0.00000000E+00  0.00000000E+00  0.00000000E+00
  0.00000000E+00  0.00000000E+00  0.00000000E+00
  0.00000000E+00  0.00000000E+00  0.00000000E+00
  0.00000000E+00  0.00000000E+00  0.00000000E+00
  0.00000000E+00  0.00000000E+00  0.00000000E+00
  0.00000000E+00  0.00000000E+00  0.00000000E+00
  0.00000000E+00  0.00000000E+00  0.00000000E+00
  0.00000000E+00  0.00000000E+00  0.00000000E+00
  0.00000000E+00  0.00000000E+00  0.00000000E+00
  0.00000000E+00  0.00000000E+00  0.00000000E+00
  0.00000000E+00  0.00000000E+00  0.00000000E+00
  0.00000000E+00  0.00000000E+00  0.00000000E+00
  0.00000000E+00  0.00000000E+00  0.00000000E+00
  0.00000000E+00  0.00000000E+00  0.00000000E+00
  0.00000000E+00  0.00000000E+00  0.00000000E+00
  0.00000000E+00  0.00000000E+00  0.00000000E+00
  0.00000000E+00  0.00000000E+00  0.00000000E+00
  0.00000000E+00  0.00000000E+00  0.00000000E+00
  0.00000000E+00  0.00000000E+00  0.00000000E+00
  0.00000000E+00  0.00000000E+00  0.00000000E+00
  0.00000000E+00  0.00000000E+00  0.00000000E+00
  0.00000000E+00  0.00000000E+00  0.00000000E+00
  0.00000000E+00  0.00000000E+00  0.00000000E+00
  0.00000000E+00  0.00000000E+00  0.00000000E+00
  0.00000000E+00  0.00000000E+00  0.00000000E+00
  0.00000000E+00  0.00000000E+00  0.00000000E+00
  0.00000000E+00  0.00000000E+00  0.00000000E+00
  0.00000000E+00  0.00000000E+00  0.00000000E+00
  0.00000000E+00  0.00000000E+00  0.00000000E+00
  0.00000000E+00  0.00000000E+00  0.00000000E+00
  0.00000000E+00  0.00000000E+00  0.00000000E+00
  0.00000000E+00  0.00000000E+00  0.00000000E+00
  0.00000000E+00  0.00000000E+00  0.00000000E+00
  0.00000000E+00  0.00000000E+00  0.00000000E+00
  0.00000000E+00  0.00000000E+00  0.00000000E+00
  0.00000000E+00  0.00000000E+00  0.00000000E+00
  0.00000000E+00  0.00000000E+00  0.00000000E+00
  0.00000000E+00  0.00000000E+00  0.00000000E+00
  0.00000000E+00  0.00000000E+00  0.00000000E+00
  0.00000000E+00  0.00000000E+00  0.00000000E+00
  0.00000000E+00  0.00000000E+00  0.00000000E+00
  0.00000000E+00  0.00000000E+00  0.00000000E+00
  0.00000000E+00  0.00000000E+00  0.00000000E+00
  0.00000000E+00  0.00000000E+00  0.00000000E+00
  0.00000000E+00  0.00000000E+00  0.00000000E+00
  0.00000000E+00  0.00000000E+00  0.00000000E+00
  0.00000000E+00  0.00000000E+00  0.00000000E+00
  0.00000000E+00  0.00000000E+00  0.00000000E+00
  0.00000000E+00  0.00000000E+00  0.00000000E+00
  0.00000000E+00  0.00000000E+00  0.00000000E+00
  0.00000000E+00  0.00000000E+00  0.00000000E+00
  0.00000000E+00  0.00000000E+00  0.00000000E+00
  0.00000000E+00  0.00000000E+00  0.00000000E+00
  0.00000000E+00  0.00000000E+00  0.00000000E+00
  0.00000000E+00  0.00000000E+00  0.00000000E+00
  0.00000000E+00  0.00000000E+00  0.00000000E+00
  0.00000000E+00  0.00000000E+00  0.00000000E+00
  0.00000000E+00  0.00000000E+00  0.00000000E+00
  0.00000000E+00  0.00000000E+00  0.00000000E+00
  0.00000000E+00  0.00000000E+00  0.00000000E+00
  0.00000000E+00  0.00000000E+00  0.00000000E+00
  0.00000000E+00  0.00000000E+00  0.00000000E+00
  0.00000000E+00  0.00000000E+00  0.00000000E+00
  0.00000000E+00  0.00000000E+00  0.00000000E+00
  0.00000000E+00  0.00000000E+00  0.00000000E+00
  0.00000000E+00  0.00000000E+00  0.00000000E+00
  0.00000000E+00  0.00000000E+00  0.00000000E+00
  0.00000000E+00  0.00000000E+00  0.00000000E+00
  0.00000000E+00  0.00000000E+00  0.00000000E+00
  0.00000000E+00  0.00000000E+00  0.00000000E+00
  0.00000000E+00  0.00000000E+00  0.00000000E+00
  0.00000000E+00  0.00000000E+00  0.00000000E+00
  0.00000000E+00  0.00000000E+00  0.00000000E+00
  0.00000000E+00  0.00000000E+00  0.00000000E+00
  0.00000000E+00  0.00000000E+00  0.00000000E+00
  0.00000000E+00  0.00000000E+00  0.00000000E+00
  0.00000000E+00  0.00000000E+00  0.00000000E+00
  0.00000000E+00  0.00000000E+00  0.00000000E+00
  0.00000000E+00  0.00000000E+00  0.00000000E+00
  0.00000000E+00  0.00000000E+00  0.00000000E+00
  0.00000000E+00  0.00000000E+00  0.00000000E+00
  0.00000000E+00  0.00000000E+00  0.00000000E+00
  0.00000000E+00  0.00000000E+00  0.00000000E+00
  0.00000000E+00  0.00000000E+00  0.00000000E+00
  0.00000000E+00  0.00000000E+00  0.00000000E+00
  0.00000000E+00  0.00000000E+00  0.00000000E+00
  0.00000000E+00  0.00000000E+00  0.00000000E+00
  0.00000000E+00  0.00000000E+00  0.00000000E+00
  0.00000000E+00  0.00000000E+00  0.00000000E+00
  0.00000000E+00  0.00000000E+00  0.00000000E+00
  0.00000000E+00  0.00000000E+00  0.00000000E+00
  0.00000000E+00  0.00000000E+00  0.00000000E+00
  0.00000000E+00  0.00000000E+00  0.00000000E+00
  0.00000000E+00  0.00000000E+00  0.00000000E+00
  0.00000000E+00  0.00000000E+00  0.00000000E+00
  0.00000000E+00  0.00000000E+00  0.00000000E+00
  0.00000000E+00  0.00000000E+00  0.00000000E+00
  0.00000000E+00  0.00000000E+00  0.00000000E+00
  0.00000000E+00  0.00000000E+00  0.00000000E+00
  0.00000000E+00  0.00000000E+00  0.00000000E+00
  0.00000000E+00  0.00000000E+00  0.00000000E+00
  0.00000000E+00  0.00000000E+00  0.00000000E+00
  0.00000000E+00  0.00000000E+00  0.00000000E+00
  0.00000000E+00  0.00000000E+00  0.00000000E+00
  0.00000000E+00  0.00000000E+00  0.00000000E+00
  0.00000000E+00  0.00000000E+00  0.00000000E+00
  0.00000000E+00  0.00000000E+00  0.00000000E+00
  0.00000000E+00  0.00000000E+00  0.00000000E+00
  0.00000000E+00  0.00000000E+00  0.00000000E+00
  0.00000000E+00  0.00000000E+00  0.00000000E+00
  0.00000000E+00  0.00000000E+00  0.00000000E+00
  0.00000000E+00  0.00000000E+00  0.00000000E+00
  0.00000000E+00  0.00000000E+00  0.00000000E+00
  0.00000000E+00  0.00000000E+00  0.00000000E+00
  0.00000000E+00  0.00000000E+00  0.00000000E+00
  0.00000000E+00  0.00000000E+00  0.00000000E+00
  0.00000000E+00  0.00000000E+00  0.00000000E+00
  0.00000000E+00  0.00000000E+00  0.00000000E+00
  0.00000000E+00  0.00000000E+00  0.00000000E+00
  0.00000000E+00  0.00000000E+00  0.00000000E+00
  0.00000000E+00  0.00000000E+00  0.00000000E+00
  0.00000000E+00  0.00000000E+00  0.00000000E+00
  0.00000000E+00  0.00000000E+00  0.00000000E+00
  0.00000000E+00  0.00000000E+00  0.00000000E+00
  0.00000000E+00  0.00000000E+00  0.00000000E+00
  0.00000000E+00  0.00000000E+00  0.00000000E+00
  0.00000000E+00  0.00000000E+00  0.00000000E+00
  0.00000000E+00  0.00000000E+00  0.00000000E+00
  0.00000000E+00  0.00000000E+00  0.00000000E+00
  0.00000000E+00  0.00000000E+00  0.00000000E+00
  0.00000000E+00  0.00000000E+00  0.00000000E+00
  0.00000000E+00  0.00000000E+00  0.00000000E+00
  0.00000000E+00  0.00000000E+00  0.00000000E+00
  0.00000000E+00  0.00000000E+00  0.00000000E+00
  0.00000000E+00  0.00000000E+00  0.00000000E+00
  0.00000000E+00  0.00000000E+00  0.00000000E+00
  0.00000000E+00  0.00000000E+00  0.00000000E+00
  0.00000000E+00  0.00000000E+00  0.00000000E+00
  0.00000000E+00  0.00000000E+00  0.00000000E+00
  0.00000000E+00  0.00000000E+00  0.00000000E+00
  0.00000000E+00  0.00000000E+00  0.00000000E+00
  0.00000000E+00  0.00000000E+00  0.00000000E+00
  0.00000000E+00  0.00000000E+00  0.00000000E+00
  0.00000000E+00  0.00000000E+00  0.00000000E+00
  0.00000000E+00  0.00000000E+00  0.00000000E+00
  0.00000000E+00  0.00000000E+00  0.00000000E+00
  0.00000000E+00  0.00000000E+00  0.00000000E+00
  0.00000000E+00  0.00000000E+00  0.00000000E+00
  0.00000000E+00  0.00000000E+00  0.00000000E+00
  0.00000000E+00  0.00000000E+00  0.00000000E+00
  0.00000000E+00  0.00000000E+00  0.00000000E+00
  0.00000000E+00  0.00000000E+00  0.00000000E+00
  0.00000000E+00  0.00000000E+00  0.00000000E+00
  0.00000000E+00  0.00000000E+00  0.00000000E+00
  0.00000000E+00  0.00000000E+00  0.00000000E+00
  0.00000000E+00  0.00000000E+00  0.00000000E+00
  0.00000000E+00  0.00000000E+00  0.00000000E+00
  0.00000000E+00  0.00000000E+00  0.00000000E+00
  0.00000000E+00  0.00000000E+00  0.00000000E+00
  0.00000000E+00  0.00000000E+00  0.00000000E+00
  0.00000000E+00  0.00000000E+00  0.00000000E+00
  0.00000000E+00  0.00000000E+00  0.00000000E+00
  0.00000000E+00  0.00000000E+00  0.00000000E+00
  0.00000000E+00  0.00000000E+00  0.00000000E+00
  0.00000000E+00  0.00000000E+00  0.00000000E+00
  0.00000000E+00  0.00000000E+00  0.00000000E+00
  0.00000000E+00  0.00000000E+00  0.00000000E+00
  0.00000000E+00  0.00000000E+00  0.00000000E+00
  0.00000000E+00  0.00000000E+00  0.00000000E+00
  0.00000000E+00  0.00000000E+00  0.00000000E+00
  0.00000000E+00  0.00000000E+00  0.00000000E+00
  0.00000000E+00  0.00000000E+00  0.00000000E+00
  0.00000000E+00  0.00000000E+00  0.00000000E+00
  0.00000000E+00  0.00000000E+00  0.00000000E+00
  0.00000000E+00  0.00000000E+00  0.00000000E+00
  0.00000000E+00  0.00000000E+00  0.00000000E+00
  0.00000000E+00  0.00000000E+00  0.00000000E+00
  0.00000000E+00  0.00000000E+00  0.00000000E+00
  0.00000000E+00  0.00000000E+00  0.00000000E+00
  0.00000000E+00  0.00000000E+00  0.00000000E+00
  0.00000000E+00  0.00000000E+00  0.00000000E+00
  0.00000000E+00  0.00000000E+00  0.00000000E+00
  0.00000000E+00  0.00000000E+00  0.00000000E+00
  0.00000000E+00  0.00000000E+00  0.00000000E+00
  0.00000000E+00  0.00000000E+00  0.00000000E+00
  0.00000000E+00  0.00000000E+00  0.00000000E+00
  0.00000000E+00  0.00000000E+00  0.00000000E+00
  0.00000000E+00  0.00000000E+00  0.00000000E+00
  0.00000000E+00  0.00000000E+00  0.00000000E+00
  0.00000000E+00  0.00000000E+00  0.00000000E+00
  0.00000000E+00  0.00000000E+00  0.00000000E+00
  0.00000000E+00  0.00000000E+00  0.00000000E+00
  0.00000000E+00  0.00000000E+00  0.00000000E+00
  0.00000000E+00  0.00000000E+00  0.00000000E+00
  0.00000000E+00  0.00000000E+00  0.00000000E+00
  0.00000000E+00  0.00000000E+00  0.00000000E+00
  0.00000000E+00  0.00000000E+00  0.00000000E+00
  0.00000000E+00  0.00000000E+00  0.00000000E+00
  0.00000000E+00  0.00000000E+00  0.00000000E+00
  0.00000000E+00  0.00000000E+00  0.00000000E+00
  0.00000000E+00  0.00000000E+00  0.00000000E+00
  0.00000000E+00  0.00000000E+00  0.00000000E+00
  0.00000000E+00  0.00000000E+00  0.00000000E+00
  0.00000000E+00  0.00000000E+00  0.00000000E+00
  0.00000000E+00  0.00000000E+00  0.00000000E+00
  0.00000000E+00  0.00000000E+00  0.00000000E+00
  0.00000000E+00  0.00000000E+00  0.00000000E+00
  0.00000000E+00  0.00000000E+00  0.00000000E+00
  0.00000000E+00  0.00000000E+00  0.00000000E+00
  0.00000000E+00  0.00000000E+00  0.00000000E+00
  0.00000000E+00  0.00000000E+00  0.00000000E+00
  0.00000000E+00  0.00000000E+00  0.00000000E+00
  0.00000000E+00  0.00000000E+00  0.00000000E+00
  0.00000000E+00  0.00000000E+00  0.00000000E+00
  0.00000000E+00  0.00000000E+00  0.00000000E+00
  0.00000000E+00  0.00000000E+00  0.00000000E+00
  0.00000000E+00  0.00000000E+00  0.00000000E+00
  0.00000000E+00  0.00000000E+00  0.00000000E+00
  0.00000000E+00  0.00000000E+00  0.00000000E+00
  0.00000000E+00  0.00000000E+00  0.00000000E+00
  0.00000000E+00  0.00000000E+00  0.00000000E+00
  0.00000000E+00  0.00000000E+00  0.00000000E+00
  0.00000000E+00  0.00000000E+00  0.00000000E+00
  0.00000000E+00  0.00000000E+00  0.00000000E+00
  0.00000000E+00  0.00000000E+00  0.00000000E+00
  0.00000000E+00  0.00000000E+00  0.00000000E+00
  0.00000000E+00  0.00000000E+00  0.00000000E+00
  0.00000000E+00  0.00000000E+00  0.00000000E+00
  0.00000000E+00  0.00000000E+00  0.00000000E+00
  0.00000000E+00  0.00000000E+00  0.00000000E+00
  0.00000000E+00  0.00000000E+00  0.00000000E+00
  0.00000000E+00  0.00000000E+00  0.00000000E+00
  0.00000000E+00  0.00000000E+00  0.00000000E+00
