TiOF2 2x2x2 config 2152                 
   1.00000000000000     
     7.8471829901835459   -0.0014042270360872   -0.0306975507555974
    -0.0014449335178239    7.7671738264862196   -0.0093666287228916
    -0.0302197040457526   -0.0093061646614111    7.7590089577601224
   Ti   O    F 
     8     8    16
Direct
  0.0000684467456693  0.0011436059925164  0.0008541107533096
  0.9976424731578394  0.9793709891679053  0.5001074540003400
  0.0006833320918129  0.5004658018944199  0.9777200756813578
  0.0160475681471477  0.5002164420279633  0.4985989243751161
  0.4999889002656885  0.0015977887486789  0.0024273621543134
  0.4976190100505884  0.9950545886790779  0.5025255663944165
  0.5021771589061671  0.5016223325717603  0.9946041333023988
  0.4997629335697357  0.4881820338314979  0.4923295466441072
  0.2426255968651071  0.4978739303545178  0.4967736984012321
  0.7496836751580918  0.4971641899530701  0.4926745411314706
  0.9995284723368091  0.7572993981206849  0.4970217650077919
  0.4970037066531859  0.2402240458774799  0.5038589290269219
  0.4956572636634231  0.7658509750300125  0.5024661566450846
  0.9968781176775973  0.4977255619174150  0.7540377287683635
  0.5087936952250940  0.5015093926793642  0.2430053134636770
  0.5035390409562692  0.5004910705977385  0.7653992485691075
  0.2578388666455702  0.0007346007234307  0.0007572336854763
  0.2424624151467595  0.0074196216290112  0.5020475663912395
  0.2482481505165317  0.5015582058903328  0.0069271319006545
  0.7419971842235028  0.0007253143117251  0.0013450713317667
  0.7527930968987341  0.0052536790546953  0.5019986511321177
  0.7550839779648244  0.5020258100428376  0.0050508055641939
  0.0018105985810286  0.2533717758638666  0.0046443147954831
  0.9975387898754963  0.2402366054358395  0.4976397428703894
  0.0019998083819900  0.7485007819879573  0.0037521951650335
  0.4994258726895855  0.2421227478833934  0.0028307922610501
  0.4994427959449342  0.7608921541962339  0.0024108274169418
  0.9981317844243949  0.0046736586864406  0.2480435320745438
  0.9986124121173608  0.0039072020133315  0.7532325416295625
  0.9972233308069440  0.4989997709478283  0.2400761190924226
  0.5003147656061055  0.0021760288046974  0.2422006976225116
  0.4993767587060180  0.0016098950842738  0.7626382227476117
 
  0.00000000E+00  0.00000000E+00  0.00000000E+00
  0.00000000E+00  0.00000000E+00  0.00000000E+00
  0.00000000E+00  0.00000000E+00  0.00000000E+00
  0.00000000E+00  0.00000000E+00  0.00000000E+00
  0.00000000E+00  0.00000000E+00  0.00000000E+00
  0.00000000E+00  0.00000000E+00  0.00000000E+00
  0.00000000E+00  0.00000000E+00  0.00000000E+00
  0.00000000E+00  0.00000000E+00  0.00000000E+00
  0.00000000E+00  0.00000000E+00  0.00000000E+00
  0.00000000E+00  0.00000000E+00  0.00000000E+00
  0.00000000E+00  0.00000000E+00  0.00000000E+00
  0.00000000E+00  0.00000000E+00  0.00000000E+00
  0.00000000E+00  0.00000000E+00  0.00000000E+00
  0.00000000E+00  0.00000000E+00  0.00000000E+00
  0.00000000E+00  0.00000000E+00  0.00000000E+00
  0.00000000E+00  0.00000000E+00  0.00000000E+00
  0.00000000E+00  0.00000000E+00  0.00000000E+00
  0.00000000E+00  0.00000000E+00  0.00000000E+00
  0.00000000E+00  0.00000000E+00  0.00000000E+00
  0.00000000E+00  0.00000000E+00  0.00000000E+00
  0.00000000E+00  0.00000000E+00  0.00000000E+00
  0.00000000E+00  0.00000000E+00  0.00000000E+00
  0.00000000E+00  0.00000000E+00  0.00000000E+00
  0.00000000E+00  0.00000000E+00  0.00000000E+00
  0.00000000E+00  0.00000000E+00  0.00000000E+00
  0.00000000E+00  0.00000000E+00  0.00000000E+00
  0.00000000E+00  0.00000000E+00  0.00000000E+00
  0.00000000E+00  0.00000000E+00  0.00000000E+00
  0.00000000E+00  0.00000000E+00  0.00000000E+00
  0.00000000E+00  0.00000000E+00  0.00000000E+00
  0.00000000E+00  0.00000000E+00  0.00000000E+00
  0.00000000E+00  0.00000000E+00  0.00000000E+00
