config 12                               
   1.00000000000000     
    15.4263309999999993    0.0000000000000000    0.0000000000000000
     0.0000000000000000   15.4263309999999993    0.0000000000000000
     0.0000000000000000    0.0000000000000000   15.4263309999999993
   Li   Ti   O    F 
     1    64    64   128
Direct
  0.1072345562593769  0.6300730130215013  0.9198300458565765
  0.9954619772511211  0.9950607053286935  0.9941377046804026
  0.9981449730646418  0.9911250519921129  0.4936497884652009
  0.0049064541092617  0.4905097443689145  0.9980442446776173
  0.9946228542846886  0.5036955492484428  0.5071986872597274
  0.4945652425181991  0.9934844265224262  1.0001111770547084
  0.5015488250703133  0.0085732174637774  0.4985578731720960
  0.5039647275874254  0.4954496873178664  0.9958505841075787
  0.4917548209137379  0.4992468485951746  0.4952726013102096
  0.0057852193991042  0.0030229255687892  0.2555653963569101
  0.0023420161958513  0.0070028708567866  0.7565097425452096
  0.9937870957191257  0.4924983226721062  0.2505771109228541
  0.9923460368176323  0.4995782598224341  0.7404580231040129
  0.5038173106805188  0.0104724811759268  0.2507746744350942
  0.4935438304571904  0.0061830125782238  0.7524756153179928
  0.4920696346157333  0.4964035687286726  0.2566074606266744
  0.5013451050774477  0.5041342311701451  0.7585429536126317
  0.9943474328139504  0.2546872348198450  0.0022083757513746
  0.9980504112690459  0.2484802776389526  0.4906078801771542
  0.9960581467790840  0.7596909814713331  0.0081505396003144
  0.9961507435499359  0.7560157706292225  0.5060906162147027
  0.4948078792929426  0.2583552002310934  0.0028806148978008
  0.5090821266366531  0.2459961255761613  0.4971723223519833
  0.5088081897003818  0.7558407465528946  0.0001935307845547
  0.5064834976941499  0.7533013001495714  0.5092247424351519
  0.0020080038419206  0.2589677532530697  0.2541739227917081
  0.0077319309886577  0.2429663917046080  0.7478193256075120
  0.0061755349842448  0.7471739752748141  0.2438313433140071
  0.9921304296650859  0.7491166271795501  0.7428461365204093
  0.5110839949011616  0.2422945634325288  0.2532362518196161
  0.5079007786808142  0.2440211922483788  0.7513233507173287
  0.5063588088580332  0.7514464108623411  0.2511713627988515
  0.5029682580830898  0.7417022833154993  0.7438867901600201
  0.2566390617929926  0.9987525692686471  0.0058599751534167
  0.2509060176811199  0.9939541331379623  0.5070810870470582
  0.2444103123766711  0.5076317458479265  0.9954464556026954
  0.2548348189624169  0.4948812983117031  0.5069697824888468
  0.7567174814380491  0.0007612589781347  0.9936736432562573
  0.7492240440476959  0.0075653899585920  0.4941463192012348
  0.7407730005246135  0.5007382243827830  0.0043538213757886
  0.7554853096771625  0.4983419799232415  0.5053779931843462
  0.2443728397493439  0.0030980488642419  0.2434691847900617
  0.2584326171752505  0.9983925447257335  0.7446029450003896
  0.2544954200506053  0.4914122358640415  0.2500925997925809
  0.2461923306502590  0.5063246359407774  0.7412459820241247
  0.7428314090865820  0.0019921473791812  0.2547850862196486
  0.7472349214722332  0.0073774314009498  0.7551516916642769
  0.7546923593661408  0.4975810858852227  0.2419933745783936
  0.7573415807974461  0.4987055637816311  0.7419031385444813
  0.2561974816072498  0.2512295916587221  0.0065718820221625
  0.2535042186019877  0.2559877729051973  0.5061639726814198
  0.2542266441352086  0.7449096834383544  0.9927349096469209
  0.2521050411512759  0.7557363680808893  0.4932961513023370
  0.7551237809473560  0.2533250668070501  0.0100592418860415
  0.7420897638415950  0.2428053518800846  0.4979649104633050
  0.7408049523814179  0.7482886353221795  0.9947143289545388
  0.7410778683594460  0.7527110612426902  0.4946397243040205
  0.2521095229599218  0.2571298369460905  0.2428008555109062
  0.2440563133167371  0.2513459984375858  0.7440377874950597
  0.2435368023964134  0.7479783091932466  0.2558585136777441
  0.2473220515860038  0.7418840773490268  0.7566008748349755
  0.7457326485140539  0.2519223389085593  0.2453598794596725
  0.7443541155535245  0.2428214554812514  0.7516539189528963
  0.7449875567145278  0.7493381432080194  0.2566836849047520
  0.7574773841877985  0.7495513549247833  0.7575525118125260
  0.0140011711406637  0.5072380838631965  0.6245886469717684
  0.9964921532741897  0.0014803884968657  0.3762244522088791
  0.0018523409689776  0.9984540135934483  0.8727732275062898
  0.4936869379958641  0.4902069868223007  0.3752891267999662
  0.4893460868921887  0.4939907913552533  0.8744592894810550
  0.9947963016943635  0.7411098652054491  0.1253734860578754
  0.9969498790766871  0.7398296294820580  0.6245564840973379
  0.4962386132316092  0.7481428744888299  0.6249136424458447
  0.9886178773367931  0.2511921658459422  0.3760719977090757
  0.2565817264376734  0.0081996073182199  0.1247042015251878
  0.2567336363473894  0.0085792541265834  0.6254026369771690
  0.2343397324642543  0.5037148167704919  0.6262908124559619
  0.7450505290127919  0.4878712537516128  0.1244216865222346
  0.7424135114161946  0.4900850286549513  0.6243169819467060
  0.7489533059037758  0.0032270682678513  0.3766405011435592
  0.7443191825304775  0.0035891510183990  0.8732326491934431
  0.2397910473927463  0.2438742123065386  0.1251606685768968
  0.2456118628489352  0.2438402380112613  0.6252165666585909
  0.7372157818404469  0.2664417493956856  0.1224994542322928
  0.2504641379668955  0.7519425078128593  0.3745729925353267
  0.2438345142247836  0.7600475632053840  0.8753241099528634
  0.7471873747731766  0.7471642315276480  0.3745569835442569
  0.7425151759343654  0.7465343844569036  0.8755321449334499
  0.1245164072201911  0.5156476100471538  0.9802723960363877
  0.6252802553106407  0.5120295768017502  0.9933706298634234
  0.1248847650922056  0.0076602851116023  0.2503771993279310
  0.6241382351943859  0.0071079225612104  0.2484935198193302
  0.6243917532004285  0.2623186666978913  0.4861665406423507
  0.6248185763765198  0.7346551117781170  0.0090853372992488
  0.6242759701695162  0.7681191604252903  0.5015608472246481
  0.1251131539440193  0.2583148389206738  0.7554572859121709
  0.1245871691420035  0.7450352644224384  0.2483945648071085
  0.6219811752924391  0.2378131291859218  0.2722588795774942
  0.6258872789520555  0.2592633890178865  0.7555822611987759
  0.6224348193167150  0.7470148910031031  0.2465593643091071
  0.3760086220184257  0.9923932095733859  0.9903311566978253
  0.3753939943975908  0.5099442911130760  0.5091965904343285
  0.8734341446279371  0.9953975400792668  0.9976634036743799
  0.8756868354446879  0.5082308177798184  0.5058560972180106
  0.3762520765454454  0.0043930535491977  0.7599433783851395
  0.3731799730418779  0.4906649254791816  0.2421973118017603
  0.8759334655507987  0.4899706585410159  0.2452568689629764
  0.8756610572935514  0.5154421619250367  0.7397114640140764
  0.3753607587449784  0.2540284368167464  0.0104641119387317
  0.8769611384423637  0.2549089667164913  0.0109265370573580
  0.8754791331709394  0.7357697098924515  0.7561830063007582
  0.5154778410132008  0.1224448921819153  0.4904022167365110
  0.0050467066951658  0.1256959994584796  0.7475216498605434
  0.4866106609567681  0.1235723288383259  0.2660492701987354
  0.5083462489091025  0.1240804804981798  0.7525704217360575
  0.5101159849841505  0.6252294127247253  0.7538032269507898
  0.0102188903681230  0.3749344792439978  0.0081206733835237
  0.0091285899321127  0.8746825357313833  0.0050147394644158
  0.9874697173262673  0.8738875085120109  0.5026920751193209
  0.5069120768335822  0.3748593804116742  0.0104032741727480
  0.5104174343378612  0.8745104614612793  0.0082596542757012
  0.0160009994625305  0.3744523617439883  0.2436827692315856
  0.2583793814373984  0.6260043897986609  0.9885897846365940
  0.7349657770669638  0.1255235511716585  0.5081068902411139
  0.2361902723017548  0.6245675322187793  0.7620991606088744
  0.7435138068070527  0.1251237461659156  0.7395905348773919
  0.2575943611454597  0.3733456566419627  0.5010698106809011
  0.2592779755592462  0.8752304980799914  0.5057514555827402
  0.2363129460793865  0.3744954778698655  0.2496705317693213
  0.9988877317529111  0.0050366784466309  0.1260049878487645
  0.0027649625010423  0.9991173328169201  0.6239277043577047
  0.0085140696425638  0.5134661365384963  0.1237798952581954
  0.4902374562720119  0.0112265088784471  0.1257386726143540
  0.4939812613592728  1.0011049069529763  0.6228503350814090
  0.5052210582232016  0.5123207891209912  0.1266861390675354
  0.5121457745364283  0.5033505301699860  0.6244950887847177
  0.9965331762747742  0.4913988374524504  0.3760687552028309
  0.9886495403701810  0.4926670774692948  0.8726774359673142
  0.5052172128539625  0.9833424656513616  0.3768266115726331
  0.5176291271622011  0.9944449923958907  0.8751798627066516
  0.0175956882042408  0.2414181541556511  0.1268061773862024
  0.0079117134317014  0.2543058411219282  0.6211940851190786
  0.5164730629726902  0.2348865416266572  0.1263450102375945
  0.5071546709819845  0.2431488944414733  0.6226530604004363
  0.4903635549893104  0.7404556067567744  0.1264462605735890
  0.9901276389935730  0.2544164098135991  0.8740534225653406
  0.9975611635763874  0.7540323150893792  0.3751996358298720
  0.0124800459707344  0.7502921082403403  0.8743474381391609
  0.4810533185038027  0.2657676399385088  0.3767338871213807
  0.4916796048813537  0.2572561477996853  0.8749830630706636
  0.4967932825072081  0.7596715379227998  0.3754123929371653
  0.5057289441500825  0.7559577897718189  0.8744967958641569
  0.2358728539289675  0.5034642088089837  0.1226073951001292
  0.7507453050682010  0.9959355334655569  0.1252989927761473
  0.7482219378297178  0.9910439526866737  0.6232392011737365
  0.2499428218092080  0.9952521716016837  0.3756037961413668
  0.2414092461050873  0.9876129392290979  0.8741909459695342
  0.2542656311545405  0.5051411350503363  0.3749450304061350
  0.2659576802363050  0.4890054398059896  0.8731088290179312
  0.7526456015245145  0.5137607465436782  0.3753697534426875
  0.7586344613961934  0.5116056260600950  0.8737546239785460
  0.2533293283840068  0.7468631974337914  0.1230206845745372
  0.2534508304866103  0.7425074779898237  0.6259338867775873
  0.7438715576907087  0.2654503431762084  0.6231025153776492
  0.7571361503236803  0.7534474316229037  0.1251191529151901
  0.7536049203053314  0.7523494165418818  0.6248908762992066
  0.2610574008781680  0.2493981528382127  0.3746521373375140
  0.2587922180504072  0.2579951548753510  0.8748669597569164
  0.7704676134488235  0.2390552940297304  0.3763679447537721
  0.7609033025291784  0.2398451225407379  0.8748798406042039
  0.1263908098491394  0.0074943425384823  0.0029281692043052
  0.1245619414547233  0.9944141170666518  0.5004290895897844
  0.1237216132993865  0.4936182012214762  0.4876991297680778
  0.6249184792628020  0.0075721348055201  0.0092690464723014
  0.6234191640828812  0.9784117385790934  0.5045441463088876
  0.6255519209991541  0.4879437292397812  0.4931947364959912
  0.1271916829745330  0.9908937640741863  0.7449999218964770
  0.1241258863835063  0.5136079795574734  0.2554325277700115
  0.1233561812225122  0.4865251154095716  0.7681641187167081
  0.6234557408677779  0.9872342685163042  0.7390308028206010
  0.6238599428427637  0.5099317150874025  0.2537382484394937
  0.6269973943321323  0.4866249344814283  0.7608675343893032
  0.1257351967636434  0.2440708480683647  0.9875813535032439
  0.1238502217258556  0.2531649329461941  0.4901284288934213
  0.1241580089866487  0.7315423647017892  0.9997988812819947
  0.1238969918015390  0.7580187079557126  0.5009176187902171
  0.6260033189217874  0.2454396354652904  0.9858692944989700
  0.1261640582949885  0.2322092894577909  0.2643687836707291
  0.1236461614896735  0.7616203314361715  0.7444657993316818
  0.6270130392983311  0.7621822963859137  0.7439183853073097
  0.3774542472739633  0.0142982801059128  0.4922624489310796
  0.3719821211445279  0.4922574705556849  0.0125623157584516
  0.8742590439181857  0.0155267320550137  0.5077665294701567
  0.8769567301858576  0.4942591502191510  0.0052635012464080
  0.3754200582387312  0.9882288103730629  0.2577735438761661
  0.3744146391141822  0.5092501468268581  0.7359328715813266
  0.8744485333172130  0.9924927666094111  0.2481060731334760
  0.8744074987546840  0.0022446854744564  0.7444293690989372
  0.3790319542982520  0.2350415924425089  0.5072719960155493
  0.3769501804141885  0.7637658581605747  0.9959630267838460
  0.3770733601472500  0.7367757134080134  0.4976207304557562
  0.8744979112645684  0.2425386235174854  0.5129404478020354
  0.8722390049117542  0.7608949178413322  0.9918837952087229
  0.8721325716071336  0.7349315786244168  0.4988387886110505
  0.3769571034512397  0.2629287151914889  0.2378966045146068
  0.3764545614165004  0.2427036567179981  0.7451067781858961
  0.3755390121318459  0.7546560892164201  0.2496972779811659
  0.3750649674026468  0.7434251526499490  0.7560167330260005
  0.8796528109776768  0.2641419975475026  0.2349801545211592
  0.8749800148878891  0.2469810067752118  0.7395337824105253
  0.8737390901703334  0.7532850087627619  0.2528217540011129
 -0.0009039818365803  0.1261048459453634  0.9978321969452061
  0.0058469268435630  0.1252664941047149  0.5050188905991805
  0.9954758192700933  0.6259844955074916  0.9834586138276138
  0.0095202060653627  0.6264849699639539  0.4875025032842644
  0.4982993452362441  0.1243043286345401  0.9922764159350510
  0.4841562745731914  0.6276682562638133  0.9946896528656300
  0.5140163201300919  0.6267811240318983  0.4925827552344695
  0.9876928908554051  0.1275566254526576  0.2495171631928722
  0.9918182010507944  0.6230050370759022  0.2610319698754537
  0.0204069675648551  0.6237103292291509  0.7640079718591570
  0.4922877334397340  0.6265387131974626  0.2604746269568527
  0.9948880211229170  0.3742376335460146  0.5031901848509750
  0.4877206552660998  0.3717904994784736  0.5113723201625261
  0.4814866116395122  0.8780268633772340  0.5039618069327919
  0.9887468856426656  0.3748854550073881  0.7450031628053038
  0.0019245778242902  0.8751044122045154  0.2466529181648313
  0.9912903418263838  0.8740649594113522  0.7454454582609724
  0.5106551714753543  0.3731779264886355  0.2372597487304818
  0.4905080465972692  0.3738062935042136  0.7404908151444887
  0.5018036093961109  0.8752240871960718  0.2398133227319638
  0.4944572321575285  0.8748881052342395  0.7495177476729776
  0.2536459503591073  0.1245543458400472  0.9865891664150944
  0.2425697917317838  0.1238836776954944  0.4919945505257162
  0.2397709644113194  0.6265977715573040  0.4990035742256314
  0.7514505718095936  0.1263599409506717  0.0083610076090002
  0.7673164344201652  0.6253954163542780  0.0082316791538388
  0.7355396701876592  0.6258440061944230  0.5072668235614584
  0.2648319145288667  0.1260176067434741  0.2578489613456598
  0.2433179915690552  0.1240952992647979  0.7631981857230618
  0.2573869523108537  0.6239294682027893  0.2461633766760045
  0.7641657770902712  0.1227561306873204  0.2409295688456527
  0.7552399850072363  0.6251987744851319  0.2407888034115047
  0.7328600878891766  0.6249056799993051  0.7427132645879686
  0.2401527321925890  0.3770854180878123  0.0041260920528321
  0.2375950236339577  0.8733789195210533  0.0102991376591299
  0.7449980152460171  0.3765419987816319  0.9796112060236959
  0.7618070324770652  0.3731247409144918  0.4863318910533869
  0.7377976927855631  0.8745014634752249  0.0010913837714427
  0.7679323640962227  0.8760561734441590  0.4989163985557969
  0.2610217780084457  0.3763764471577994  0.7467347829922779
  0.2464664611093453  0.8750498189021059  0.2435975217054685
  0.2570115999927642  0.8726938955030848  0.7389665989643680
  0.7359597210676549  0.3793729947655579  0.2720503880442846
  0.7631422531965232  0.3747651353922517  0.7613130887429581
  0.7471984537079241  0.8747129141922019  0.2489466444175056
  0.7597240046116671  0.8746492539143019  0.7503071812434781
 
  0.00000000E+00  0.00000000E+00  0.00000000E+00
  0.00000000E+00  0.00000000E+00  0.00000000E+00
  0.00000000E+00  0.00000000E+00  0.00000000E+00
  0.00000000E+00  0.00000000E+00  0.00000000E+00
  0.00000000E+00  0.00000000E+00  0.00000000E+00
  0.00000000E+00  0.00000000E+00  0.00000000E+00
  0.00000000E+00  0.00000000E+00  0.00000000E+00
  0.00000000E+00  0.00000000E+00  0.00000000E+00
  0.00000000E+00  0.00000000E+00  0.00000000E+00
  0.00000000E+00  0.00000000E+00  0.00000000E+00
  0.00000000E+00  0.00000000E+00  0.00000000E+00
  0.00000000E+00  0.00000000E+00  0.00000000E+00
  0.00000000E+00  0.00000000E+00  0.00000000E+00
  0.00000000E+00  0.00000000E+00  0.00000000E+00
  0.00000000E+00  0.00000000E+00  0.00000000E+00
  0.00000000E+00  0.00000000E+00  0.00000000E+00
  0.00000000E+00  0.00000000E+00  0.00000000E+00
  0.00000000E+00  0.00000000E+00  0.00000000E+00
  0.00000000E+00  0.00000000E+00  0.00000000E+00
  0.00000000E+00  0.00000000E+00  0.00000000E+00
  0.00000000E+00  0.00000000E+00  0.00000000E+00
  0.00000000E+00  0.00000000E+00  0.00000000E+00
  0.00000000E+00  0.00000000E+00  0.00000000E+00
  0.00000000E+00  0.00000000E+00  0.00000000E+00
  0.00000000E+00  0.00000000E+00  0.00000000E+00
  0.00000000E+00  0.00000000E+00  0.00000000E+00
  0.00000000E+00  0.00000000E+00  0.00000000E+00
  0.00000000E+00  0.00000000E+00  0.00000000E+00
  0.00000000E+00  0.00000000E+00  0.00000000E+00
  0.00000000E+00  0.00000000E+00  0.00000000E+00
  0.00000000E+00  0.00000000E+00  0.00000000E+00
  0.00000000E+00  0.00000000E+00  0.00000000E+00
  0.00000000E+00  0.00000000E+00  0.00000000E+00
  0.00000000E+00  0.00000000E+00  0.00000000E+00
  0.00000000E+00  0.00000000E+00  0.00000000E+00
  0.00000000E+00  0.00000000E+00  0.00000000E+00
  0.00000000E+00  0.00000000E+00  0.00000000E+00
  0.00000000E+00  0.00000000E+00  0.00000000E+00
  0.00000000E+00  0.00000000E+00  0.00000000E+00
  0.00000000E+00  0.00000000E+00  0.00000000E+00
  0.00000000E+00  0.00000000E+00  0.00000000E+00
  0.00000000E+00  0.00000000E+00  0.00000000E+00
  0.00000000E+00  0.00000000E+00  0.00000000E+00
  0.00000000E+00  0.00000000E+00  0.00000000E+00
  0.00000000E+00  0.00000000E+00  0.00000000E+00
  0.00000000E+00  0.00000000E+00  0.00000000E+00
  0.00000000E+00  0.00000000E+00  0.00000000E+00
  0.00000000E+00  0.00000000E+00  0.00000000E+00
  0.00000000E+00  0.00000000E+00  0.00000000E+00
  0.00000000E+00  0.00000000E+00  0.00000000E+00
  0.00000000E+00  0.00000000E+00  0.00000000E+00
  0.00000000E+00  0.00000000E+00  0.00000000E+00
  0.00000000E+00  0.00000000E+00  0.00000000E+00
  0.00000000E+00  0.00000000E+00  0.00000000E+00
  0.00000000E+00  0.00000000E+00  0.00000000E+00
  0.00000000E+00  0.00000000E+00  0.00000000E+00
  0.00000000E+00  0.00000000E+00  0.00000000E+00
  0.00000000E+00  0.00000000E+00  0.00000000E+00
  0.00000000E+00  0.00000000E+00  0.00000000E+00
  0.00000000E+00  0.00000000E+00  0.00000000E+00
  0.00000000E+00  0.00000000E+00  0.00000000E+00
  0.00000000E+00  0.00000000E+00  0.00000000E+00
  0.00000000E+00  0.00000000E+00  0.00000000E+00
  0.00000000E+00  0.00000000E+00  0.00000000E+00
  0.00000000E+00  0.00000000E+00  0.00000000E+00
  0.00000000E+00  0.00000000E+00  0.00000000E+00
  0.00000000E+00  0.00000000E+00  0.00000000E+00
  0.00000000E+00  0.00000000E+00  0.00000000E+00
  0.00000000E+00  0.00000000E+00  0.00000000E+00
  0.00000000E+00  0.00000000E+00  0.00000000E+00
  0.00000000E+00  0.00000000E+00  0.00000000E+00
  0.00000000E+00  0.00000000E+00  0.00000000E+00
  0.00000000E+00  0.00000000E+00  0.00000000E+00
  0.00000000E+00  0.00000000E+00  0.00000000E+00
  0.00000000E+00  0.00000000E+00  0.00000000E+00
  0.00000000E+00  0.00000000E+00  0.00000000E+00
  0.00000000E+00  0.00000000E+00  0.00000000E+00
  0.00000000E+00  0.00000000E+00  0.00000000E+00
  0.00000000E+00  0.00000000E+00  0.00000000E+00
  0.00000000E+00  0.00000000E+00  0.00000000E+00
  0.00000000E+00  0.00000000E+00  0.00000000E+00
  0.00000000E+00  0.00000000E+00  0.00000000E+00
  0.00000000E+00  0.00000000E+00  0.00000000E+00
  0.00000000E+00  0.00000000E+00  0.00000000E+00
  0.00000000E+00  0.00000000E+00  0.00000000E+00
  0.00000000E+00  0.00000000E+00  0.00000000E+00
  0.00000000E+00  0.00000000E+00  0.00000000E+00
  0.00000000E+00  0.00000000E+00  0.00000000E+00
  0.00000000E+00  0.00000000E+00  0.00000000E+00
  0.00000000E+00  0.00000000E+00  0.00000000E+00
  0.00000000E+00  0.00000000E+00  0.00000000E+00
  0.00000000E+00  0.00000000E+00  0.00000000E+00
  0.00000000E+00  0.00000000E+00  0.00000000E+00
  0.00000000E+00  0.00000000E+00  0.00000000E+00
  0.00000000E+00  0.00000000E+00  0.00000000E+00
  0.00000000E+00  0.00000000E+00  0.00000000E+00
  0.00000000E+00  0.00000000E+00  0.00000000E+00
  0.00000000E+00  0.00000000E+00  0.00000000E+00
  0.00000000E+00  0.00000000E+00  0.00000000E+00
  0.00000000E+00  0.00000000E+00  0.00000000E+00
  0.00000000E+00  0.00000000E+00  0.00000000E+00
  0.00000000E+00  0.00000000E+00  0.00000000E+00
  0.00000000E+00  0.00000000E+00  0.00000000E+00
  0.00000000E+00  0.00000000E+00  0.00000000E+00
  0.00000000E+00  0.00000000E+00  0.00000000E+00
  0.00000000E+00  0.00000000E+00  0.00000000E+00
  0.00000000E+00  0.00000000E+00  0.00000000E+00
  0.00000000E+00  0.00000000E+00  0.00000000E+00
  0.00000000E+00  0.00000000E+00  0.00000000E+00
  0.00000000E+00  0.00000000E+00  0.00000000E+00
  0.00000000E+00  0.00000000E+00  0.00000000E+00
  0.00000000E+00  0.00000000E+00  0.00000000E+00
  0.00000000E+00  0.00000000E+00  0.00000000E+00
  0.00000000E+00  0.00000000E+00  0.00000000E+00
  0.00000000E+00  0.00000000E+00  0.00000000E+00
  0.00000000E+00  0.00000000E+00  0.00000000E+00
  0.00000000E+00  0.00000000E+00  0.00000000E+00
  0.00000000E+00  0.00000000E+00  0.00000000E+00
  0.00000000E+00  0.00000000E+00  0.00000000E+00
  0.00000000E+00  0.00000000E+00  0.00000000E+00
  0.00000000E+00  0.00000000E+00  0.00000000E+00
  0.00000000E+00  0.00000000E+00  0.00000000E+00
  0.00000000E+00  0.00000000E+00  0.00000000E+00
  0.00000000E+00  0.00000000E+00  0.00000000E+00
  0.00000000E+00  0.00000000E+00  0.00000000E+00
  0.00000000E+00  0.00000000E+00  0.00000000E+00
  0.00000000E+00  0.00000000E+00  0.00000000E+00
  0.00000000E+00  0.00000000E+00  0.00000000E+00
  0.00000000E+00  0.00000000E+00  0.00000000E+00
  0.00000000E+00  0.00000000E+00  0.00000000E+00
  0.00000000E+00  0.00000000E+00  0.00000000E+00
  0.00000000E+00  0.00000000E+00  0.00000000E+00
  0.00000000E+00  0.00000000E+00  0.00000000E+00
  0.00000000E+00  0.00000000E+00  0.00000000E+00
  0.00000000E+00  0.00000000E+00  0.00000000E+00
  0.00000000E+00  0.00000000E+00  0.00000000E+00
  0.00000000E+00  0.00000000E+00  0.00000000E+00
  0.00000000E+00  0.00000000E+00  0.00000000E+00
  0.00000000E+00  0.00000000E+00  0.00000000E+00
  0.00000000E+00  0.00000000E+00  0.00000000E+00
  0.00000000E+00  0.00000000E+00  0.00000000E+00
  0.00000000E+00  0.00000000E+00  0.00000000E+00
  0.00000000E+00  0.00000000E+00  0.00000000E+00
  0.00000000E+00  0.00000000E+00  0.00000000E+00
  0.00000000E+00  0.00000000E+00  0.00000000E+00
  0.00000000E+00  0.00000000E+00  0.00000000E+00
  0.00000000E+00  0.00000000E+00  0.00000000E+00
  0.00000000E+00  0.00000000E+00  0.00000000E+00
  0.00000000E+00  0.00000000E+00  0.00000000E+00
  0.00000000E+00  0.00000000E+00  0.00000000E+00
  0.00000000E+00  0.00000000E+00  0.00000000E+00
  0.00000000E+00  0.00000000E+00  0.00000000E+00
  0.00000000E+00  0.00000000E+00  0.00000000E+00
  0.00000000E+00  0.00000000E+00  0.00000000E+00
  0.00000000E+00  0.00000000E+00  0.00000000E+00
  0.00000000E+00  0.00000000E+00  0.00000000E+00
  0.00000000E+00  0.00000000E+00  0.00000000E+00
  0.00000000E+00  0.00000000E+00  0.00000000E+00
  0.00000000E+00  0.00000000E+00  0.00000000E+00
  0.00000000E+00  0.00000000E+00  0.00000000E+00
  0.00000000E+00  0.00000000E+00  0.00000000E+00
  0.00000000E+00  0.00000000E+00  0.00000000E+00
  0.00000000E+00  0.00000000E+00  0.00000000E+00
  0.00000000E+00  0.00000000E+00  0.00000000E+00
  0.00000000E+00  0.00000000E+00  0.00000000E+00
  0.00000000E+00  0.00000000E+00  0.00000000E+00
  0.00000000E+00  0.00000000E+00  0.00000000E+00
  0.00000000E+00  0.00000000E+00  0.00000000E+00
  0.00000000E+00  0.00000000E+00  0.00000000E+00
  0.00000000E+00  0.00000000E+00  0.00000000E+00
  0.00000000E+00  0.00000000E+00  0.00000000E+00
  0.00000000E+00  0.00000000E+00  0.00000000E+00
  0.00000000E+00  0.00000000E+00  0.00000000E+00
  0.00000000E+00  0.00000000E+00  0.00000000E+00
  0.00000000E+00  0.00000000E+00  0.00000000E+00
  0.00000000E+00  0.00000000E+00  0.00000000E+00
  0.00000000E+00  0.00000000E+00  0.00000000E+00
  0.00000000E+00  0.00000000E+00  0.00000000E+00
  0.00000000E+00  0.00000000E+00  0.00000000E+00
  0.00000000E+00  0.00000000E+00  0.00000000E+00
  0.00000000E+00  0.00000000E+00  0.00000000E+00
  0.00000000E+00  0.00000000E+00  0.00000000E+00
  0.00000000E+00  0.00000000E+00  0.00000000E+00
  0.00000000E+00  0.00000000E+00  0.00000000E+00
  0.00000000E+00  0.00000000E+00  0.00000000E+00
  0.00000000E+00  0.00000000E+00  0.00000000E+00
  0.00000000E+00  0.00000000E+00  0.00000000E+00
  0.00000000E+00  0.00000000E+00  0.00000000E+00
  0.00000000E+00  0.00000000E+00  0.00000000E+00
  0.00000000E+00  0.00000000E+00  0.00000000E+00
  0.00000000E+00  0.00000000E+00  0.00000000E+00
  0.00000000E+00  0.00000000E+00  0.00000000E+00
  0.00000000E+00  0.00000000E+00  0.00000000E+00
  0.00000000E+00  0.00000000E+00  0.00000000E+00
  0.00000000E+00  0.00000000E+00  0.00000000E+00
  0.00000000E+00  0.00000000E+00  0.00000000E+00
  0.00000000E+00  0.00000000E+00  0.00000000E+00
  0.00000000E+00  0.00000000E+00  0.00000000E+00
  0.00000000E+00  0.00000000E+00  0.00000000E+00
  0.00000000E+00  0.00000000E+00  0.00000000E+00
  0.00000000E+00  0.00000000E+00  0.00000000E+00
  0.00000000E+00  0.00000000E+00  0.00000000E+00
  0.00000000E+00  0.00000000E+00  0.00000000E+00
  0.00000000E+00  0.00000000E+00  0.00000000E+00
  0.00000000E+00  0.00000000E+00  0.00000000E+00
  0.00000000E+00  0.00000000E+00  0.00000000E+00
  0.00000000E+00  0.00000000E+00  0.00000000E+00
  0.00000000E+00  0.00000000E+00  0.00000000E+00
  0.00000000E+00  0.00000000E+00  0.00000000E+00
  0.00000000E+00  0.00000000E+00  0.00000000E+00
  0.00000000E+00  0.00000000E+00  0.00000000E+00
  0.00000000E+00  0.00000000E+00  0.00000000E+00
  0.00000000E+00  0.00000000E+00  0.00000000E+00
  0.00000000E+00  0.00000000E+00  0.00000000E+00
  0.00000000E+00  0.00000000E+00  0.00000000E+00
  0.00000000E+00  0.00000000E+00  0.00000000E+00
  0.00000000E+00  0.00000000E+00  0.00000000E+00
  0.00000000E+00  0.00000000E+00  0.00000000E+00
  0.00000000E+00  0.00000000E+00  0.00000000E+00
  0.00000000E+00  0.00000000E+00  0.00000000E+00
  0.00000000E+00  0.00000000E+00  0.00000000E+00
  0.00000000E+00  0.00000000E+00  0.00000000E+00
  0.00000000E+00  0.00000000E+00  0.00000000E+00
  0.00000000E+00  0.00000000E+00  0.00000000E+00
  0.00000000E+00  0.00000000E+00  0.00000000E+00
  0.00000000E+00  0.00000000E+00  0.00000000E+00
  0.00000000E+00  0.00000000E+00  0.00000000E+00
  0.00000000E+00  0.00000000E+00  0.00000000E+00
  0.00000000E+00  0.00000000E+00  0.00000000E+00
  0.00000000E+00  0.00000000E+00  0.00000000E+00
  0.00000000E+00  0.00000000E+00  0.00000000E+00
  0.00000000E+00  0.00000000E+00  0.00000000E+00
  0.00000000E+00  0.00000000E+00  0.00000000E+00
  0.00000000E+00  0.00000000E+00  0.00000000E+00
  0.00000000E+00  0.00000000E+00  0.00000000E+00
  0.00000000E+00  0.00000000E+00  0.00000000E+00
  0.00000000E+00  0.00000000E+00  0.00000000E+00
  0.00000000E+00  0.00000000E+00  0.00000000E+00
  0.00000000E+00  0.00000000E+00  0.00000000E+00
  0.00000000E+00  0.00000000E+00  0.00000000E+00
  0.00000000E+00  0.00000000E+00  0.00000000E+00
  0.00000000E+00  0.00000000E+00  0.00000000E+00
  0.00000000E+00  0.00000000E+00  0.00000000E+00
  0.00000000E+00  0.00000000E+00  0.00000000E+00
  0.00000000E+00  0.00000000E+00  0.00000000E+00
  0.00000000E+00  0.00000000E+00  0.00000000E+00
  0.00000000E+00  0.00000000E+00  0.00000000E+00
  0.00000000E+00  0.00000000E+00  0.00000000E+00
  0.00000000E+00  0.00000000E+00  0.00000000E+00
  0.00000000E+00  0.00000000E+00  0.00000000E+00
  0.00000000E+00  0.00000000E+00  0.00000000E+00
  0.00000000E+00  0.00000000E+00  0.00000000E+00
  0.00000000E+00  0.00000000E+00  0.00000000E+00
  0.00000000E+00  0.00000000E+00  0.00000000E+00
  0.00000000E+00  0.00000000E+00  0.00000000E+00
  0.00000000E+00  0.00000000E+00  0.00000000E+00
  0.00000000E+00  0.00000000E+00  0.00000000E+00
