TiOF2 2x2x2 config 2036                 
   1.00000000000000     
     7.7345043952971331   -0.0000044362160507   -0.0000017103878745
    -0.0000044595301820    7.7865826473740016    0.0048027839650460
    -0.0000017005639492    0.0048514103842852    7.6852215834868964
   Ti   O    F 
     8     8    16
Direct
  0.9999998933750405  0.0006290940976754  0.9862912884206452
  0.9999992592218163  0.9990892317779014  0.5096829297263028
  0.9999987221148459  0.4999483192539245  0.9805839685966120
  0.0000242788957934  0.4999311719235351  0.5010948561192023
  0.4999998984696106  0.9825937556944169  0.9864284854084815
  0.4999990398608318  0.0199790101005206  0.5103859437232217
  0.4999986888513845  0.5095117110792984  0.0195078985069514
  0.5000395766504724  0.4950398076375606  0.4954228933366949
  0.2432803962368411  0.5004096090183552  0.5002668837418369
  0.7566868095760100  0.5004097746321818  0.5002670626862624
  0.4999986366871596  0.2458664550729210  0.5007956039306904
  0.4999998604622320  0.7514989774438803  0.0013265888542193
  0.9999998934240892  0.9997023347966874  0.7514685410859485
  0.9999972941958575  0.5009350465836349  0.7562610404060166
  0.4999998797550376  0.0006623498858858  0.7520321569672674
  0.4999973115653944  0.5000458670806154  0.2479833515436098
  0.2438016596818073  0.0037750091020641  0.0099415342266909
  0.2437825155433586  0.9962029815508444  0.4914404071977856
  0.2464508932827130  0.4951899631014882  0.0017795922693793
  0.7561981357472760  0.0037750047418044  0.0099415860244534
  0.7562158803264865  0.9962032267625673  0.4914404361241225
  0.7535466835646218  0.4951898955944145  0.0017803184198968
  0.9999998736642937  0.2462785070457159  0.0067906616444162
  0.9999977509329980  0.2400442852041564  0.4918046294844842
  0.9999998751325379  0.7541924346725395  0.0068845085192777
  0.9999973918311582  0.7585879731304743  0.4918256622226593
  0.4999998858239607  0.2470438305900231  0.0021288740512091
  0.4999974410616375  0.7574598582770236  0.4997198050383602
  0.9999998972821587  0.9996257913755713  0.2483406717907428
  0.9999962802950648  0.5007147524387605  0.2397431934713197
  0.4999998868555977  0.0011124661966520  0.2488314362817192
  0.4999965096319343  0.4983515041368989  0.7578071901795482
 
  0.00000000E+00  0.00000000E+00  0.00000000E+00
  0.00000000E+00  0.00000000E+00  0.00000000E+00
  0.00000000E+00  0.00000000E+00  0.00000000E+00
  0.00000000E+00  0.00000000E+00  0.00000000E+00
  0.00000000E+00  0.00000000E+00  0.00000000E+00
  0.00000000E+00  0.00000000E+00  0.00000000E+00
  0.00000000E+00  0.00000000E+00  0.00000000E+00
  0.00000000E+00  0.00000000E+00  0.00000000E+00
  0.00000000E+00  0.00000000E+00  0.00000000E+00
  0.00000000E+00  0.00000000E+00  0.00000000E+00
  0.00000000E+00  0.00000000E+00  0.00000000E+00
  0.00000000E+00  0.00000000E+00  0.00000000E+00
  0.00000000E+00  0.00000000E+00  0.00000000E+00
  0.00000000E+00  0.00000000E+00  0.00000000E+00
  0.00000000E+00  0.00000000E+00  0.00000000E+00
  0.00000000E+00  0.00000000E+00  0.00000000E+00
  0.00000000E+00  0.00000000E+00  0.00000000E+00
  0.00000000E+00  0.00000000E+00  0.00000000E+00
  0.00000000E+00  0.00000000E+00  0.00000000E+00
  0.00000000E+00  0.00000000E+00  0.00000000E+00
  0.00000000E+00  0.00000000E+00  0.00000000E+00
  0.00000000E+00  0.00000000E+00  0.00000000E+00
  0.00000000E+00  0.00000000E+00  0.00000000E+00
  0.00000000E+00  0.00000000E+00  0.00000000E+00
  0.00000000E+00  0.00000000E+00  0.00000000E+00
  0.00000000E+00  0.00000000E+00  0.00000000E+00
  0.00000000E+00  0.00000000E+00  0.00000000E+00
  0.00000000E+00  0.00000000E+00  0.00000000E+00
  0.00000000E+00  0.00000000E+00  0.00000000E+00
  0.00000000E+00  0.00000000E+00  0.00000000E+00
  0.00000000E+00  0.00000000E+00  0.00000000E+00
  0.00000000E+00  0.00000000E+00  0.00000000E+00
