TiOF2 2x2x2 config 2036                 
   1.00000000000000     
     7.7345043952971331   -0.0000044362160507   -0.0000017103878745
    -0.0000044595301820    7.7865826473740016    0.0048027839650460
    -0.0000017005639492    0.0048514103842852    7.6852215834868964
   Ti   O    F 
     8     8    16
Direct
 -0.0000001066249584  0.0006290940976786 -0.0137087115793550
 -0.0000007407781860 -0.0009107682220964  0.5096829297262997
 -0.0000012778851566  0.4999483192539243 -0.0194160314033894
  0.0000242788957941  0.4999311719235340  0.5010948561191991
  0.4999998984696093 -0.0174062443055862 -0.0135715145915201
  0.4999990398608347  0.0199790101005193  0.5103859437232197
  0.4999986888513826  0.5095117110792986  0.0195078985069546
  0.5000395766504697  0.4950398076375577  0.4954228933366917
  0.2432803962368418  0.5004096090183549  0.5002668837418389
  0.7566868095760116  0.5004097746321829  0.5002670626862621
  0.4999986366871567  0.2458664550729218  0.5007956039306872
  0.4999998604622286  0.7514989774438805  0.0013265888542197
 -0.0000001065759092 -0.0002976652033098  0.7514685410859486
 -0.0000027058041452  0.5009350465836319  0.7562610404060165
  0.4999998797550344  0.0006623498858878  0.7520321569672677
  0.4999973115653927  0.5000458670806125  0.2479833515436100
  0.2438016596818101  0.0037750091020671  0.0099415342266903
  0.2437825155433560 -0.0037970184491584  0.4914404071977830
  0.2464508932827120  0.4951899631014917  0.0017795922693771
  0.7561981357472750  0.0037750047418044  0.0099415860244506
  0.7562158803264869 -0.0037967732374294  0.4914404361241211
  0.7535466835646221  0.4951898955944118  0.0017803184198980
 -0.0000001263357062  0.2462785070457126  0.0067906616444134
 -0.0000022490670050  0.2400442852041587  0.4918046294844850
 -0.0000001248674605  0.7541924346725392  0.0068845085192791
 -0.0000026081688435  0.7585879731304769  0.4918256622226559
  0.4999998858239590  0.2470438305900230  0.0021288740512070
  0.4999974410616359  0.7574598582770213  0.4997198050383606
 -0.0000001027178391 -0.0003742086244266  0.2483406717907441
 -0.0000037197049361  0.5007147524387637  0.2397431934713167
  0.4999998868556001  0.0011124661966527  0.2488314362817208
  0.4999965096319313  0.4983515041368996  0.7578071901795460
 
  0.00000000E+00  0.00000000E+00  0.00000000E+00
  0.00000000E+00  0.00000000E+00  0.00000000E+00
  0.00000000E+00  0.00000000E+00  0.00000000E+00
  0.00000000E+00  0.00000000E+00  0.00000000E+00
  0.00000000E+00  0.00000000E+00  0.00000000E+00
  0.00000000E+00  0.00000000E+00  0.00000000E+00
  0.00000000E+00  0.00000000E+00  0.00000000E+00
  0.00000000E+00  0.00000000E+00  0.00000000E+00
  0.00000000E+00  0.00000000E+00  0.00000000E+00
  0.00000000E+00  0.00000000E+00  0.00000000E+00
  0.00000000E+00  0.00000000E+00  0.00000000E+00
  0.00000000E+00  0.00000000E+00  0.00000000E+00
  0.00000000E+00  0.00000000E+00  0.00000000E+00
  0.00000000E+00  0.00000000E+00  0.00000000E+00
  0.00000000E+00  0.00000000E+00  0.00000000E+00
  0.00000000E+00  0.00000000E+00  0.00000000E+00
  0.00000000E+00  0.00000000E+00  0.00000000E+00
  0.00000000E+00  0.00000000E+00  0.00000000E+00
  0.00000000E+00  0.00000000E+00  0.00000000E+00
  0.00000000E+00  0.00000000E+00  0.00000000E+00
  0.00000000E+00  0.00000000E+00  0.00000000E+00
  0.00000000E+00  0.00000000E+00  0.00000000E+00
  0.00000000E+00  0.00000000E+00  0.00000000E+00
  0.00000000E+00  0.00000000E+00  0.00000000E+00
  0.00000000E+00  0.00000000E+00  0.00000000E+00
  0.00000000E+00  0.00000000E+00  0.00000000E+00
  0.00000000E+00  0.00000000E+00  0.00000000E+00
  0.00000000E+00  0.00000000E+00  0.00000000E+00
  0.00000000E+00  0.00000000E+00  0.00000000E+00
  0.00000000E+00  0.00000000E+00  0.00000000E+00
  0.00000000E+00  0.00000000E+00  0.00000000E+00
  0.00000000E+00  0.00000000E+00  0.00000000E+00
