TiOF2 2x2x2 config 1564                 
   1.00000000000000     
     7.7552623904300022   -0.0013270528478077    0.0000785638066611
    -0.0013966192633943    7.6516130220403937   -0.0018313523157102
     0.0000787752125856   -0.0017902362505961    7.7526594465733094
   Ti   O    F 
     8     8    16
Direct
  0.0003031136155380  0.9887886784850566  0.9864965787846534
  0.0004047927131305  0.9872768778666318  0.5134513878417205
  0.9871947223829184  0.5112453144441993  0.0004219805336796
  0.9872652203423220  0.5111920421607509  0.4996428792639402
  0.4997862569723487  0.9888976845612532  0.0134725742565421
  0.4996948147280748  0.0124910031015891  0.4865981373518018
  0.5127155387406079  0.5127656561385080  0.9994885871323677
  0.5126737325550573  0.4873597554151923  0.5004177223701122
  0.7499775276119809  0.4967957490713105  0.9999342132396147
  0.7499886045208174  0.5003008665337654  0.5000909869340754
  0.0017457177122588  0.7499954310142779  0.0026974343201495
  0.0018174574409094  0.7491043645300834  0.4974404895981526
  0.4985373308913160  0.2499662697085790  0.5020449478670077
  0.4985037573374291  0.7508904715410749  0.9974730232872189
  0.9992769124872717  0.0027299760268286  0.7500470197690872
  0.5007067979338086  0.9995708944047950  0.2499829277188271
  0.2500515853897041  0.0099274777006882  0.9999273457469117
  0.2500756677365394  0.9993779700677722  0.5001220699826869
  0.2500584768364504  0.4945811777600319  0.9999723754827702
  0.2500706533826461  0.5002466227856506  0.5000546017178680
  0.7500470045859710  0.0126574012780154  0.9999690900807863
  0.7500199146877679  0.9991356467932585  0.5000570013076344
  0.0041671319866401  0.2498944609732099  0.0047234210252596
  0.0041889770741611  0.2488454114264069  0.4954437041624590
  0.4958809454646725  0.2509331713839960  0.9950348073380396
  0.4957889999521340  0.7501028219255007  0.5050217151265453
  0.9991823632178161  0.0055418935293678  0.2501691108992890
  0.0081801287851010  0.4900242022422001  0.2500264584194929
  0.0078890809399334  0.4880147504862945  0.7500267664660007
  0.5008956602085035  0.9997913907906940  0.7498336355348092
  0.4916533248680446  0.5009299233472863  0.2499873458794936
  0.4912577868981328  0.5006246425057450  0.7499296605610166
 
  0.00000000E+00  0.00000000E+00  0.00000000E+00
  0.00000000E+00  0.00000000E+00  0.00000000E+00
  0.00000000E+00  0.00000000E+00  0.00000000E+00
  0.00000000E+00  0.00000000E+00  0.00000000E+00
  0.00000000E+00  0.00000000E+00  0.00000000E+00
  0.00000000E+00  0.00000000E+00  0.00000000E+00
  0.00000000E+00  0.00000000E+00  0.00000000E+00
  0.00000000E+00  0.00000000E+00  0.00000000E+00
  0.00000000E+00  0.00000000E+00  0.00000000E+00
  0.00000000E+00  0.00000000E+00  0.00000000E+00
  0.00000000E+00  0.00000000E+00  0.00000000E+00
  0.00000000E+00  0.00000000E+00  0.00000000E+00
  0.00000000E+00  0.00000000E+00  0.00000000E+00
  0.00000000E+00  0.00000000E+00  0.00000000E+00
  0.00000000E+00  0.00000000E+00  0.00000000E+00
  0.00000000E+00  0.00000000E+00  0.00000000E+00
  0.00000000E+00  0.00000000E+00  0.00000000E+00
  0.00000000E+00  0.00000000E+00  0.00000000E+00
  0.00000000E+00  0.00000000E+00  0.00000000E+00
  0.00000000E+00  0.00000000E+00  0.00000000E+00
  0.00000000E+00  0.00000000E+00  0.00000000E+00
  0.00000000E+00  0.00000000E+00  0.00000000E+00
  0.00000000E+00  0.00000000E+00  0.00000000E+00
  0.00000000E+00  0.00000000E+00  0.00000000E+00
  0.00000000E+00  0.00000000E+00  0.00000000E+00
  0.00000000E+00  0.00000000E+00  0.00000000E+00
  0.00000000E+00  0.00000000E+00  0.00000000E+00
  0.00000000E+00  0.00000000E+00  0.00000000E+00
  0.00000000E+00  0.00000000E+00  0.00000000E+00
  0.00000000E+00  0.00000000E+00  0.00000000E+00
  0.00000000E+00  0.00000000E+00  0.00000000E+00
  0.00000000E+00  0.00000000E+00  0.00000000E+00
