TiOF2 2x2x2 config 0003                 
   1.00000000000000     
     7.9199474719393725   -0.0003171215230022   -0.0000000190331428
    -0.0002419859335900    7.8248299681598148   -0.0000002517248461
    -0.0000001953416559   -0.0000000601325197    7.5534954639861622
   Ti   O    F 
     8     8    16
Direct
  0.0000019257178039  0.0004703444150707  0.0000011756126312
  0.9999935756711125  0.0003540903584707  0.4999997127945122
  0.9999958707303591  0.5000352327862956  0.0000015351988765
  0.0000019294270075  0.4999233347460716  0.5000022096377279
  0.5000019645165850  0.9880637272881927  0.9999999433206028
  0.4999985911597236  0.9886116691858788  0.5000001690411437
  0.4999962792211434  0.5099709678520767  0.0000000558403599
  0.5000016784761527  0.5101172892156214  0.5000000367686823
  0.4999898170499080  0.7515402773961810  0.9999996830555204
  0.5000453900670507  0.7512127431924327  0.5000001405494530
  0.9999976896404235  0.5007132539601216  0.2476539433946101
  0.9999976809738556  0.5007142591583289  0.7523448787234557
  0.4999998734205491  0.9987861720328084  0.2489916197233342
  0.4999999156828352  0.9987863456059287  0.7510084026896706
  0.4999981565205118  0.5024108776118155  0.2497084549173323
  0.4999981635921813  0.5024107371857909  0.7502914654152733
  0.2380216372570914  0.0019275082354753  0.0000000066459975
  0.2437267797813476  0.0025122738297085  0.5000001135774284
  0.2456777760240101  0.4971746763078855  0.9999998124167035
  0.2459757993448264  0.4972776602646292  0.4999998249145960
  0.7619840116460566  0.0019152927191186  0.0000000917373768
  0.7562675549047810  0.0026907076407596  0.5000001138043473
  0.7543152801488944  0.4971728160977733  0.9999998262399430
  0.7540265213319870  0.4973554935445748  0.4999998188816690
  0.0000009107507708  0.2425115113521557  0.9999990457524319
  0.9999206226780615  0.2522670846937061  0.5000004185748566
  0.0000000061934315  0.7580375478625641  0.0000006531870866
  0.0000977448821615  0.7481067540366482  0.4999989325516268
  0.5000051555888163  0.2482896213955925  0.0000000150562727
  0.4999562106247453  0.2490034884105725  0.5000000694024465
  0.0000027707889956  0.9998191462581190  0.2433108746349433
  0.0000027161867706  0.9998170953596315  0.7566869559390383
 
  0.00000000E+00  0.00000000E+00  0.00000000E+00
  0.00000000E+00  0.00000000E+00  0.00000000E+00
  0.00000000E+00  0.00000000E+00  0.00000000E+00
  0.00000000E+00  0.00000000E+00  0.00000000E+00
  0.00000000E+00  0.00000000E+00  0.00000000E+00
  0.00000000E+00  0.00000000E+00  0.00000000E+00
  0.00000000E+00  0.00000000E+00  0.00000000E+00
  0.00000000E+00  0.00000000E+00  0.00000000E+00
  0.00000000E+00  0.00000000E+00  0.00000000E+00
  0.00000000E+00  0.00000000E+00  0.00000000E+00
  0.00000000E+00  0.00000000E+00  0.00000000E+00
  0.00000000E+00  0.00000000E+00  0.00000000E+00
  0.00000000E+00  0.00000000E+00  0.00000000E+00
  0.00000000E+00  0.00000000E+00  0.00000000E+00
  0.00000000E+00  0.00000000E+00  0.00000000E+00
  0.00000000E+00  0.00000000E+00  0.00000000E+00
  0.00000000E+00  0.00000000E+00  0.00000000E+00
  0.00000000E+00  0.00000000E+00  0.00000000E+00
  0.00000000E+00  0.00000000E+00  0.00000000E+00
  0.00000000E+00  0.00000000E+00  0.00000000E+00
  0.00000000E+00  0.00000000E+00  0.00000000E+00
  0.00000000E+00  0.00000000E+00  0.00000000E+00
  0.00000000E+00  0.00000000E+00  0.00000000E+00
  0.00000000E+00  0.00000000E+00  0.00000000E+00
  0.00000000E+00  0.00000000E+00  0.00000000E+00
  0.00000000E+00  0.00000000E+00  0.00000000E+00
  0.00000000E+00  0.00000000E+00  0.00000000E+00
  0.00000000E+00  0.00000000E+00  0.00000000E+00
  0.00000000E+00  0.00000000E+00  0.00000000E+00
  0.00000000E+00  0.00000000E+00  0.00000000E+00
  0.00000000E+00  0.00000000E+00  0.00000000E+00
  0.00000000E+00  0.00000000E+00  0.00000000E+00
