TiOF2 2x2x2 config 0003                 
   1.00000000000000     
     7.9199474719393725   -0.0003171215230022   -0.0000000190331428
    -0.0002419859335900    7.8248299681598148   -0.0000002517248461
    -0.0000001953416559   -0.0000000601325197    7.5534954639861622
   Ti   O    F 
     8     8    16
Direct
  1.0000019257178032  0.0004703444150686  1.0000011756126339
  0.9999935756711151  0.0003540903584690  0.4999997127945090
  0.9999958707303578  0.5000352327862967  0.0000015351988779
  0.0000019294270048  0.4999233347460723  0.5000022096377293
  0.5000019645165839  0.9880637272881954  0.9999999433206062
  0.4999985911597248  0.9886116691858815  0.5000001690411466
  0.4999962792211409  0.5099709678520741  1.0000000558403574
  0.5000016784761546  0.5101172892156213  0.5000000367686857
  0.4999898170499067  0.7515402773961836  0.9999996830555193
  0.5000453900670521  0.7512127431924353  0.5000001405494517
  0.9999976896404231  0.5007132539601181  0.2476539433946118
  0.9999976809738558  0.5007142591583276  0.7523448787234570
  0.4999998734205498 -0.0012138279671889  0.2489916197233364
  0.4999999156828364 -0.0012136543940744  0.7510084026896718
  0.4999981565205144  0.5024108776118186  0.2497084549173353
  0.4999981635921830  0.5024107371857902  0.7502914654152734
  0.2380216372570928  0.0019275082354772  1.0000000066459986
  0.2437267797813464  0.0025122738297109  0.5000001135774255
  0.2456777760240116  0.4971746763078884 -0.0000001875832989
  0.2459757993448246  0.4972776602646284  0.4999998249145979
  0.7619840116460553  0.0019152927191175  0.0000000917373788
  0.7562675549047813  0.0026907076407572  0.5000001138043498
  0.7543152801488977  0.4971728160977756  0.9999998262399431
  0.7540265213319839  0.4973554935445760  0.4999998188816715
  0.0000009107507711  0.2425115113521523  0.9999990457524351
  0.9999206226780648  0.2522670846937057  0.5000004185748536
  0.0000000061934328  0.7580375478625622  0.0000006531870890
  0.0000977448821640  0.7481067540366495  0.4999989325516274
  0.5000051555888172  0.2482896213955954  0.0000000150562741
  0.4999562106247449  0.2490034884105726  0.5000000694024449
  0.0000027707889991  0.9998191462581170  0.2433108746349451
  1.0000027161867706  0.9998170953596316  0.7566869559390388
 
  0.00000000E+00  0.00000000E+00  0.00000000E+00
  0.00000000E+00  0.00000000E+00  0.00000000E+00
  0.00000000E+00  0.00000000E+00  0.00000000E+00
  0.00000000E+00  0.00000000E+00  0.00000000E+00
  0.00000000E+00  0.00000000E+00  0.00000000E+00
  0.00000000E+00  0.00000000E+00  0.00000000E+00
  0.00000000E+00  0.00000000E+00  0.00000000E+00
  0.00000000E+00  0.00000000E+00  0.00000000E+00
  0.00000000E+00  0.00000000E+00  0.00000000E+00
  0.00000000E+00  0.00000000E+00  0.00000000E+00
  0.00000000E+00  0.00000000E+00  0.00000000E+00
  0.00000000E+00  0.00000000E+00  0.00000000E+00
  0.00000000E+00  0.00000000E+00  0.00000000E+00
  0.00000000E+00  0.00000000E+00  0.00000000E+00
  0.00000000E+00  0.00000000E+00  0.00000000E+00
  0.00000000E+00  0.00000000E+00  0.00000000E+00
  0.00000000E+00  0.00000000E+00  0.00000000E+00
  0.00000000E+00  0.00000000E+00  0.00000000E+00
  0.00000000E+00  0.00000000E+00  0.00000000E+00
  0.00000000E+00  0.00000000E+00  0.00000000E+00
  0.00000000E+00  0.00000000E+00  0.00000000E+00
  0.00000000E+00  0.00000000E+00  0.00000000E+00
  0.00000000E+00  0.00000000E+00  0.00000000E+00
  0.00000000E+00  0.00000000E+00  0.00000000E+00
  0.00000000E+00  0.00000000E+00  0.00000000E+00
  0.00000000E+00  0.00000000E+00  0.00000000E+00
  0.00000000E+00  0.00000000E+00  0.00000000E+00
  0.00000000E+00  0.00000000E+00  0.00000000E+00
  0.00000000E+00  0.00000000E+00  0.00000000E+00
  0.00000000E+00  0.00000000E+00  0.00000000E+00
  0.00000000E+00  0.00000000E+00  0.00000000E+00
  0.00000000E+00  0.00000000E+00  0.00000000E+00
