TiOF2 2x2x2 config 0015                 
   1.00000000000000     
     7.9409056952979800    0.0000000015382746    0.0000000085478222
    -0.0000000000581669    7.7737250449968007    0.0000004967429245
     0.0000000088643228    0.0000004407593056    7.5569312959200357
   Ti   O    F 
     8     8    16
Direct
  0.9999999955076291  0.0000000685204142  0.9874533998930346
  0.0000000029937652  0.0000003394769053  0.5100735697081547
  0.0000000044762416  0.5000000442569785  0.0125466024181833
  0.9999999969914697  0.5000001247556796  0.4899264210850731
  0.4999999960551449  0.0000012083820309  0.0003204141132755
  0.5000000033445176  0.9999882295160134  0.4995285844119692
  0.5000000039304666  0.5000012308609882  0.9996796500738370
  0.4999999966668369  0.4999831372689556  0.5004714104752708
  0.4999999999966107  0.2500063579144296  0.4999999076823158
  0.4999999999981313  0.7500058649844661  0.5000000148867230
  0.9999999976226945  0.0000008638249795  0.7505142694688089
  0.0000000023973996  0.5000000210650200  0.2494856786442909
  0.4999999998267199  0.0000017057028217  0.2426677327765887
  0.5000000010877628  0.0000016097828635  0.7575800524282172
  0.4999999989041939  0.5000019772031763  0.2424197673636215
  0.5000000001774794  0.5000021257103811  0.7573325840779148
  0.2383555699809250  0.0000000476274806  0.0054010605314900
  0.2356915000459452  0.0000004685178112  0.4937545455440144
  0.2383555913176920  0.5000000470156607  0.9945989164644971
  0.2356914428436312  0.5000006289688272  0.5062454407369330
  0.7616444255526957  0.0000000476100155  0.0054010835059870
  0.7643085034240116  0.0000004685269275  0.4937545477016201
  0.7616444131798303  0.5000000469990979  0.9945989394565657
  0.7643085536988039  0.5000006289463528  0.5062454428361534
  0.0000000000134790  0.2500000699126517  0.0000001048784526
  0.9999999999989555  0.2500002632712253  0.4999998787769613
  0.0000000000155609  0.7500000481448481  0.9999998508686261
  0.9999999999933706  0.7500002624234412  0.5000001080421015
  0.4999999999924682  0.2500010701879631  0.9999999686066730
  0.4999999999943441  0.7500010040159282  0.0000000624548449
  0.9999999979656025  0.0000000038795562  0.2487375265566669
  0.0000000020056135  0.4999999847261165  0.7512624635311056
 
  0.00000000E+00  0.00000000E+00  0.00000000E+00
  0.00000000E+00  0.00000000E+00  0.00000000E+00
  0.00000000E+00  0.00000000E+00  0.00000000E+00
  0.00000000E+00  0.00000000E+00  0.00000000E+00
  0.00000000E+00  0.00000000E+00  0.00000000E+00
  0.00000000E+00  0.00000000E+00  0.00000000E+00
  0.00000000E+00  0.00000000E+00  0.00000000E+00
  0.00000000E+00  0.00000000E+00  0.00000000E+00
  0.00000000E+00  0.00000000E+00  0.00000000E+00
  0.00000000E+00  0.00000000E+00  0.00000000E+00
  0.00000000E+00  0.00000000E+00  0.00000000E+00
  0.00000000E+00  0.00000000E+00  0.00000000E+00
  0.00000000E+00  0.00000000E+00  0.00000000E+00
  0.00000000E+00  0.00000000E+00  0.00000000E+00
  0.00000000E+00  0.00000000E+00  0.00000000E+00
  0.00000000E+00  0.00000000E+00  0.00000000E+00
  0.00000000E+00  0.00000000E+00  0.00000000E+00
  0.00000000E+00  0.00000000E+00  0.00000000E+00
  0.00000000E+00  0.00000000E+00  0.00000000E+00
  0.00000000E+00  0.00000000E+00  0.00000000E+00
  0.00000000E+00  0.00000000E+00  0.00000000E+00
  0.00000000E+00  0.00000000E+00  0.00000000E+00
  0.00000000E+00  0.00000000E+00  0.00000000E+00
  0.00000000E+00  0.00000000E+00  0.00000000E+00
  0.00000000E+00  0.00000000E+00  0.00000000E+00
  0.00000000E+00  0.00000000E+00  0.00000000E+00
  0.00000000E+00  0.00000000E+00  0.00000000E+00
  0.00000000E+00  0.00000000E+00  0.00000000E+00
  0.00000000E+00  0.00000000E+00  0.00000000E+00
  0.00000000E+00  0.00000000E+00  0.00000000E+00
  0.00000000E+00  0.00000000E+00  0.00000000E+00
  0.00000000E+00  0.00000000E+00  0.00000000E+00
