Ti27 O27 F54                            
   1.00000000000000     
    11.5884292226358454    0.0023370609390881   -0.0005162598429068
     0.0023404031699356   11.5932592001313690    0.0015674797357743
    -0.0005154132275285    0.0015623796802223   11.5897462238189028
   Ti   O    F 
    27    27    54
Direct
  0.0093673645653207  0.0059580958892227  0.0115643728996680
 -0.0090294016442256 -0.0105709553935466  0.3252083053892323
  0.0012588339041516 -0.0137779723440655  0.6670169448296434
 -0.0064253769942064  0.3202617943761266 -0.0000676112837154
 -0.0003090086453881  0.3343679634171611  0.3425471956417879
  0.0002752088607294  0.3330405132626306  0.6578348655901428
 -0.0133857776637705  0.6637948643163888 -0.0009210124722654
  0.0100379667823163  0.6769201994066807  0.3429503007360238
 -0.0068607100982262  0.6720355016542519  0.6546234856649785
  0.3214634439216659 -0.0010354276743490  0.0093624698938367
  0.3334394522325562 -0.0100646454948242  0.3241106908595084
  0.3445430513844439 -0.0093867271987334  0.6667456322716124
  0.3347138384323185  0.3395087799759238  0.0113338436064802
  0.3446929519226208  0.3333714598757803  0.3253485736674321
  0.3463524728855079  0.3337237164401864  0.6671153348626837
  0.3322770319384882  0.6547048246283870 -0.0002145072904904
  0.3219046305235908  0.6756743218220099  0.3422157916292637
  0.3332476092537809  0.6769485090388310  0.6546286582219062
  0.6657415186234076 -0.0137105325953950 -0.0001055546171416
  0.6771962976470296 -0.0045014708086097  0.3428317223385983
  0.6579237499295069  0.0096883661758748  0.6560609152392711
  0.6791772591060335  0.3333376392763873  0.0002353533613570
  0.6580449501756198  0.3345734028530414  0.3456324886398912
  0.6615214185552217  0.3218348345495480  0.6578764330396918
  0.6725843581266274  0.6724934229161431 -0.0104994664517199
  0.6654462783699180  0.6797440031283354  0.3316944101676568
  0.6783040114138515  0.6658803841568978  0.6765604419186096
 -0.0031291013065836  0.1684090286169469 -0.0018269746187920
 -0.0009846826443094  0.8333616271551904  0.3420000151254069
  0.0082610371939733  0.8348102490096803  0.6616556488245382
  0.3319697498972479  0.5001690930563749 -0.0006063168790280
  0.3374968666853755  0.8352477901603013  0.3349706566134113
  0.3281859590310688  0.8339472996658795  0.6649366291008756
  0.6743831506201392  0.1684392035405479  0.6749563118781150
  0.6664656472410498  0.8335330029521972  0.0067091832878219
  0.6624565853232826  0.8312959053711605  0.3276665463789700
  0.1672182900733611 -0.0046890501113384 -0.0069563484343541
  0.1667949694809230  0.6625864742171901  0.3260655469108084
  0.4987471474677415  0.0030985806061879  0.6692712986963260
  0.4995362123158096  0.3342044402919244  0.3406978161744943
  0.4975748822460446  0.3315624625050241  0.6617644949656510
  0.8329514967586372  0.0050167097721366  0.3313315816135510
  0.8324333504712000  0.3415166542088929  0.0014245905479708
  0.8342446991048722  0.6558777386269354 -0.0023148140096792
  0.8337885878806557  0.6657021393810006  0.6704242124495340
  0.0044018477781717 -0.0022232554373915  0.1662110635504395
 -0.0062084157959162  0.3363322746826651  0.5007062172701617
  0.0016597044774313  0.6535430630324189  0.5010018093528504
  0.3325662234448399  0.0048080767037893  0.1657764581246626
  0.3336943879077482  0.3278578760162086  0.1661844876066697
  0.3315475378337217  0.6593031297286395  0.5012666881196639
  0.6663228345509815  0.0030126303595535  0.4995539080586235
  0.6795241555956530  0.3316020137469134  0.4989550888388947
  0.6609544301632935  0.6656085742088554  0.8343551542124191
  0.0053936719682651  0.1712021032711580  0.3323716336269978
 -0.0059531377701589  0.1693478099534882  0.6722449745661393
  0.0128066145240957  0.4990106788526005  0.0014179344862988
 -0.0071244310645273  0.4971484276432031  0.3241204649466784
  0.0050252747723939  0.4968978861651122  0.6760193292115585
 -0.0067822237727094  0.8306305366961413 -0.0055092046818321
  0.3338723933042601  0.1682242356524201 -0.0081443074308634
  0.3271141570146884  0.1692907515893448  0.3420840987666374
  0.3257910124089125  0.1690162871769325  0.6657636097699884
  0.3335977072489946  0.4991805795691917  0.3271528829865062
  0.3303817659325383  0.4988824357524680  0.6764128552506045
  0.3401262748757691  0.8307835470135008 -0.0019056637664549
  0.6687981603404546  0.1674247103591167 -0.0060005390434505
  0.6664512869360949  0.1692735295485355  0.3243090495477447
  0.6541757880202796  0.4984337877893759  0.0045597299192522
  0.6721997512211803  0.4999238342785812  0.3301827706574985
  0.6653358556604843  0.4988589623803467  0.6650666266688293
  0.6656993291884769  0.8329716046276752  0.6652743483988512
  0.1664851057633644  0.0057127976311543  0.3408088105282970
  0.1657368561820667  0.0114415286201538  0.6710326716672750
  0.1671026997275869  0.3312739054446679 -0.0032688113246167
  0.1649563020150867  0.3394225517952355  0.3360984803405066
  0.1649247892966098  0.3311916664496889  0.6674804257155162
  0.1669762873763961  0.6737068030503720  0.0024207965716885
  0.1669058186133904  0.6584672619420973  0.6761369332976425
  0.5004566789281509  0.0042981239541907 -0.0067084368802550
  0.4997301992186317  0.0111429920484156  0.3334701814595836
  0.5013379739450544  0.3285375438012471 -0.0038572075870591
  0.4985623474990019  0.6661525222304026  0.0043896487792136
  0.5004175296519878  0.6563979888031640  0.3305079897841803
  0.5006906194071503  0.6639203585097337  0.6654237503836389
  0.8315184950010471  0.0004710980767083  0.0010861777353331
  0.8350610245200284 -0.0048781894903625  0.6672469883740808
  0.8351353260433255  0.3294835122501467  0.3201717926098337
  0.8361906594844620  0.3422160877047818  0.6787762826399137
  0.8316152578601704  0.6624522649351746  0.3296504648966596
  0.0017700874549475  0.0146424020633627  0.5029310115540833
 -0.0064196499141153 -0.0007758944840596  0.8324908072119873
  0.0075417910196191  0.3338872236614626  0.1680380819280632
  0.0040068167555303  0.3361549310220032  0.8321157392809309
 -0.0022684280122534  0.6671910246543110  0.1644440565682634
  0.0071726100383254  0.6636352762988564  0.8348236125171441
  0.3312198381500288  0.0076900199787286  0.5000379805224449
  0.3344582374483624  0.0023503405288337  0.8340445446020538
  0.3219594251074683  0.3405719509700560  0.5011560920058834
  0.3315532635968879  0.3307438319564087  0.8335219206928759
  0.3375089302495644  0.6682531759824890  0.1645331619260653
  0.3365423919942070  0.6677933809266436  0.8348930735733424
  0.6599592797775491  0.0091606412566653  0.1637945687303584
  0.6718837679760271 -0.0055786655675713  0.8344426959212999
  0.6620447097029269  0.3323772243502021  0.1652158363565345
  0.6646089107139678  0.3424278048816456  0.8348347820011390
  0.6647984298691674  0.6584139030525575  0.1655781698719177
  0.6645853894234879  0.6644003046730681  0.4989452997492453
 
  0.00000000E+00  0.00000000E+00  0.00000000E+00
  0.00000000E+00  0.00000000E+00  0.00000000E+00
  0.00000000E+00  0.00000000E+00  0.00000000E+00
  0.00000000E+00  0.00000000E+00  0.00000000E+00
  0.00000000E+00  0.00000000E+00  0.00000000E+00
  0.00000000E+00  0.00000000E+00  0.00000000E+00
  0.00000000E+00  0.00000000E+00  0.00000000E+00
  0.00000000E+00  0.00000000E+00  0.00000000E+00
  0.00000000E+00  0.00000000E+00  0.00000000E+00
  0.00000000E+00  0.00000000E+00  0.00000000E+00
  0.00000000E+00  0.00000000E+00  0.00000000E+00
  0.00000000E+00  0.00000000E+00  0.00000000E+00
  0.00000000E+00  0.00000000E+00  0.00000000E+00
  0.00000000E+00  0.00000000E+00  0.00000000E+00
  0.00000000E+00  0.00000000E+00  0.00000000E+00
  0.00000000E+00  0.00000000E+00  0.00000000E+00
  0.00000000E+00  0.00000000E+00  0.00000000E+00
  0.00000000E+00  0.00000000E+00  0.00000000E+00
  0.00000000E+00  0.00000000E+00  0.00000000E+00
  0.00000000E+00  0.00000000E+00  0.00000000E+00
  0.00000000E+00  0.00000000E+00  0.00000000E+00
  0.00000000E+00  0.00000000E+00  0.00000000E+00
  0.00000000E+00  0.00000000E+00  0.00000000E+00
  0.00000000E+00  0.00000000E+00  0.00000000E+00
  0.00000000E+00  0.00000000E+00  0.00000000E+00
  0.00000000E+00  0.00000000E+00  0.00000000E+00
  0.00000000E+00  0.00000000E+00  0.00000000E+00
  0.00000000E+00  0.00000000E+00  0.00000000E+00
  0.00000000E+00  0.00000000E+00  0.00000000E+00
  0.00000000E+00  0.00000000E+00  0.00000000E+00
  0.00000000E+00  0.00000000E+00  0.00000000E+00
  0.00000000E+00  0.00000000E+00  0.00000000E+00
  0.00000000E+00  0.00000000E+00  0.00000000E+00
  0.00000000E+00  0.00000000E+00  0.00000000E+00
  0.00000000E+00  0.00000000E+00  0.00000000E+00
  0.00000000E+00  0.00000000E+00  0.00000000E+00
  0.00000000E+00  0.00000000E+00  0.00000000E+00
  0.00000000E+00  0.00000000E+00  0.00000000E+00
  0.00000000E+00  0.00000000E+00  0.00000000E+00
  0.00000000E+00  0.00000000E+00  0.00000000E+00
  0.00000000E+00  0.00000000E+00  0.00000000E+00
  0.00000000E+00  0.00000000E+00  0.00000000E+00
  0.00000000E+00  0.00000000E+00  0.00000000E+00
  0.00000000E+00  0.00000000E+00  0.00000000E+00
  0.00000000E+00  0.00000000E+00  0.00000000E+00
  0.00000000E+00  0.00000000E+00  0.00000000E+00
  0.00000000E+00  0.00000000E+00  0.00000000E+00
  0.00000000E+00  0.00000000E+00  0.00000000E+00
  0.00000000E+00  0.00000000E+00  0.00000000E+00
  0.00000000E+00  0.00000000E+00  0.00000000E+00
  0.00000000E+00  0.00000000E+00  0.00000000E+00
  0.00000000E+00  0.00000000E+00  0.00000000E+00
  0.00000000E+00  0.00000000E+00  0.00000000E+00
  0.00000000E+00  0.00000000E+00  0.00000000E+00
  0.00000000E+00  0.00000000E+00  0.00000000E+00
  0.00000000E+00  0.00000000E+00  0.00000000E+00
  0.00000000E+00  0.00000000E+00  0.00000000E+00
  0.00000000E+00  0.00000000E+00  0.00000000E+00
  0.00000000E+00  0.00000000E+00  0.00000000E+00
  0.00000000E+00  0.00000000E+00  0.00000000E+00
  0.00000000E+00  0.00000000E+00  0.00000000E+00
  0.00000000E+00  0.00000000E+00  0.00000000E+00
  0.00000000E+00  0.00000000E+00  0.00000000E+00
  0.00000000E+00  0.00000000E+00  0.00000000E+00
  0.00000000E+00  0.00000000E+00  0.00000000E+00
  0.00000000E+00  0.00000000E+00  0.00000000E+00
  0.00000000E+00  0.00000000E+00  0.00000000E+00
  0.00000000E+00  0.00000000E+00  0.00000000E+00
  0.00000000E+00  0.00000000E+00  0.00000000E+00
  0.00000000E+00  0.00000000E+00  0.00000000E+00
  0.00000000E+00  0.00000000E+00  0.00000000E+00
  0.00000000E+00  0.00000000E+00  0.00000000E+00
  0.00000000E+00  0.00000000E+00  0.00000000E+00
  0.00000000E+00  0.00000000E+00  0.00000000E+00
  0.00000000E+00  0.00000000E+00  0.00000000E+00
  0.00000000E+00  0.00000000E+00  0.00000000E+00
  0.00000000E+00  0.00000000E+00  0.00000000E+00
  0.00000000E+00  0.00000000E+00  0.00000000E+00
  0.00000000E+00  0.00000000E+00  0.00000000E+00
  0.00000000E+00  0.00000000E+00  0.00000000E+00
  0.00000000E+00  0.00000000E+00  0.00000000E+00
  0.00000000E+00  0.00000000E+00  0.00000000E+00
  0.00000000E+00  0.00000000E+00  0.00000000E+00
  0.00000000E+00  0.00000000E+00  0.00000000E+00
  0.00000000E+00  0.00000000E+00  0.00000000E+00
  0.00000000E+00  0.00000000E+00  0.00000000E+00
  0.00000000E+00  0.00000000E+00  0.00000000E+00
  0.00000000E+00  0.00000000E+00  0.00000000E+00
  0.00000000E+00  0.00000000E+00  0.00000000E+00
  0.00000000E+00  0.00000000E+00  0.00000000E+00
  0.00000000E+00  0.00000000E+00  0.00000000E+00
  0.00000000E+00  0.00000000E+00  0.00000000E+00
  0.00000000E+00  0.00000000E+00  0.00000000E+00
  0.00000000E+00  0.00000000E+00  0.00000000E+00
  0.00000000E+00  0.00000000E+00  0.00000000E+00
  0.00000000E+00  0.00000000E+00  0.00000000E+00
  0.00000000E+00  0.00000000E+00  0.00000000E+00
  0.00000000E+00  0.00000000E+00  0.00000000E+00
  0.00000000E+00  0.00000000E+00  0.00000000E+00
  0.00000000E+00  0.00000000E+00  0.00000000E+00
  0.00000000E+00  0.00000000E+00  0.00000000E+00
  0.00000000E+00  0.00000000E+00  0.00000000E+00
  0.00000000E+00  0.00000000E+00  0.00000000E+00
  0.00000000E+00  0.00000000E+00  0.00000000E+00
  0.00000000E+00  0.00000000E+00  0.00000000E+00
  0.00000000E+00  0.00000000E+00  0.00000000E+00
  0.00000000E+00  0.00000000E+00  0.00000000E+00
  0.00000000E+00  0.00000000E+00  0.00000000E+00
