config 20                               
   1.00000000000000     
    15.4263309999999993    0.0000000000000000    0.0000000000000000
     0.0000000000000000   15.4263309999999993    0.0000000000000000
     0.0000000000000000    0.0000000000000000   15.4263309999999993
   Li   Ti   O    F 
     1    64    64   128
Direct
  0.3831836180254690  0.1268295452355790  0.9258203206613599
  0.9947425762262377  0.9960426332217468  0.9940055070765677
  0.0000862520090625  0.9914615018930714  0.4933575459051494
  0.0052733259854840  0.4948821728031261  0.9975134336801340
  0.9940892857647091  0.5026741193067907  0.5071198379023283
  0.4948769078524518  0.9916919237734160  0.9996954134859204
  0.5012106258263757  0.0081313820223020  0.4985517477096590
  0.5032865481666831  0.4965217345999651  0.9962737434267677
  0.4919387291730097  0.4987749541460264  0.4953770640552639
  0.0070934204133219  0.0029276002847820  0.2555025142876808
  0.0023381582216717  0.0072269462971869  0.7565580209554091
  0.9939541405128688  0.4935228657811618  0.2513441192141703
  0.9927151113171533  0.4990295056195221  0.7418439591486834
  0.5059089637161800  0.0086428212862848  0.2500595782701943
  0.4940954447948769  0.0063162195384288  0.7528786530367464
  0.4932590071203451  0.4961812003111361  0.2573739708084531
  0.5008799109588028  0.5055329467380337  0.7587369812522934
  0.9949067279903943  0.2568891898432014  0.0007882650081806
  0.9995440885452126  0.2477457259540410  0.4911780642450495
  0.9975297743868439  0.7583359335877916  0.0060058634776251
  0.9972798769057726  0.7562134010961519  0.5057322429936301
  0.4955286147078035  0.2612590173633269  0.0015121375957121
  0.5081732291418810  0.2447773639144562  0.4996423394142669
  0.5062753701936258  0.7559389490289377  0.9995941053864096
  0.5067279689667336  0.7523402386897020  0.5083980989227136
  0.0005410078765231  0.2581838804258093  0.2551302186661827
  0.0051064341716535  0.2421133986753713  0.7467569307997783
  0.0068226068275841  0.7483725217721475  0.2428821378707293
  0.9928051715423939  0.7505493169955519  0.7430552300285578
  0.5077692535524942  0.2413929138359810  0.2515066692122647
  0.5043404166264074  0.2473662025746871  0.7494117253373900
  0.5066651051933486  0.7514729693874217  0.2516580473509508
  0.5015190306664091  0.7431686495338929  0.7432594121824050
  0.2560528474289436  0.9979708554384775  0.0064691706656938
  0.2514913723367073  0.9938248565408956  0.5072269994343218
  0.2428623334883302  0.5078251704487619  0.9973975218366059
  0.2543762254595971  0.4942894692734103  0.5065890563548742
  0.7570425631115725  0.0015888250601010  0.9930593623461144
  0.7496179284403288  0.0069615459416435  0.4942788445555071
  0.7416069603432235  0.4998647564138773  0.0050302895402570
  0.7554387265649585  0.4979480478601401  0.5054685592840578
  0.2452298488658848  0.0025126451906490  0.2440013147756542
  0.2593788950941016  0.9968368500574430  0.7449003653296560
  0.2554494486292805  0.4925360787546024  0.2514766972255945
  0.2468250397090799  0.5060390741566464  0.7412030865037132
  0.7441291954183116  0.0006331609211130  0.2551735902059848
  0.7482272570502727  0.0075271783784369  0.7555241827134016
  0.7559400150349380  0.4986378159240636  0.2427442030280988
  0.7572182570768939  0.4984436631229593  0.7426787799421091
  0.2566573605421845  0.2524925836612338  0.0065752797422597
  0.2539476742068883  0.2564172158141160  0.5055421889283341
  0.2512214221827341  0.7424344225945801  0.9929762748563742
  0.2518605774106294  0.7553887973794629  0.4926113700736744
  0.7580718431535665  0.2503597656414749  0.0062540453822358
  0.7423258915672549  0.2428044028205112  0.4990974956371277
  0.7418882829892870  0.7506321762862505  0.9937596203925138
  0.7415035145138612  0.7524132288371319  0.4938518646428401
  0.2517349183878803  0.2578787229382549  0.2447815626180143
  0.2428936413452176  0.2512936965286022  0.7430010124081202
  0.2439929018194203  0.7481347138834635  0.2554314153360717
  0.2477357495267107  0.7416346117891750  0.7562165648885842
  0.7431944980551868  0.2507977095223823  0.2416560403016702
  0.7427616516816925  0.2430868392127694  0.7499788527352639
  0.7456860318574468  0.7500045366553600  0.2565638550327880
  0.7572549464568027  0.7512554854324166  0.7563913778260438
  0.0082472041320403  0.5019663105264780  0.6244907147444132
  0.0018293378795002  0.0053565127247820  0.3754270621032798
  0.0053696908956731  0.0021348266160603  0.8730375815422008
  0.4993830456903409  0.4897451873016750  0.3749711748656617
  0.4938944429526431  0.4947425117716890  0.8759353254032367
  0.9988323228863806  0.7460783362370260  0.1253681825811954
  0.0009556773673594  0.7457116974989104  0.6239140473390901
  0.5014710995318042  0.7472033580110130  0.6237926247424617
  0.0019696418283677  0.2467012889609400  0.3761048792581956
  0.2611369164898521  0.0044626224281745  0.1243139269142405
  0.2613134878774981  0.0040917449108633  0.6246861379361693
  0.2390752941891241  0.4959339550373350  0.6257052602890971
  0.7504644635696498  0.4910548467942603  0.1255370200353123
  0.7458048259986081  0.4935948791251193  0.6241616550824814
  0.7451278973682735  0.9996988059261139  0.3753874409306535
  0.7412651727445821  0.9992675029627685  0.8742681459105256
  0.2537609114370272  0.2485340999188240  0.1251785241495384
  0.2579068048489545  0.2481181031186740  0.6249178906781276
  0.7506142713916771  0.2593224845478249  0.1259005775473838
  0.2543045112571940  0.7471127579275482  0.3740043538112248
  0.2513683828101948  0.7535331529584788  0.8749977946050578
  0.7521496892937906  0.7509511492710504  0.3737891716341774
  0.7481245992998271  0.7519058975717242  0.8756945354196576
  0.1242291394123896  0.4974341440904734  0.9944215341649174
  0.6251232481925941  0.5013490469092288  0.9985318368413025
  0.1262588823175119  0.0042524034409716  0.2459005188616885
  0.6245524061994482  0.0032106655042060  0.2439730216514123
  0.6247460347516279  0.2583673235011540  0.5028637347268855
  0.6235656844173368  0.7502992923606320  0.0029759488096643
  0.6245501082506240  0.7632568191799426  0.4958043913957545
  0.1240365651753156  0.2513657327484410  0.7441701202239397
  0.1254197159779043  0.7502589908747334  0.2511938961390087
  0.6254106628914704  0.2430518878186642  0.2521622132659462
  0.6287812040167466  0.2528274144447775  0.7397357494784411
  0.6227486315057428  0.7521150530146304  0.2507782804563813
  0.3759623880310357  0.0123668106012424  0.9822488433607158
  0.3753327473477135  0.5060899168918217  0.5038734041021357
  0.8730847527161060  0.0077509394755270  0.9959008881497013
  0.8753176979348449  0.5039896123231583  0.4996573008874972
  0.3743390568435924  0.9947383817550006  0.7652960199788233
  0.3737725582542094  0.4946502517499001  0.2484440427677366
  0.8757661960773471  0.4955974852700004  0.2519749002726077
  0.8753075158864349  0.5078650781698043  0.7461817316601722
  0.3754375581554871  0.2366204742808257  0.9911584267368019
  0.8745993203285201  0.2430707904841817  0.9995603475447964
  0.8747622088732466  0.7450021662710685  0.7494850384845855
  0.5120066637304549  0.1219954377929132  0.4880575775766822
  0.9961499694446174  0.1256001195864927  0.7440223199535583
  0.4938547276205573  0.1247729731255972  0.2670667270976472
  0.4979724737223173  0.1193836980238515  0.7603506779863576
  0.5014909897917003  0.6264817280934818  0.7547412307359386
  0.9958578512036127  0.3746588587009990  0.0039702487954123
  0.9964965838133545  0.8754947252639554  0.0013093281358226
  0.9939628958714267  0.8746061324319708  0.4979200802449147
  0.4936658877110260  0.3754013075897388  0.0146830354762634
  0.4938880387623242  0.8751026814770838  0.0112631123733232
  0.0087232576290310  0.3738028551829816  0.2471024033780929
  0.2477703384578286  0.6252772819432718  0.0006860223005699
  0.7404210806819889  0.1246851505305383  0.5045794073005224
  0.2464745598471205  0.6244122873055061  0.7512305548125648
  0.7533516944781329  0.1238419328629429  0.7440733556599644
  0.2538165034405793  0.3728277216767991  0.4942638633163052
  0.2546160780353965  0.8753001194161241  0.5000336277372672
  0.2406434170908291  0.3741361841875077  0.2547642974837973
  0.9963658876101201  0.0028727891341043  0.1264011890501451
  0.9979944523095917  0.9976937247592590  0.6231615132768703
  0.0008864065947902  0.5080362009879067  0.1250128264932693
  0.4876115506627872  0.0145514264788631  0.1252545378175910
  0.4898221225749900  0.0029418023097121  0.6219172809703495
  0.5024766873690431  0.5114588689530271  0.1279196550577491
  0.5079682985126373  0.5071582621609719  0.6238058037879819
  0.0032169477918815  0.4962236695325510  0.3758932076641991
  0.9946949013574773  0.4979498042749819  0.8729987338028419
  0.5099623097923023  0.9836516083576348  0.3757046917620773
  0.5202581165281335  0.9866486633630563  0.8765288834129279
  0.0016913799472103  0.2452639303293454  0.1270068947189722
  0.9938025604808042  0.2571256881086550  0.6209182212782711
  0.4966828947561568  0.2322722023971348  0.1264402393084367
  0.4866703852814135  0.2376427696302116  0.6196246428291239
  0.4960166822595377  0.7411145192955119  0.1268875711045590
  0.0023769744776421  0.2502455728020540  0.8744238067462264
  0.9945229851342253  0.7498532489127314  0.3747076665106996
  0.0011751659102183  0.7506822480886637  0.8740653008686066
  0.5002108334780501  0.2671173981836328  0.3752915129476053
  0.5084243772510747  0.2618452665116114  0.8786721410508560
  0.4925909443544090  0.7591919603303697  0.3749845204126017
  0.4974849253616935  0.7573421320830428  0.8748253573823411
  0.2441749314271882  0.4949143664993563  0.1245266821648005
  0.7532308635429871  0.0029671306656404  0.1260897501550520
  0.7529301441534937  0.9943049938739711  0.6226491929160426
  0.2472796425497575  0.0002974635520159  0.3745865820671520
  0.2374767520384709  0.9946562227028349  0.8749725732029631
  0.2474924180190827  0.5098922098634192  0.3748894735882912
  0.2590773914912952  0.4962927782969940  0.8738520517031231
  0.7468365155487633  0.5064438296347499  0.3745706500150420
  0.7526523655397538  0.5064597960321834  0.8744845020238164
  0.2518237957390254  0.7541101111489514  0.1243457065331440
  0.2489006172607264  0.7493506494948966  0.6245509989578497
  0.7610215643563958  0.2608035942727149  0.6224798394529650
  0.7519035798745355  0.7491866604443067  0.1256047633154768
  0.7477457838010638  0.7496680179156524  0.6240890805648502
  0.2461555390523287  0.2437484639869915  0.3739585126357476
  0.2454184330184595  0.2509476979815204  0.8756552910729684
  0.7543665723852350  0.2434254077761878  0.3741041221504197
  0.7455419663869959  0.2443832182392256  0.8769346166440275
  0.1272747177347204  0.9975995816791928  0.0073368286812026
  0.1252995854450202  0.0009466936432532  0.5047989521939077
  0.1233854459004785  0.4970530458757400  0.4919839910686321
  0.6230864863545333  0.9987334455287343  0.0128438297445688
  0.6238743509549620  0.9825412947458334  0.5085527949765691
  0.6254196005053066  0.4918559082113592  0.4970550234291767
  0.1269538177517641  0.0006831580392308  0.7410790479618837
  0.1241669101154391  0.5087051038676915  0.2494916197973504
  0.1231214880375954  0.4929450936543441  0.7629270395257334
  0.6241438322317884  0.9946748579442147  0.7354899295778659
  0.6251747502967779  0.5012191177634744  0.2503048397298338
  0.6267508188825133  0.4946541389767575  0.7561167274107168
  0.1261903395330903  0.2540592555250505  0.0009733449448106
  0.1240002886028855  0.2486993853446715  0.5044884458815166
  0.1251845401550547  0.7535866654940090  0.0005122532585756
  0.1240879450347018  0.7523165384992646  0.4959388598722921
  0.6246115627934788  0.2532217210551050  0.0048263091142212
  0.1252438559578422  0.2354708973920656  0.2488941924687582
  0.1230356842241461  0.7532351266524241  0.7506976173849143
  0.6264070108021803  0.7539129623022638  0.7503476384508653
  0.3777228937129078  0.0086336344024796  0.4867330322861301
  0.3729440012980795  0.5034109891635913  0.0081077734085807
  0.8747843990641916  0.0096759357222756  0.5006189323660988
  0.8744828452030937  0.5026704837869074  0.9997467774650430
  0.3773724389577192  0.9943611121338157  0.2602286410556393
  0.3741399074305040  0.5010709242361411  0.7414144151122769
  0.8740888348553986  0.9975491512705319  0.2510794232989319
  0.8748921463889578  0.9919812598628051  0.7488835605405098
  0.3785437677281264  0.2405482931856106  0.4887533570440092
  0.3763314869793508  0.7480254544298741  0.0018865338681492
  0.3770849935393680  0.7413062523728030  0.5013928454853964
  0.8747810326508518  0.2457031301748928  0.4974094316402235
  0.8719174186662467  0.7487697333117130  0.9990978420426589
  0.8723662067043747  0.7402865743791972  0.5025278279485490
  0.3778255481536810  0.2586577562351783  0.2544969353851604
  0.3733125854247504  0.2480301750016347  0.7617177070247236
  0.3768571001980155  0.7503248745071166  0.2468327545507051
  0.3744226778650528  0.7540785003576076  0.7480756335142277
  0.8746634338006816  0.2566577275653213  0.2513763522167859
  0.8758370062205026  0.2544650549928903  0.7530255483808985
  0.8737518572666119  0.7497315860029895  0.2486141283270364
  0.0090028171483565  0.1269775011084021  0.0012141085674421
  0.0017482973583514  0.1251534436859013  0.5082948991083210
  0.9991303794629113  0.6253715938272709  0.9947195323207424
  0.0050840936403668  0.6262844490209590  0.4922215064023994
  0.5026666731037043  0.1241541679485249  0.9827741020694376
  0.4956813627188000  0.6276618786397018  0.9969088271701725
  0.5095047882915268  0.6264934583568431  0.4905611249730055
  0.9909409964138083  0.1274560921006641  0.2466751338872059
  0.9969777012463940  0.6232955190795276  0.2563962290218574
  0.0102768551872198  0.6245066795596810  0.7554859533772684
  0.4988329447145036  0.6260662679854431  0.2593966406457036
  0.9986521602766870  0.3734996784078256  0.4982420933946164
  0.4916506166737506  0.3718308817383509  0.5110839100580670
  0.4866138651267780  0.8777876736889191  0.5030481328371277
  0.9962094835650264  0.3745142008180221  0.7505122251106884
  0.9972508603463960  0.8760077921081980  0.2507816652845082
  0.0013158217560771  0.8753929510374878  0.7471889521171162
  0.5052619722891251  0.3713497121888662  0.2362182040629875
  0.4951086247090539  0.3797329200818843  0.7385944077573426
  0.4978881735293565  0.8762882930385612  0.2398308143701789
  0.5018533969032160  0.8729629155133845  0.7466288132821408
  0.2444242157143452  0.1249373814540514  0.9885310462441754
  0.2474543898189213  0.1241464097322669  0.4956600745610520
  0.2436395690055301  0.6260873273866461  0.5033541439361741
  0.7376897203855303  0.1263806896300156  0.0043161059429734
  0.7533957238313455  0.6257756047033592  0.0044130740522582
  0.7409879208587445  0.6255157024738678  0.5019324685600367
  0.2615865603039356  0.1263188239737807  0.2536031499412991
  0.2514290015958807  0.1242205415614346  0.7596473198938846
  0.2530290896171286  0.6236297300649859  0.2412829745093970
  0.7609480910617968  0.1260354386319653  0.2476141248122579
  0.7493913694594717  0.6249607645725622  0.2458799304793467
  0.7401588401609104  0.6253284831982093  0.7466983685848012
  0.2574584818797810  0.3762237592463475  0.9988527445979993
  0.2559572574562945  0.8741749020777854  0.0031843360985038
  0.7527787809101761  0.3746381091065378  0.9872722541925339
  0.7573451042742833  0.3724092573096920  0.4892597162425004
  0.7510522546270629  0.8756918325626616  0.0074596685918240
  0.7634754226356525  0.8762281391752221  0.5015708957553150
  0.2539715545798094  0.3756626847945638  0.7552043083787767
  0.2531888623822793  0.8758156595643354  0.2491829463339318
  0.2448155478228611  0.8726408165350814  0.7445460038428833
  0.7452959072493730  0.3740877887195367  0.2646251520792762
  0.7560662430609210  0.3745368700304087  0.7588646372019712
  0.7521979509508868  0.8753642526617360  0.2440434110200448
  0.7504134667318602  0.8750914397250905  0.7453377107135012
 
  0.00000000E+00  0.00000000E+00  0.00000000E+00
  0.00000000E+00  0.00000000E+00  0.00000000E+00
  0.00000000E+00  0.00000000E+00  0.00000000E+00
  0.00000000E+00  0.00000000E+00  0.00000000E+00
  0.00000000E+00  0.00000000E+00  0.00000000E+00
  0.00000000E+00  0.00000000E+00  0.00000000E+00
  0.00000000E+00  0.00000000E+00  0.00000000E+00
  0.00000000E+00  0.00000000E+00  0.00000000E+00
  0.00000000E+00  0.00000000E+00  0.00000000E+00
  0.00000000E+00  0.00000000E+00  0.00000000E+00
  0.00000000E+00  0.00000000E+00  0.00000000E+00
  0.00000000E+00  0.00000000E+00  0.00000000E+00
  0.00000000E+00  0.00000000E+00  0.00000000E+00
  0.00000000E+00  0.00000000E+00  0.00000000E+00
  0.00000000E+00  0.00000000E+00  0.00000000E+00
  0.00000000E+00  0.00000000E+00  0.00000000E+00
  0.00000000E+00  0.00000000E+00  0.00000000E+00
  0.00000000E+00  0.00000000E+00  0.00000000E+00
  0.00000000E+00  0.00000000E+00  0.00000000E+00
  0.00000000E+00  0.00000000E+00  0.00000000E+00
  0.00000000E+00  0.00000000E+00  0.00000000E+00
  0.00000000E+00  0.00000000E+00  0.00000000E+00
  0.00000000E+00  0.00000000E+00  0.00000000E+00
  0.00000000E+00  0.00000000E+00  0.00000000E+00
  0.00000000E+00  0.00000000E+00  0.00000000E+00
  0.00000000E+00  0.00000000E+00  0.00000000E+00
  0.00000000E+00  0.00000000E+00  0.00000000E+00
  0.00000000E+00  0.00000000E+00  0.00000000E+00
  0.00000000E+00  0.00000000E+00  0.00000000E+00
  0.00000000E+00  0.00000000E+00  0.00000000E+00
  0.00000000E+00  0.00000000E+00  0.00000000E+00
  0.00000000E+00  0.00000000E+00  0.00000000E+00
  0.00000000E+00  0.00000000E+00  0.00000000E+00
  0.00000000E+00  0.00000000E+00  0.00000000E+00
  0.00000000E+00  0.00000000E+00  0.00000000E+00
  0.00000000E+00  0.00000000E+00  0.00000000E+00
  0.00000000E+00  0.00000000E+00  0.00000000E+00
  0.00000000E+00  0.00000000E+00  0.00000000E+00
  0.00000000E+00  0.00000000E+00  0.00000000E+00
  0.00000000E+00  0.00000000E+00  0.00000000E+00
  0.00000000E+00  0.00000000E+00  0.00000000E+00
  0.00000000E+00  0.00000000E+00  0.00000000E+00
  0.00000000E+00  0.00000000E+00  0.00000000E+00
  0.00000000E+00  0.00000000E+00  0.00000000E+00
  0.00000000E+00  0.00000000E+00  0.00000000E+00
  0.00000000E+00  0.00000000E+00  0.00000000E+00
  0.00000000E+00  0.00000000E+00  0.00000000E+00
  0.00000000E+00  0.00000000E+00  0.00000000E+00
  0.00000000E+00  0.00000000E+00  0.00000000E+00
  0.00000000E+00  0.00000000E+00  0.00000000E+00
  0.00000000E+00  0.00000000E+00  0.00000000E+00
  0.00000000E+00  0.00000000E+00  0.00000000E+00
  0.00000000E+00  0.00000000E+00  0.00000000E+00
  0.00000000E+00  0.00000000E+00  0.00000000E+00
  0.00000000E+00  0.00000000E+00  0.00000000E+00
  0.00000000E+00  0.00000000E+00  0.00000000E+00
  0.00000000E+00  0.00000000E+00  0.00000000E+00
  0.00000000E+00  0.00000000E+00  0.00000000E+00
  0.00000000E+00  0.00000000E+00  0.00000000E+00
  0.00000000E+00  0.00000000E+00  0.00000000E+00
  0.00000000E+00  0.00000000E+00  0.00000000E+00
  0.00000000E+00  0.00000000E+00  0.00000000E+00
  0.00000000E+00  0.00000000E+00  0.00000000E+00
  0.00000000E+00  0.00000000E+00  0.00000000E+00
  0.00000000E+00  0.00000000E+00  0.00000000E+00
  0.00000000E+00  0.00000000E+00  0.00000000E+00
  0.00000000E+00  0.00000000E+00  0.00000000E+00
  0.00000000E+00  0.00000000E+00  0.00000000E+00
  0.00000000E+00  0.00000000E+00  0.00000000E+00
  0.00000000E+00  0.00000000E+00  0.00000000E+00
  0.00000000E+00  0.00000000E+00  0.00000000E+00
  0.00000000E+00  0.00000000E+00  0.00000000E+00
  0.00000000E+00  0.00000000E+00  0.00000000E+00
  0.00000000E+00  0.00000000E+00  0.00000000E+00
  0.00000000E+00  0.00000000E+00  0.00000000E+00
  0.00000000E+00  0.00000000E+00  0.00000000E+00
  0.00000000E+00  0.00000000E+00  0.00000000E+00
  0.00000000E+00  0.00000000E+00  0.00000000E+00
  0.00000000E+00  0.00000000E+00  0.00000000E+00
  0.00000000E+00  0.00000000E+00  0.00000000E+00
  0.00000000E+00  0.00000000E+00  0.00000000E+00
  0.00000000E+00  0.00000000E+00  0.00000000E+00
  0.00000000E+00  0.00000000E+00  0.00000000E+00
  0.00000000E+00  0.00000000E+00  0.00000000E+00
  0.00000000E+00  0.00000000E+00  0.00000000E+00
  0.00000000E+00  0.00000000E+00  0.00000000E+00
  0.00000000E+00  0.00000000E+00  0.00000000E+00
  0.00000000E+00  0.00000000E+00  0.00000000E+00
  0.00000000E+00  0.00000000E+00  0.00000000E+00
  0.00000000E+00  0.00000000E+00  0.00000000E+00
  0.00000000E+00  0.00000000E+00  0.00000000E+00
  0.00000000E+00  0.00000000E+00  0.00000000E+00
  0.00000000E+00  0.00000000E+00  0.00000000E+00
  0.00000000E+00  0.00000000E+00  0.00000000E+00
  0.00000000E+00  0.00000000E+00  0.00000000E+00
  0.00000000E+00  0.00000000E+00  0.00000000E+00
  0.00000000E+00  0.00000000E+00  0.00000000E+00
  0.00000000E+00  0.00000000E+00  0.00000000E+00
  0.00000000E+00  0.00000000E+00  0.00000000E+00
  0.00000000E+00  0.00000000E+00  0.00000000E+00
  0.00000000E+00  0.00000000E+00  0.00000000E+00
  0.00000000E+00  0.00000000E+00  0.00000000E+00
  0.00000000E+00  0.00000000E+00  0.00000000E+00
  0.00000000E+00  0.00000000E+00  0.00000000E+00
  0.00000000E+00  0.00000000E+00  0.00000000E+00
  0.00000000E+00  0.00000000E+00  0.00000000E+00
  0.00000000E+00  0.00000000E+00  0.00000000E+00
  0.00000000E+00  0.00000000E+00  0.00000000E+00
  0.00000000E+00  0.00000000E+00  0.00000000E+00
  0.00000000E+00  0.00000000E+00  0.00000000E+00
  0.00000000E+00  0.00000000E+00  0.00000000E+00
  0.00000000E+00  0.00000000E+00  0.00000000E+00
  0.00000000E+00  0.00000000E+00  0.00000000E+00
  0.00000000E+00  0.00000000E+00  0.00000000E+00
  0.00000000E+00  0.00000000E+00  0.00000000E+00
  0.00000000E+00  0.00000000E+00  0.00000000E+00
  0.00000000E+00  0.00000000E+00  0.00000000E+00
  0.00000000E+00  0.00000000E+00  0.00000000E+00
  0.00000000E+00  0.00000000E+00  0.00000000E+00
  0.00000000E+00  0.00000000E+00  0.00000000E+00
  0.00000000E+00  0.00000000E+00  0.00000000E+00
  0.00000000E+00  0.00000000E+00  0.00000000E+00
  0.00000000E+00  0.00000000E+00  0.00000000E+00
  0.00000000E+00  0.00000000E+00  0.00000000E+00
  0.00000000E+00  0.00000000E+00  0.00000000E+00
  0.00000000E+00  0.00000000E+00  0.00000000E+00
  0.00000000E+00  0.00000000E+00  0.00000000E+00
  0.00000000E+00  0.00000000E+00  0.00000000E+00
  0.00000000E+00  0.00000000E+00  0.00000000E+00
  0.00000000E+00  0.00000000E+00  0.00000000E+00
  0.00000000E+00  0.00000000E+00  0.00000000E+00
  0.00000000E+00  0.00000000E+00  0.00000000E+00
  0.00000000E+00  0.00000000E+00  0.00000000E+00
  0.00000000E+00  0.00000000E+00  0.00000000E+00
  0.00000000E+00  0.00000000E+00  0.00000000E+00
  0.00000000E+00  0.00000000E+00  0.00000000E+00
  0.00000000E+00  0.00000000E+00  0.00000000E+00
  0.00000000E+00  0.00000000E+00  0.00000000E+00
  0.00000000E+00  0.00000000E+00  0.00000000E+00
  0.00000000E+00  0.00000000E+00  0.00000000E+00
  0.00000000E+00  0.00000000E+00  0.00000000E+00
  0.00000000E+00  0.00000000E+00  0.00000000E+00
  0.00000000E+00  0.00000000E+00  0.00000000E+00
  0.00000000E+00  0.00000000E+00  0.00000000E+00
  0.00000000E+00  0.00000000E+00  0.00000000E+00
  0.00000000E+00  0.00000000E+00  0.00000000E+00
  0.00000000E+00  0.00000000E+00  0.00000000E+00
  0.00000000E+00  0.00000000E+00  0.00000000E+00
  0.00000000E+00  0.00000000E+00  0.00000000E+00
  0.00000000E+00  0.00000000E+00  0.00000000E+00
  0.00000000E+00  0.00000000E+00  0.00000000E+00
  0.00000000E+00  0.00000000E+00  0.00000000E+00
  0.00000000E+00  0.00000000E+00  0.00000000E+00
  0.00000000E+00  0.00000000E+00  0.00000000E+00
  0.00000000E+00  0.00000000E+00  0.00000000E+00
  0.00000000E+00  0.00000000E+00  0.00000000E+00
  0.00000000E+00  0.00000000E+00  0.00000000E+00
  0.00000000E+00  0.00000000E+00  0.00000000E+00
  0.00000000E+00  0.00000000E+00  0.00000000E+00
  0.00000000E+00  0.00000000E+00  0.00000000E+00
  0.00000000E+00  0.00000000E+00  0.00000000E+00
  0.00000000E+00  0.00000000E+00  0.00000000E+00
  0.00000000E+00  0.00000000E+00  0.00000000E+00
  0.00000000E+00  0.00000000E+00  0.00000000E+00
  0.00000000E+00  0.00000000E+00  0.00000000E+00
  0.00000000E+00  0.00000000E+00  0.00000000E+00
  0.00000000E+00  0.00000000E+00  0.00000000E+00
  0.00000000E+00  0.00000000E+00  0.00000000E+00
  0.00000000E+00  0.00000000E+00  0.00000000E+00
  0.00000000E+00  0.00000000E+00  0.00000000E+00
  0.00000000E+00  0.00000000E+00  0.00000000E+00
  0.00000000E+00  0.00000000E+00  0.00000000E+00
  0.00000000E+00  0.00000000E+00  0.00000000E+00
  0.00000000E+00  0.00000000E+00  0.00000000E+00
  0.00000000E+00  0.00000000E+00  0.00000000E+00
  0.00000000E+00  0.00000000E+00  0.00000000E+00
  0.00000000E+00  0.00000000E+00  0.00000000E+00
  0.00000000E+00  0.00000000E+00  0.00000000E+00
  0.00000000E+00  0.00000000E+00  0.00000000E+00
  0.00000000E+00  0.00000000E+00  0.00000000E+00
  0.00000000E+00  0.00000000E+00  0.00000000E+00
  0.00000000E+00  0.00000000E+00  0.00000000E+00
  0.00000000E+00  0.00000000E+00  0.00000000E+00
  0.00000000E+00  0.00000000E+00  0.00000000E+00
  0.00000000E+00  0.00000000E+00  0.00000000E+00
  0.00000000E+00  0.00000000E+00  0.00000000E+00
  0.00000000E+00  0.00000000E+00  0.00000000E+00
  0.00000000E+00  0.00000000E+00  0.00000000E+00
  0.00000000E+00  0.00000000E+00  0.00000000E+00
  0.00000000E+00  0.00000000E+00  0.00000000E+00
  0.00000000E+00  0.00000000E+00  0.00000000E+00
  0.00000000E+00  0.00000000E+00  0.00000000E+00
  0.00000000E+00  0.00000000E+00  0.00000000E+00
  0.00000000E+00  0.00000000E+00  0.00000000E+00
  0.00000000E+00  0.00000000E+00  0.00000000E+00
  0.00000000E+00  0.00000000E+00  0.00000000E+00
  0.00000000E+00  0.00000000E+00  0.00000000E+00
  0.00000000E+00  0.00000000E+00  0.00000000E+00
  0.00000000E+00  0.00000000E+00  0.00000000E+00
  0.00000000E+00  0.00000000E+00  0.00000000E+00
  0.00000000E+00  0.00000000E+00  0.00000000E+00
  0.00000000E+00  0.00000000E+00  0.00000000E+00
  0.00000000E+00  0.00000000E+00  0.00000000E+00
  0.00000000E+00  0.00000000E+00  0.00000000E+00
  0.00000000E+00  0.00000000E+00  0.00000000E+00
  0.00000000E+00  0.00000000E+00  0.00000000E+00
  0.00000000E+00  0.00000000E+00  0.00000000E+00
  0.00000000E+00  0.00000000E+00  0.00000000E+00
  0.00000000E+00  0.00000000E+00  0.00000000E+00
  0.00000000E+00  0.00000000E+00  0.00000000E+00
  0.00000000E+00  0.00000000E+00  0.00000000E+00
  0.00000000E+00  0.00000000E+00  0.00000000E+00
  0.00000000E+00  0.00000000E+00  0.00000000E+00
  0.00000000E+00  0.00000000E+00  0.00000000E+00
  0.00000000E+00  0.00000000E+00  0.00000000E+00
  0.00000000E+00  0.00000000E+00  0.00000000E+00
  0.00000000E+00  0.00000000E+00  0.00000000E+00
  0.00000000E+00  0.00000000E+00  0.00000000E+00
  0.00000000E+00  0.00000000E+00  0.00000000E+00
  0.00000000E+00  0.00000000E+00  0.00000000E+00
  0.00000000E+00  0.00000000E+00  0.00000000E+00
  0.00000000E+00  0.00000000E+00  0.00000000E+00
  0.00000000E+00  0.00000000E+00  0.00000000E+00
  0.00000000E+00  0.00000000E+00  0.00000000E+00
  0.00000000E+00  0.00000000E+00  0.00000000E+00
  0.00000000E+00  0.00000000E+00  0.00000000E+00
  0.00000000E+00  0.00000000E+00  0.00000000E+00
  0.00000000E+00  0.00000000E+00  0.00000000E+00
  0.00000000E+00  0.00000000E+00  0.00000000E+00
  0.00000000E+00  0.00000000E+00  0.00000000E+00
  0.00000000E+00  0.00000000E+00  0.00000000E+00
  0.00000000E+00  0.00000000E+00  0.00000000E+00
  0.00000000E+00  0.00000000E+00  0.00000000E+00
  0.00000000E+00  0.00000000E+00  0.00000000E+00
  0.00000000E+00  0.00000000E+00  0.00000000E+00
  0.00000000E+00  0.00000000E+00  0.00000000E+00
  0.00000000E+00  0.00000000E+00  0.00000000E+00
  0.00000000E+00  0.00000000E+00  0.00000000E+00
  0.00000000E+00  0.00000000E+00  0.00000000E+00
  0.00000000E+00  0.00000000E+00  0.00000000E+00
  0.00000000E+00  0.00000000E+00  0.00000000E+00
  0.00000000E+00  0.00000000E+00  0.00000000E+00
  0.00000000E+00  0.00000000E+00  0.00000000E+00
  0.00000000E+00  0.00000000E+00  0.00000000E+00
  0.00000000E+00  0.00000000E+00  0.00000000E+00
  0.00000000E+00  0.00000000E+00  0.00000000E+00
  0.00000000E+00  0.00000000E+00  0.00000000E+00
  0.00000000E+00  0.00000000E+00  0.00000000E+00
  0.00000000E+00  0.00000000E+00  0.00000000E+00
  0.00000000E+00  0.00000000E+00  0.00000000E+00
  0.00000000E+00  0.00000000E+00  0.00000000E+00
  0.00000000E+00  0.00000000E+00  0.00000000E+00
  0.00000000E+00  0.00000000E+00  0.00000000E+00
  0.00000000E+00  0.00000000E+00  0.00000000E+00
  0.00000000E+00  0.00000000E+00  0.00000000E+00
  0.00000000E+00  0.00000000E+00  0.00000000E+00
  0.00000000E+00  0.00000000E+00  0.00000000E+00
