TiOF2 2x2x2 config 0013                 
   1.00000000000000     
     7.9290115236711225   -0.0009025193208546    0.0000641703536910
    -0.0008872559566242    7.8253257881874543    0.0000510534480930
     0.0000601579718058    0.0000502439931243    7.5473768734051090
   Ti   O    F 
     8     8    16
Direct
  0.9999999968509184  0.9999990262373208  0.9999999034489828
 -0.0000000793830207 -0.0000003544986016  0.4999994397279354
  0.0000001986134738  0.4999991465389628  0.9999999105085133
  0.0000000933903077  0.5000000995335072  0.4999998719755374
  0.4999999204208947  0.9999939297581013  0.0000002834335562
  0.4999994447949264  0.0000387995153465  0.5000001876618847
  0.5000004275598102  0.5000016835441619  0.9999993868569147
  0.4999999877975062  0.4999920734939808  0.4999994972459024
  0.4999903445440165  0.2478328539284207  0.5000002118645963
  0.5000059198556410  0.7521597852140008  0.4999999745119304
  0.0000005719707000  0.5000028753628953  0.2510698227195454
  0.9999997726745156  0.4999969857237540  0.7489302367771393
  0.4999986419353363  0.9999775773747837  0.2458931947961627
  0.5000002256801187  0.9999782001764790  0.7541067681503012
  0.5000002453373047  0.5000215018411971  0.2460277709070361
  0.5000024976264340  0.5000230622631457  0.7539730453269048
  0.2450460162496297  0.9999204581435079  0.0000020247740808
  0.2365169387069862  0.9999975058568239  0.5000026705997598
  0.2475679131179772  0.4999779716684344  0.9999993310904450
  0.2437300118978951  0.4999878213504727  0.4999994578491687
  0.7549538484442708  0.0000810184193459  0.9999977144673146
  0.7634824771118515  0.0000026646464482  0.4999971877143770
  0.7524329515926017  0.5000162976358877  0.0000009585369658
  0.7562701484945222  0.5000059946879302  0.5000011376450439
  0.9999145714345778  0.2518619754464976  0.0000091631198446
  0.0000074180082779  0.2424509608149803  0.4999987943154122
  0.0000854447353910  0.7481363412153721  0.9999904087418782
  0.9999926338982297  0.7575484584715397  0.5000009764015072
  0.4999778105647247  0.2489624340414919  0.0000000077122090
  0.5000233744983951  0.7510338753858857  0.0000004777116864
  0.0000068730250922  0.9999975680875077  0.2562281335203350
  0.9999933585506935  0.0000014081204175  0.7437720498871356
 
  0.00000000E+00  0.00000000E+00  0.00000000E+00
  0.00000000E+00  0.00000000E+00  0.00000000E+00
  0.00000000E+00  0.00000000E+00  0.00000000E+00
  0.00000000E+00  0.00000000E+00  0.00000000E+00
  0.00000000E+00  0.00000000E+00  0.00000000E+00
  0.00000000E+00  0.00000000E+00  0.00000000E+00
  0.00000000E+00  0.00000000E+00  0.00000000E+00
  0.00000000E+00  0.00000000E+00  0.00000000E+00
  0.00000000E+00  0.00000000E+00  0.00000000E+00
  0.00000000E+00  0.00000000E+00  0.00000000E+00
  0.00000000E+00  0.00000000E+00  0.00000000E+00
  0.00000000E+00  0.00000000E+00  0.00000000E+00
  0.00000000E+00  0.00000000E+00  0.00000000E+00
  0.00000000E+00  0.00000000E+00  0.00000000E+00
  0.00000000E+00  0.00000000E+00  0.00000000E+00
  0.00000000E+00  0.00000000E+00  0.00000000E+00
  0.00000000E+00  0.00000000E+00  0.00000000E+00
  0.00000000E+00  0.00000000E+00  0.00000000E+00
  0.00000000E+00  0.00000000E+00  0.00000000E+00
  0.00000000E+00  0.00000000E+00  0.00000000E+00
  0.00000000E+00  0.00000000E+00  0.00000000E+00
  0.00000000E+00  0.00000000E+00  0.00000000E+00
  0.00000000E+00  0.00000000E+00  0.00000000E+00
  0.00000000E+00  0.00000000E+00  0.00000000E+00
  0.00000000E+00  0.00000000E+00  0.00000000E+00
  0.00000000E+00  0.00000000E+00  0.00000000E+00
  0.00000000E+00  0.00000000E+00  0.00000000E+00
  0.00000000E+00  0.00000000E+00  0.00000000E+00
  0.00000000E+00  0.00000000E+00  0.00000000E+00
  0.00000000E+00  0.00000000E+00  0.00000000E+00
  0.00000000E+00  0.00000000E+00  0.00000000E+00
  0.00000000E+00  0.00000000E+00  0.00000000E+00
