TiOF2 2x2x2 config 0215                 
   1.00000000000000     
     7.8789797186976189   -0.0000123051593288   -0.0000045825736875
    -0.0000120234179049    7.7255515371946393   -0.0002913098717870
    -0.0000045019180785   -0.0002891067994872    7.5839932010652706
   Ti   O    F 
     8     8    16
Direct
  0.0000001064512108  0.0010167436401599  0.9819234023463183
  1.0000002662328429  0.9820036629926344  0.5036652796764745
  0.0000000440783156  0.5006853919032658  0.0024759980596869
  0.9999997787466909  0.5063840073357491  0.5009978258351178
  0.5000000909389881  0.0129717700636954  0.0123836566029272
  0.5000002383407210  0.0133168375147841  0.4888239762082265
  0.4999999793550496  0.4885682255361137  0.9879015453416913
  0.4999997082664484  0.4882480327405228  0.5110845613080600
  0.9999994302215420  0.7529425870850138  0.4977606366274697
  0.4999997684053030  0.2490507573170291  0.9993189928973797
  0.4999993762540382  0.2493005199558944  0.5005744286674447
  0.0000000945741454  0.0034301764364069  0.7520536977674243
  0.9999998030260880  0.4979243775456852  0.2477461741001044
 -0.0000001207734276  0.4977152146282359  0.7544754869451902
  0.5000001338890433  0.9936190710094951  0.2496447359322599
  0.4999997978281829  0.5060179829387502  0.7502806714139908
  0.2473561322880547  0.9975543684566021 -0.0001517089532175
  0.2497203035799153  0.0003279386566216  0.5004013469125008
  0.2517608432850071  0.5034133941189568  0.0044808506137316
  0.2524633643601403  0.4998962486057776  0.4960628804241088
  0.7526440630061481  0.9975550402343294 -0.0001519238416503
  0.7502802930459752  0.0003324415590113  0.5004006914684987
  0.7482391818582815  0.5034124579829393  0.0044807230263103
  0.7475361849845451  0.4998959113224383  0.4960630686402888
  0.0000005769360339  0.2465448873365306  0.0067902798102458
  0.0000001820119236  0.2451036265329472  0.4967515796501315
  0.9999998162266768  0.7551198327962709  0.0082105048225259
  0.5000003628273051  0.7511369074773833  0.9992928379361311
  0.5000000565132877  0.7508363081680789  0.5005937092506508
  1.0000000973223977  0.0061466758710191  0.2454349767684537
  0.5000001243723566  0.9882236188561471  0.7506505500986846
  0.4999999215467696  0.5113049833815294  0.2495785636428254
 
  0.00000000E+00  0.00000000E+00  0.00000000E+00
  0.00000000E+00  0.00000000E+00  0.00000000E+00
  0.00000000E+00  0.00000000E+00  0.00000000E+00
  0.00000000E+00  0.00000000E+00  0.00000000E+00
  0.00000000E+00  0.00000000E+00  0.00000000E+00
  0.00000000E+00  0.00000000E+00  0.00000000E+00
  0.00000000E+00  0.00000000E+00  0.00000000E+00
  0.00000000E+00  0.00000000E+00  0.00000000E+00
  0.00000000E+00  0.00000000E+00  0.00000000E+00
  0.00000000E+00  0.00000000E+00  0.00000000E+00
  0.00000000E+00  0.00000000E+00  0.00000000E+00
  0.00000000E+00  0.00000000E+00  0.00000000E+00
  0.00000000E+00  0.00000000E+00  0.00000000E+00
  0.00000000E+00  0.00000000E+00  0.00000000E+00
  0.00000000E+00  0.00000000E+00  0.00000000E+00
  0.00000000E+00  0.00000000E+00  0.00000000E+00
  0.00000000E+00  0.00000000E+00  0.00000000E+00
  0.00000000E+00  0.00000000E+00  0.00000000E+00
  0.00000000E+00  0.00000000E+00  0.00000000E+00
  0.00000000E+00  0.00000000E+00  0.00000000E+00
  0.00000000E+00  0.00000000E+00  0.00000000E+00
  0.00000000E+00  0.00000000E+00  0.00000000E+00
  0.00000000E+00  0.00000000E+00  0.00000000E+00
  0.00000000E+00  0.00000000E+00  0.00000000E+00
  0.00000000E+00  0.00000000E+00  0.00000000E+00
  0.00000000E+00  0.00000000E+00  0.00000000E+00
  0.00000000E+00  0.00000000E+00  0.00000000E+00
  0.00000000E+00  0.00000000E+00  0.00000000E+00
  0.00000000E+00  0.00000000E+00  0.00000000E+00
  0.00000000E+00  0.00000000E+00  0.00000000E+00
  0.00000000E+00  0.00000000E+00  0.00000000E+00
  0.00000000E+00  0.00000000E+00  0.00000000E+00
