Ti27 O27 F54                            
   1.00000000000000     
    11.5956922813393728   -0.0042603812583477    0.0044664036748783
    -0.0042560536505316   11.5914640628035155    0.0006300048649017
     0.0044682992856823    0.0006303501419472   11.5903925115807773
   Ti   O    F 
    27    27    54
Direct
  0.0002243600525148  0.0134487053073309 -0.0009603160087567
  0.0003142624383932 -0.0123228086887835  0.3416477478355483
 -0.0001126821841322  0.0066319379278923  0.6556375266945338
  0.0133107865287834  0.3278420096731925  0.0047441922509745
  0.0010906422755242  0.3326192859910846  0.3193292355838592
 -0.0005337241037682  0.3210934691081963  0.6653705049866041
 -0.0137038458148752  0.6677291182111498 -0.0010602684606903
 -0.0114967302960947  0.6749322296871958  0.3383602940739991
  0.0003303671813635  0.6654284998501581  0.6535242307802582
  0.3436722966586492  0.0091606956428857 -0.0101785908232571
  0.3421786366369969 -0.0010365121195459  0.3337825092218696
  0.3428173987605093  0.0091306295020609  0.6779709332058693
  0.3263239002582700  0.3224663331399781 -0.0104322790297423
  0.3459459959218897  0.3398405860988415  0.3342573899854168
  0.3406448736870840  0.3225784394654522  0.6773298516202005
  0.3312578366044447  0.6655904567399563 -0.0123778389648092
  0.3334628932929034  0.6542717022697503  0.3326927218695179
  0.3443537238998439  0.6658058140766098  0.6732990160209915
  0.6550643221521466 -0.0075847240745729 -0.0102281770799873
  0.6577388165988119  0.0018588577839393  0.3342776790585402
  0.6549868706397186 -0.0059085671103441  0.6783743746846492
  0.6680148101903660  0.3336974536071858 -0.0121874118021871
  0.6582177344818836  0.3459521412468351  0.3329185942880047
  0.6536867367470341  0.3338651903227312  0.6717850834554649
  0.6714779877533468  0.6791979706339696  0.0094030794040398
  0.6747693573106478  0.6590254720094462  0.3228820469566445
  0.6583105467400512  0.6789551028425742  0.6675752566883421
  0.0007344401230563  0.1655281211317030 -0.0082379473729359
  0.0039443083491231  0.1676513515615680  0.6699271355735205
  0.0027975867214544  0.8340039739395634  0.3261822993253684
  0.3287932191136388  0.1666369309299830  0.0006894446528363
  0.3241167451162097  0.1670671663758524  0.6671154664945914
  0.3392470016603056  0.5014727794462971  0.3334245297641697
  0.6585487901229038  0.4992459464317202  0.3358043984393849
  0.6671681619647523  0.8329692082825060 -0.0064550354071499
  0.6703928063189001  0.8318392842902892  0.6717767050241588
  0.1656999827376736  0.3399086317125735 -0.0017548049705492
  0.5000057451830331  0.0014731253011685  0.0114540201010724
  0.4995026837532534  0.0031712540089641  0.3354141086542871
  0.4998330390374470  0.0016949254447762  0.6555924488122387
  0.4999619642999796  0.3225703033026329  0.3366219071012774
  0.5018049168589001  0.3339921384531990  0.6562889503318368
  0.4983780183076680  0.6640298755154145  0.6642778857396689
  0.8358539773999851  0.6658171684401073  0.0005851766686092
  0.8342291089734883  0.6647798601006164  0.3292737154416654
 -0.0001720360340002 -0.0022316520145768  0.4999361514150042
 -0.0022445453608262  0.3334365207009292  0.1679822245095651
  0.0009694743994479  0.6679438502274250  0.5018111403378916
  0.3344743538080701 -0.0098241267015735  0.8338767220538521
  0.3407749010612281  0.3435210424490761  0.8336195652700352
  0.3293065320501172  0.6641253653077029  0.8343100202904725
  0.6650511715252702  0.0131352998416089  0.8337105423605455
  0.6633365885599593  0.3299318132530805  0.8344409369263115
  0.6584976153298365  0.6696183240674796  0.1676465721442930
 -0.0007907413419352  0.1667360026845506  0.3359243753724177
 -0.0009663019961757  0.5012354169781794 -0.0052277952926011
  0.0061083036484557  0.4986960222288156  0.3362383726255180
 -0.0004762018792701  0.4992956290972900  0.6677628383053793
  0.0022819960326473  0.8335914265429822  0.0058195904803545
 -0.0049478882659393  0.8318609550120616  0.6724497412854290
  0.3260390282153574  0.1648578954888269  0.3332334756064506
  0.3372110697620043  0.5023415917282534  0.0126969032553860
  0.3261176234974449  0.5012360668003401  0.6548648912766281
  0.3300144137607892  0.8295348929083259  0.0082215861221702
  0.3285766471475508  0.8334615117949070  0.3336527991643803
  0.3280336544044429  0.8309664266085791  0.6585733697606068
  0.6747575085316800  0.1690755210815997  0.0115858718240195
  0.6746378189219887  0.1661669691097029  0.3315850351308830
  0.6765104034210401  0.1681960812801508  0.6574803113307440
  0.6637720945913882  0.4986177276399990  0.0026288748038280
  0.6734115298365553  0.4997242884304048  0.6609698952831263
  0.6671167796210119  0.8368196917723146  0.3389275527674381
  0.1644882239271564 -0.0079954763494899  0.0041780496002700
  0.1676457348274670  0.0039476118136779  0.3300552554226321
  0.1641146343320280 -0.0100176588870512  0.6674838784549563
  0.1671283918004666  0.3309552335392452  0.3336007957193321
  0.1634554393508809  0.3426688057394928  0.6679334399067782
  0.1658930331097240  0.6638065604856350  0.0047229012520639
  0.1681648381388597  0.6647080576949098  0.3283298401939787
  0.1653870491791682  0.6670777928666144  0.6680316319778606
  0.5028286355540690  0.3327301595221963  0.0124230980244140
  0.4974092389239946  0.6649490694234876 -0.0040501617791515
  0.4974256652457199  0.6794253551203159  0.3435313421842760
  0.8356765798267627 -0.0025426171306871  0.0042890079664509
  0.8325435375602120  0.0009243492587061  0.3301799970459841
  0.8350960061206554  0.0009552265048458  0.6675940844112861
  0.8340121422206115  0.3393298797999976 -0.0018879685999199
  0.8348791221418737  0.3346826842060607  0.3371350914077521
  0.8352445796888216  0.3360165721888556  0.6644116236136082
  0.8348548690960371  0.6613913777086656  0.6729179629331330
 -0.0000019735174724  0.0079124304418398  0.1671982872962653
 -0.0002649335943718 -0.0088053193575388  0.8333770359996716
  0.0013603427006646  0.3345993719526789  0.4992764901005470
 -0.0057204119508285  0.3405513561726956  0.8310279377853704
  0.0075152410220990  0.6578097878119993  0.1653139700952801
  0.0058042663835415  0.6685779311417404  0.8330220857949492
  0.3264221713033761 -0.0041680130015909  0.1707699544027262
  0.3226021209621751 -0.0031065961603917  0.4963973154345178
  0.3314890764587520  0.3328910966511581  0.1693848191559984
  0.3234264201479198  0.3326750245409511  0.4983056153104988
  0.3383153864643196  0.6706601418582433  0.1678162639060628
  0.3239897718261072  0.6703776901005872  0.4984005608904840
  0.6734177097977236 -0.0012807586265018  0.1708759249793106
  0.6769609010478230  0.0028585379175388  0.4973292127128837
  0.6743543678908236  0.3334143289572444  0.1668851700318483
  0.6775176826627500  0.3294172817264869  0.4990616001279381
  0.6708319138752704  0.6690280305275992  0.5002123401028413
  0.6649697617725903  0.6533826057072402  0.8340261908570221
 
  0.00000000E+00  0.00000000E+00  0.00000000E+00
  0.00000000E+00  0.00000000E+00  0.00000000E+00
  0.00000000E+00  0.00000000E+00  0.00000000E+00
  0.00000000E+00  0.00000000E+00  0.00000000E+00
  0.00000000E+00  0.00000000E+00  0.00000000E+00
  0.00000000E+00  0.00000000E+00  0.00000000E+00
  0.00000000E+00  0.00000000E+00  0.00000000E+00
  0.00000000E+00  0.00000000E+00  0.00000000E+00
  0.00000000E+00  0.00000000E+00  0.00000000E+00
  0.00000000E+00  0.00000000E+00  0.00000000E+00
  0.00000000E+00  0.00000000E+00  0.00000000E+00
  0.00000000E+00  0.00000000E+00  0.00000000E+00
  0.00000000E+00  0.00000000E+00  0.00000000E+00
  0.00000000E+00  0.00000000E+00  0.00000000E+00
  0.00000000E+00  0.00000000E+00  0.00000000E+00
  0.00000000E+00  0.00000000E+00  0.00000000E+00
  0.00000000E+00  0.00000000E+00  0.00000000E+00
  0.00000000E+00  0.00000000E+00  0.00000000E+00
  0.00000000E+00  0.00000000E+00  0.00000000E+00
  0.00000000E+00  0.00000000E+00  0.00000000E+00
  0.00000000E+00  0.00000000E+00  0.00000000E+00
  0.00000000E+00  0.00000000E+00  0.00000000E+00
  0.00000000E+00  0.00000000E+00  0.00000000E+00
  0.00000000E+00  0.00000000E+00  0.00000000E+00
  0.00000000E+00  0.00000000E+00  0.00000000E+00
  0.00000000E+00  0.00000000E+00  0.00000000E+00
  0.00000000E+00  0.00000000E+00  0.00000000E+00
  0.00000000E+00  0.00000000E+00  0.00000000E+00
  0.00000000E+00  0.00000000E+00  0.00000000E+00
  0.00000000E+00  0.00000000E+00  0.00000000E+00
  0.00000000E+00  0.00000000E+00  0.00000000E+00
  0.00000000E+00  0.00000000E+00  0.00000000E+00
  0.00000000E+00  0.00000000E+00  0.00000000E+00
  0.00000000E+00  0.00000000E+00  0.00000000E+00
  0.00000000E+00  0.00000000E+00  0.00000000E+00
  0.00000000E+00  0.00000000E+00  0.00000000E+00
  0.00000000E+00  0.00000000E+00  0.00000000E+00
  0.00000000E+00  0.00000000E+00  0.00000000E+00
  0.00000000E+00  0.00000000E+00  0.00000000E+00
  0.00000000E+00  0.00000000E+00  0.00000000E+00
  0.00000000E+00  0.00000000E+00  0.00000000E+00
  0.00000000E+00  0.00000000E+00  0.00000000E+00
  0.00000000E+00  0.00000000E+00  0.00000000E+00
  0.00000000E+00  0.00000000E+00  0.00000000E+00
  0.00000000E+00  0.00000000E+00  0.00000000E+00
  0.00000000E+00  0.00000000E+00  0.00000000E+00
  0.00000000E+00  0.00000000E+00  0.00000000E+00
  0.00000000E+00  0.00000000E+00  0.00000000E+00
  0.00000000E+00  0.00000000E+00  0.00000000E+00
  0.00000000E+00  0.00000000E+00  0.00000000E+00
  0.00000000E+00  0.00000000E+00  0.00000000E+00
  0.00000000E+00  0.00000000E+00  0.00000000E+00
  0.00000000E+00  0.00000000E+00  0.00000000E+00
  0.00000000E+00  0.00000000E+00  0.00000000E+00
  0.00000000E+00  0.00000000E+00  0.00000000E+00
  0.00000000E+00  0.00000000E+00  0.00000000E+00
  0.00000000E+00  0.00000000E+00  0.00000000E+00
  0.00000000E+00  0.00000000E+00  0.00000000E+00
  0.00000000E+00  0.00000000E+00  0.00000000E+00
  0.00000000E+00  0.00000000E+00  0.00000000E+00
  0.00000000E+00  0.00000000E+00  0.00000000E+00
  0.00000000E+00  0.00000000E+00  0.00000000E+00
  0.00000000E+00  0.00000000E+00  0.00000000E+00
  0.00000000E+00  0.00000000E+00  0.00000000E+00
  0.00000000E+00  0.00000000E+00  0.00000000E+00
  0.00000000E+00  0.00000000E+00  0.00000000E+00
  0.00000000E+00  0.00000000E+00  0.00000000E+00
  0.00000000E+00  0.00000000E+00  0.00000000E+00
  0.00000000E+00  0.00000000E+00  0.00000000E+00
  0.00000000E+00  0.00000000E+00  0.00000000E+00
  0.00000000E+00  0.00000000E+00  0.00000000E+00
  0.00000000E+00  0.00000000E+00  0.00000000E+00
  0.00000000E+00  0.00000000E+00  0.00000000E+00
  0.00000000E+00  0.00000000E+00  0.00000000E+00
  0.00000000E+00  0.00000000E+00  0.00000000E+00
  0.00000000E+00  0.00000000E+00  0.00000000E+00
  0.00000000E+00  0.00000000E+00  0.00000000E+00
  0.00000000E+00  0.00000000E+00  0.00000000E+00
  0.00000000E+00  0.00000000E+00  0.00000000E+00
  0.00000000E+00  0.00000000E+00  0.00000000E+00
  0.00000000E+00  0.00000000E+00  0.00000000E+00
  0.00000000E+00  0.00000000E+00  0.00000000E+00
  0.00000000E+00  0.00000000E+00  0.00000000E+00
  0.00000000E+00  0.00000000E+00  0.00000000E+00
  0.00000000E+00  0.00000000E+00  0.00000000E+00
  0.00000000E+00  0.00000000E+00  0.00000000E+00
  0.00000000E+00  0.00000000E+00  0.00000000E+00
  0.00000000E+00  0.00000000E+00  0.00000000E+00
  0.00000000E+00  0.00000000E+00  0.00000000E+00
  0.00000000E+00  0.00000000E+00  0.00000000E+00
  0.00000000E+00  0.00000000E+00  0.00000000E+00
  0.00000000E+00  0.00000000E+00  0.00000000E+00
  0.00000000E+00  0.00000000E+00  0.00000000E+00
  0.00000000E+00  0.00000000E+00  0.00000000E+00
  0.00000000E+00  0.00000000E+00  0.00000000E+00
  0.00000000E+00  0.00000000E+00  0.00000000E+00
  0.00000000E+00  0.00000000E+00  0.00000000E+00
  0.00000000E+00  0.00000000E+00  0.00000000E+00
  0.00000000E+00  0.00000000E+00  0.00000000E+00
  0.00000000E+00  0.00000000E+00  0.00000000E+00
  0.00000000E+00  0.00000000E+00  0.00000000E+00
  0.00000000E+00  0.00000000E+00  0.00000000E+00
  0.00000000E+00  0.00000000E+00  0.00000000E+00
  0.00000000E+00  0.00000000E+00  0.00000000E+00
  0.00000000E+00  0.00000000E+00  0.00000000E+00
  0.00000000E+00  0.00000000E+00  0.00000000E+00
  0.00000000E+00  0.00000000E+00  0.00000000E+00
  0.00000000E+00  0.00000000E+00  0.00000000E+00
