TiOF2 2x2x2 config 0017                 
   1.00000000000000     
     7.9159898839808314    0.0000621452098776    0.0000067427944535
     0.0000628032464176    7.7651384691605791   -0.0000229929863731
     0.0000063177567763   -0.0000221571275881    7.5449887502715782
   Ti   O    F 
     8     8    16
Direct
  0.9999973633562220  0.0000073512407539  0.9870221611200094
  0.0000014485630757  0.0000069307698780  0.5091712529226982
  0.9999994655448248  0.5000077845140964  0.0003191549811845
  0.0000014523453942  0.5000072421674204  0.4995340789760476
  0.4999972852260655  0.0000080906935196  0.0170270150486687
  0.5000021935766341  0.9999359540364878  0.4978437413635390
  0.4999993403067720  0.5000102988189283  0.0004779264789860
  0.5000022999871661  0.4998948721260916  0.5020398951824347
  0.5000133230960415  0.2421929716837710  0.5019178203891173
  0.4999959399440570  0.7578157893321276  0.5019295500257144
  0.9999954783319112  0.0000062808459873  0.7509236882247023
  0.0000019906891495  0.5000019119301200  0.2490884219907201
  0.9999999279595926  0.5000072207681683  0.7514516359371868
  0.4999947211362255  0.9999937092735749  0.2437155435786309
  0.4999998414520590  0.4999968366302738  0.2424322659753599
  0.5000006890603004  0.4999918039536979  0.7553070178222470
  0.2443892292930130  0.0000107817469086  0.0012119644817901
  0.2387667806621536  0.0000187415304254  0.4972870226515838
  0.2454308822438804  0.5000173091991371  0.9996763100132284
  0.2427566686209701  0.4999827951451152  0.4999336365504305
  0.7556060103995890  0.0000169529063427  0.0012171327431076
  0.7612359810448055  0.9999806015062944  0.4972893405645920
  0.7545683181395972  0.5000178268554549  0.9996776492445534
  0.7572461061111255  0.5000104686386919  0.4999352365037453
  0.9999987101867731  0.2438671768466065  0.0060331669275584
  0.9999707227491754  0.2445334402649593  0.4951468381782433
  0.9999996260944570  0.7561476720923466  0.0060330930345316
  0.0000314747738415  0.7554782977872350  0.4951414723257201
  0.5000001131835674  0.2445501264426184  0.9919522011841480
  0.4999988966713715  0.7554598182131329  0.9919437918251859
  0.0000001484989838  0.0000080729383569  0.2482484242175715
  0.4999975707511481  0.0000148691015482  0.7590715495367633
 
  0.00000000E+00  0.00000000E+00  0.00000000E+00
  0.00000000E+00  0.00000000E+00  0.00000000E+00
  0.00000000E+00  0.00000000E+00  0.00000000E+00
  0.00000000E+00  0.00000000E+00  0.00000000E+00
  0.00000000E+00  0.00000000E+00  0.00000000E+00
  0.00000000E+00  0.00000000E+00  0.00000000E+00
  0.00000000E+00  0.00000000E+00  0.00000000E+00
  0.00000000E+00  0.00000000E+00  0.00000000E+00
  0.00000000E+00  0.00000000E+00  0.00000000E+00
  0.00000000E+00  0.00000000E+00  0.00000000E+00
  0.00000000E+00  0.00000000E+00  0.00000000E+00
  0.00000000E+00  0.00000000E+00  0.00000000E+00
  0.00000000E+00  0.00000000E+00  0.00000000E+00
  0.00000000E+00  0.00000000E+00  0.00000000E+00
  0.00000000E+00  0.00000000E+00  0.00000000E+00
  0.00000000E+00  0.00000000E+00  0.00000000E+00
  0.00000000E+00  0.00000000E+00  0.00000000E+00
  0.00000000E+00  0.00000000E+00  0.00000000E+00
  0.00000000E+00  0.00000000E+00  0.00000000E+00
  0.00000000E+00  0.00000000E+00  0.00000000E+00
  0.00000000E+00  0.00000000E+00  0.00000000E+00
  0.00000000E+00  0.00000000E+00  0.00000000E+00
  0.00000000E+00  0.00000000E+00  0.00000000E+00
  0.00000000E+00  0.00000000E+00  0.00000000E+00
  0.00000000E+00  0.00000000E+00  0.00000000E+00
  0.00000000E+00  0.00000000E+00  0.00000000E+00
  0.00000000E+00  0.00000000E+00  0.00000000E+00
  0.00000000E+00  0.00000000E+00  0.00000000E+00
  0.00000000E+00  0.00000000E+00  0.00000000E+00
  0.00000000E+00  0.00000000E+00  0.00000000E+00
  0.00000000E+00  0.00000000E+00  0.00000000E+00
  0.00000000E+00  0.00000000E+00  0.00000000E+00
