TiOF2 2x2x2 config 0009                 
   1.00000000000000     
     7.9028659171203026    0.0000000031631615   -0.0000000205574753
    -0.0000000010302098    7.7906082402780337    0.0000000106521750
    -0.0000000211566214    0.0000000106371923    7.5142860184302034
   Ti   O    F 
     8     8    16
Direct
  0.9999999961161308  0.0002454513724359  0.9893406176380850
  0.0000000039254004  0.0002454541385717  0.5106593795177474
  0.9999999964555428  0.4998918264210346  0.0000618620038964
  0.0000000034747956  0.4998918261289447  0.4999384074582096
  0.4999999969221065  0.9913616673670091  0.9999961534096968
  0.5000000031179468  0.9913616662350009  0.5000038382464425
  0.4999999974576852  0.5163261196898858  0.0106200485773016
  0.5000000024210038  0.5163261170144509  0.4893799508584351
  0.4999999970914573  0.7472967672718127  0.9964600795492871
  0.5000000025904185  0.7472967621840851  0.5035399390422768
  0.0000000000274909  0.9997189428500164  0.7499999972450198
  0.0000000001150440  0.5005117776208010  0.2499999470775123
  0.9999999998372999  0.5003605007057459  0.7499999493990757
  0.5000000000263043  0.0046675464776698  0.2500000016732287
  0.5000000001112284  0.0037371454356361  0.7499999988352144
  0.4999999997802504  0.4902657670686352  0.2499999983427941
  0.2398266781026308  0.0013824378159626  0.0051063825714408
  0.2398266897686412  0.0013824253882859  0.4948936707514804
  0.2465081986109325  0.4986755383909056  0.9963640617257923
  0.2465082006786261  0.4986755321737562  0.5036358879945837
  0.7601733152234402  0.0013824160620715  0.0051063468011563
  0.7601733170283040  0.0013824472149011  0.4948936347607287
  0.7534917967759043  0.4986755423916378  0.9963640471965789
  0.7534918038058720  0.4986755289487519  0.5036358728062709
  0.9999999810121594  0.2458223412859653  0.0049933290853019
  0.0000000189903560  0.2458223439110867  0.4950066046025867
  0.9999999965187527  0.7543831274293282  0.0048576712696118
  0.0000000033804852  0.7543831258383449  0.4951423106125006
  0.5000000110423173  0.2523888622968755  0.9955877889127152
  0.4999999892935705  0.2523888633882194  0.5044122242280835
  0.0000000001632046  0.9995494419169546  0.2499999985107166
  0.5000000001347118  0.4855246875652028  0.7499999992962358
 
  0.00000000E+00  0.00000000E+00  0.00000000E+00
  0.00000000E+00  0.00000000E+00  0.00000000E+00
  0.00000000E+00  0.00000000E+00  0.00000000E+00
  0.00000000E+00  0.00000000E+00  0.00000000E+00
  0.00000000E+00  0.00000000E+00  0.00000000E+00
  0.00000000E+00  0.00000000E+00  0.00000000E+00
  0.00000000E+00  0.00000000E+00  0.00000000E+00
  0.00000000E+00  0.00000000E+00  0.00000000E+00
  0.00000000E+00  0.00000000E+00  0.00000000E+00
  0.00000000E+00  0.00000000E+00  0.00000000E+00
  0.00000000E+00  0.00000000E+00  0.00000000E+00
  0.00000000E+00  0.00000000E+00  0.00000000E+00
  0.00000000E+00  0.00000000E+00  0.00000000E+00
  0.00000000E+00  0.00000000E+00  0.00000000E+00
  0.00000000E+00  0.00000000E+00  0.00000000E+00
  0.00000000E+00  0.00000000E+00  0.00000000E+00
  0.00000000E+00  0.00000000E+00  0.00000000E+00
  0.00000000E+00  0.00000000E+00  0.00000000E+00
  0.00000000E+00  0.00000000E+00  0.00000000E+00
  0.00000000E+00  0.00000000E+00  0.00000000E+00
  0.00000000E+00  0.00000000E+00  0.00000000E+00
  0.00000000E+00  0.00000000E+00  0.00000000E+00
  0.00000000E+00  0.00000000E+00  0.00000000E+00
  0.00000000E+00  0.00000000E+00  0.00000000E+00
  0.00000000E+00  0.00000000E+00  0.00000000E+00
  0.00000000E+00  0.00000000E+00  0.00000000E+00
  0.00000000E+00  0.00000000E+00  0.00000000E+00
  0.00000000E+00  0.00000000E+00  0.00000000E+00
  0.00000000E+00  0.00000000E+00  0.00000000E+00
  0.00000000E+00  0.00000000E+00  0.00000000E+00
  0.00000000E+00  0.00000000E+00  0.00000000E+00
  0.00000000E+00  0.00000000E+00  0.00000000E+00
