TiOF2 2x2x2 config 0009                 
   1.00000000000000     
     7.9028659171203026    0.0000000031631615   -0.0000000205574753
    -0.0000000010302098    7.7906082402780337    0.0000000106521750
    -0.0000000211566214    0.0000000106371923    7.5142860184302034
   Ti   O    F 
     8     8    16
Direct
  0.9999999961161335  0.0002454513724392  0.9893406176380866
  0.0000000039254028  0.0002454541385709  0.5106593795177503
  0.9999999964555424  0.4998918264210328  0.0000618620038934
  0.0000000034747946  0.4998918261289469  0.4999384074582105
  0.4999999969221100  0.9913616673670059  0.9999961534096998
  0.5000000031179440  0.9913616662349987  0.5000038382464432
  0.4999999974576825  0.5163261196898858  0.0106200485773044
  0.5000000024210032  0.5163261170144515  0.4893799508584383
  0.4999999970914547  0.7472967672718148  0.9964600795492873
  0.5000000025904188  0.7472967621840861  0.5035399390422761
  0.0000000000274894  0.9997189428500184  0.7499999972450206
  0.0000000001150434  0.5005117776208000  0.2499999470775088
  0.9999999998373021  0.5003605007057449  0.7499999493990732
  0.5000000000263052  0.0046675464776686  0.2500000016732268
  0.5000000001112248  0.0037371454356364  0.7499999988352150
  0.4999999997802521  0.4902657670686346  0.2499999983427963
  0.2398266781026333  0.0013824378159632  0.0051063825714381
  0.2398266897686385  0.0013824253882829  0.4948936707514773
  0.2465081986109319  0.4986755383909069  0.9963640617257903
  0.2465082006786296  0.4986755321737528  0.5036358879945826
  0.7601733152234388  0.0013824160620719  0.0051063468011583
  0.7601733170283025  0.0013824472149011  0.4948936347607300
  0.7534917967759074  0.4986755423916382  0.9963640471965786
  0.7534918038058703  0.4986755289487538  0.5036358728062722
  0.9999999810121619  0.2458223412859631  0.0049933290852998
  0.0000000189903557  0.2458223439110896  0.4950066046025877
  0.9999999965187510  0.7543831274293308  0.0048576712696117
  0.0000000033804833  0.7543831258383437  0.4951423106125012
  0.5000000110423150  0.2523888622968787  0.9955877889127149
  0.4999999892935676  0.2523888633882167  0.5044122242280854
  0.0000000001632040  0.9995494419169567  0.2499999985107154
  0.5000000001347134  0.4855246875652001  0.7499999992962328
 
  0.00000000E+00  0.00000000E+00  0.00000000E+00
  0.00000000E+00  0.00000000E+00  0.00000000E+00
  0.00000000E+00  0.00000000E+00  0.00000000E+00
  0.00000000E+00  0.00000000E+00  0.00000000E+00
  0.00000000E+00  0.00000000E+00  0.00000000E+00
  0.00000000E+00  0.00000000E+00  0.00000000E+00
  0.00000000E+00  0.00000000E+00  0.00000000E+00
  0.00000000E+00  0.00000000E+00  0.00000000E+00
  0.00000000E+00  0.00000000E+00  0.00000000E+00
  0.00000000E+00  0.00000000E+00  0.00000000E+00
  0.00000000E+00  0.00000000E+00  0.00000000E+00
  0.00000000E+00  0.00000000E+00  0.00000000E+00
  0.00000000E+00  0.00000000E+00  0.00000000E+00
  0.00000000E+00  0.00000000E+00  0.00000000E+00
  0.00000000E+00  0.00000000E+00  0.00000000E+00
  0.00000000E+00  0.00000000E+00  0.00000000E+00
  0.00000000E+00  0.00000000E+00  0.00000000E+00
  0.00000000E+00  0.00000000E+00  0.00000000E+00
  0.00000000E+00  0.00000000E+00  0.00000000E+00
  0.00000000E+00  0.00000000E+00  0.00000000E+00
  0.00000000E+00  0.00000000E+00  0.00000000E+00
  0.00000000E+00  0.00000000E+00  0.00000000E+00
  0.00000000E+00  0.00000000E+00  0.00000000E+00
  0.00000000E+00  0.00000000E+00  0.00000000E+00
  0.00000000E+00  0.00000000E+00  0.00000000E+00
  0.00000000E+00  0.00000000E+00  0.00000000E+00
  0.00000000E+00  0.00000000E+00  0.00000000E+00
  0.00000000E+00  0.00000000E+00  0.00000000E+00
  0.00000000E+00  0.00000000E+00  0.00000000E+00
  0.00000000E+00  0.00000000E+00  0.00000000E+00
  0.00000000E+00  0.00000000E+00  0.00000000E+00
  0.00000000E+00  0.00000000E+00  0.00000000E+00
