TiOF2 2x2x2 config 1053                 
   1.00000000000000     
     7.8258475580303708    0.0001927391007888   -0.0003400697114721
     0.0001889117775911    7.6187363111556499    0.0004518907802183
    -0.0003553243835089    0.0004692783253114    7.7249802098443636
   Ti   O    F 
     8     8    16
Direct
  0.0002231844005173  0.9857496259973817  0.9964333904587862
  0.0011319937725082  0.0011710257425880  0.5200060115332309
  0.0003344585282853  0.5087737959592483  0.9861163361125296
  0.9831536131199003  0.5002036631349520  0.5107828591380764
  0.5003915195902752  0.9996047070267046  0.0078838869707627
  0.5002165414010263  0.9914106687498423  0.4828988677615430
  0.4995954856396079  0.4979583863602310  0.0006761172283220
  0.5106798138914144  0.5144401499766593  0.5009702084430095
  0.7511871752469537  0.4998998527711661  0.4998042535887659
  0.9999826540925792  0.7506136846831267  0.0041958395753038
  0.5008873752844611  0.2521408134572185  0.9976025604603851
  0.5008436630407370  0.7463409969696040  0.9977157695532390
  0.4991165640679029  0.7501520703493954  0.5032099446854617
  0.9997133141871801  0.0017230610567459  0.7477238887179263
  0.0006690791582874  0.4982749352024426  0.7491014092988677
  0.5006904296707612  0.0022720955736914  0.2523260347506500
  0.2458532203800058  0.0046799766545766  0.9999635931073554
  0.2467242852801029  0.0038204601155105  0.4998825896840503
  0.2468888170671920  0.4955131010904733  0.0048301046482966
  0.2482513692682364  0.4985079060237738  0.4978889099564435
  0.7547514788517841  0.0046931209482373  0.0000398866786622
  0.7550741382357855  0.0047922094057124  0.4992628908857985
  0.7529117309182137  0.4956517098616306  0.0052903313898030
  0.9999360196715485  0.2487396098303982  0.0070160509146694
  0.0066233410968815  0.2483126223916449  0.4867220372603191
  0.0067709801511609  0.7532204191033984  0.4849236882222099
  0.4968871375162929  0.2510408528721219  0.5061747545433981
  0.9996593597278767  0.0035938751387484  0.2534284994414723
  0.0023000350430684  0.4969034087683513  0.2498456619573424
  0.5010435629290777  0.0034332762707557  0.7455747660142275
  0.4945290712786016  0.4922607898214006  0.2531373860030091
  0.4929785874917538  0.4941071286923033  0.7485714710160573
 
  0.00000000E+00  0.00000000E+00  0.00000000E+00
  0.00000000E+00  0.00000000E+00  0.00000000E+00
  0.00000000E+00  0.00000000E+00  0.00000000E+00
  0.00000000E+00  0.00000000E+00  0.00000000E+00
  0.00000000E+00  0.00000000E+00  0.00000000E+00
  0.00000000E+00  0.00000000E+00  0.00000000E+00
  0.00000000E+00  0.00000000E+00  0.00000000E+00
  0.00000000E+00  0.00000000E+00  0.00000000E+00
  0.00000000E+00  0.00000000E+00  0.00000000E+00
  0.00000000E+00  0.00000000E+00  0.00000000E+00
  0.00000000E+00  0.00000000E+00  0.00000000E+00
  0.00000000E+00  0.00000000E+00  0.00000000E+00
  0.00000000E+00  0.00000000E+00  0.00000000E+00
  0.00000000E+00  0.00000000E+00  0.00000000E+00
  0.00000000E+00  0.00000000E+00  0.00000000E+00
  0.00000000E+00  0.00000000E+00  0.00000000E+00
  0.00000000E+00  0.00000000E+00  0.00000000E+00
  0.00000000E+00  0.00000000E+00  0.00000000E+00
  0.00000000E+00  0.00000000E+00  0.00000000E+00
  0.00000000E+00  0.00000000E+00  0.00000000E+00
  0.00000000E+00  0.00000000E+00  0.00000000E+00
  0.00000000E+00  0.00000000E+00  0.00000000E+00
  0.00000000E+00  0.00000000E+00  0.00000000E+00
  0.00000000E+00  0.00000000E+00  0.00000000E+00
  0.00000000E+00  0.00000000E+00  0.00000000E+00
  0.00000000E+00  0.00000000E+00  0.00000000E+00
  0.00000000E+00  0.00000000E+00  0.00000000E+00
  0.00000000E+00  0.00000000E+00  0.00000000E+00
  0.00000000E+00  0.00000000E+00  0.00000000E+00
  0.00000000E+00  0.00000000E+00  0.00000000E+00
  0.00000000E+00  0.00000000E+00  0.00000000E+00
  0.00000000E+00  0.00000000E+00  0.00000000E+00
