TiOF2 2x2x2 config 0253                 
   1.00000000000000     
     7.8566959640329079    0.0000185931274788    0.0000034688579524
     0.0000180921849579    7.6452215509440338    0.0000058689485093
     0.0000033731526217    0.0000058672553779    7.6452583229137376
   Ti   O    F 
     8     8    16
Direct
  0.0000001101142431  0.9887144949962519  0.9887162402127174
  0.0000000556776811  0.9887150852308721  0.5112831001195275
  0.9999999448074490  0.5112846511365845  0.9887173682963351
  0.9999998900871176  0.5112852541920816  0.5112835698531057
  0.5000001098346942  0.9887150042188466  0.9887168053933877
  0.5000000554440618  0.9887153926645453  0.5112827413384053
  0.4999999447206420  0.5112853027698563  0.9887171330928552
  0.4999998897113542  0.5112857655513636  0.5112834425802575
  0.0000000328296892  0.7500003461079885  0.0062604151840162
  0.9999999668474331  0.7499983043914611  0.4937389889297421
  0.5000000329629088  0.7500015243519442  0.0062618762242934
  0.4999999670055288  0.7499997391916722  0.4937375553903323
  0.9999999838308966  0.0062625039526552  0.7500010049511445
  0.0000000160005413  0.4937362436064348  0.7499990439194661
  0.4999999837670970  0.0062624571721699  0.7500009936494934
  0.5000000160612075  0.4937379921221492  0.7499990625441839
  0.2500000330268293  0.0060526644705163  0.0060524995160591
  0.2500000295483105  0.0060526765909259  0.4939477141039603
  0.2500000172709562  0.4939472690989177  0.0060524516812919
  0.2499999113914697  0.4939473002284487  0.4939475113294094
  0.7499999519959104  0.0060526643019898  0.0060524997988338
  0.7499999148823520  0.0060526765442930  0.4939477140462643
  0.7500000390992483  0.4939472692667763  0.0060524516485714
  0.7500001030152532  0.4939473005031942  0.4939475110159393
  0.0000000246194958  0.2499997078731013  0.0087628260899919
  0.9999999754407227  0.2500000788106505  0.4912372563295690
  0.5000000246555132  0.2500000810139440  0.0087626790815776
  0.4999999753131874  0.2500003220578435  0.4912373856330845
  0.9999999749817974  0.0087626589574867  0.2499997691636509
  0.0000000250277807  0.4912368555781796  0.2500003415943297
  0.4999999749390724  0.0087635046040546  0.2499998112214925
  0.5000000250895553  0.4912369084428221  0.2500002360667040
 
  0.00000000E+00  0.00000000E+00  0.00000000E+00
  0.00000000E+00  0.00000000E+00  0.00000000E+00
  0.00000000E+00  0.00000000E+00  0.00000000E+00
  0.00000000E+00  0.00000000E+00  0.00000000E+00
  0.00000000E+00  0.00000000E+00  0.00000000E+00
  0.00000000E+00  0.00000000E+00  0.00000000E+00
  0.00000000E+00  0.00000000E+00  0.00000000E+00
  0.00000000E+00  0.00000000E+00  0.00000000E+00
  0.00000000E+00  0.00000000E+00  0.00000000E+00
  0.00000000E+00  0.00000000E+00  0.00000000E+00
  0.00000000E+00  0.00000000E+00  0.00000000E+00
  0.00000000E+00  0.00000000E+00  0.00000000E+00
  0.00000000E+00  0.00000000E+00  0.00000000E+00
  0.00000000E+00  0.00000000E+00  0.00000000E+00
  0.00000000E+00  0.00000000E+00  0.00000000E+00
  0.00000000E+00  0.00000000E+00  0.00000000E+00
  0.00000000E+00  0.00000000E+00  0.00000000E+00
  0.00000000E+00  0.00000000E+00  0.00000000E+00
  0.00000000E+00  0.00000000E+00  0.00000000E+00
  0.00000000E+00  0.00000000E+00  0.00000000E+00
  0.00000000E+00  0.00000000E+00  0.00000000E+00
  0.00000000E+00  0.00000000E+00  0.00000000E+00
  0.00000000E+00  0.00000000E+00  0.00000000E+00
  0.00000000E+00  0.00000000E+00  0.00000000E+00
  0.00000000E+00  0.00000000E+00  0.00000000E+00
  0.00000000E+00  0.00000000E+00  0.00000000E+00
  0.00000000E+00  0.00000000E+00  0.00000000E+00
  0.00000000E+00  0.00000000E+00  0.00000000E+00
  0.00000000E+00  0.00000000E+00  0.00000000E+00
  0.00000000E+00  0.00000000E+00  0.00000000E+00
  0.00000000E+00  0.00000000E+00  0.00000000E+00
  0.00000000E+00  0.00000000E+00  0.00000000E+00
