config 02                               
   1.00000000000000     
    15.4263309999999993    0.0000000000000000    0.0000000000000000
     0.0000000000000000   15.4263309999999993    0.0000000000000000
     0.0000000000000000    0.0000000000000000   15.4263309999999993
   Li   Ti   O    F 
     1    64    64   128
Direct
  0.1317056241997196  0.1699962156967266  0.3717016287429366
  0.9957045712100945  0.9959162746076141  0.9939903533159355
  0.9993096521835747  0.9936101865156232  0.4935879523063338
  0.0058236615464919  0.4954748825106106  0.9970942947461259
  0.9935039195175707  0.5015210747687878  0.5067882750713117
  0.4947137850285662  0.9941725056487444  1.0000568194126718
  0.5007885544673204  0.0079167940584956  0.4995344961875363
  0.5042967527000806  0.4955264743197471  0.9961523702185143
  0.4913809106696457  0.4988581327385886  0.4952435693835748
  0.0065530021394877  0.0042796009719873  0.2561144912392924
  0.0014519865169472  0.0081995236767709  0.7562498388412312
  0.9941380953862853  0.4919097110314187  0.2526574400052407
  0.9925455420713658  0.4980432709885895  0.7416550914658564
  0.5058725803011420  0.0090081075533416  0.2507756365389363
  0.4928680108390333  0.0050963516728116  0.7520271120036512
  0.4930357286458303  0.4958558252299105  0.2573725873963835
  0.5008108914103336  0.5040967994535180  0.7585558812323242
  0.9963992656191186  0.2573302027417230  0.0014581335064119
  0.9980940410635145  0.2475768745770176  0.4948318643441241
  0.9982361883400187  0.7587545577577628  0.0056076616125032
  0.9976238566077970  0.7580740935275333  0.5053762990355647
  0.4957956352971594  0.2581348219855150  0.0005194565200636
  0.5083437517930146  0.2454976472380735  0.4997486580005831
  0.5073768640094926  0.7563699927900308  0.9994027221358545
  0.5066313995967739  0.7524435765974389  0.5089923144916981
  0.9996376645896489  0.2565657224375409  0.2585640168348323
  0.0063719436349748  0.2422849454358356  0.7473761171784011
  0.0065644432044559  0.7483749129856996  0.2429939221220985
  0.9928689375285727  0.7513600318480376  0.7431538894989645
  0.5082000494020886  0.2410099115029363  0.2512753926875091
  0.5066472050189283  0.2430113351065666  0.7496053099216415
  0.5065593863701425  0.7508535289610068  0.2520022841127258
  0.5017337526825035  0.7419142991615223  0.7437465378448349
  0.2567147956705299  0.9983539002221090  0.0053146979990035
  0.2502583324629484  0.9923439180547446  0.5067517409122203
  0.2436861621378321  0.5079446083391376  0.9977817907826327
  0.2535591918924172  0.4937029573740834  0.5062552343718298
  0.7576519926935501  0.0004415433681680  0.9946473227768774
  0.7500108537969598  0.0067944938678931  0.4950605691779444
  0.7419258122199176  0.5003941227701711  0.0053693229772409
  0.7550485384973699  0.4976174781550598  0.5054882674742648
  0.2450967201840032  0.0027037331772702  0.2429557130198512
  0.2576341212170514  0.9976656800602746  0.7443172953574331
  0.2549329684320338  0.4915812985428653  0.2518332390631495
  0.2469247961043460  0.5057731255960798  0.7407987561046455
  0.7447117063995217  0.0012705058913324  0.2562661313984502
  0.7483512812283621  0.0064393589282556  0.7564030019458123
  0.7561014037308595  0.4979302711755775  0.2431304442054128
  0.7571498771596323  0.4978731220608686  0.7427291825508371
  0.2584557216477015  0.2516907190502894  0.0032062811797614
  0.2544782386005121  0.2571895020601774  0.5075184012628611
  0.2521025084376909  0.7422382371102056  0.9936879467890974
  0.2513161349330028  0.7541153743779192  0.4924594306102836
  0.7584529036982220  0.2509947396427425  0.0069304209564182
  0.7430914595590030  0.2424024094762420  0.4989610364269020
  0.7419766116664713  0.7492526352443902  0.9940996551492876
  0.7414174782294038  0.7518452816099684  0.4940910884801757
  0.2530162584617482  0.2588389047143679  0.2402517203124980
  0.2442340583898107  0.2518623420671591  0.7441643971082068
  0.2435786068063580  0.7471028499179204  0.2554578129955687
  0.2479668718983289  0.7414011683298130  0.7563140273972131
  0.7428156366264826  0.2502341436220301  0.2421821272131788
  0.7439138287343185  0.2420446018560269  0.7505753344164851
  0.7456033214292329  0.7496084189347526  0.2568404404491159
  0.7574729385682069  0.7504509977673882  0.7567694223456118
  0.0067533585843253  0.4927751920677633  0.6246655232244156
  0.9969596941494768  0.0149735782834681  0.3759465432470283
  0.9994446497377604  0.0095873344838621  0.8727522959372781
  0.4998076023595620  0.4916800050254055  0.3751046546693635
  0.4943188834080298  0.4958024506236188  0.8748882822016569
  0.9989583291193900  0.7541284023290309  0.1257276740590550
  0.0012140366736753  0.7550585837945617  0.6243703996258773
  0.5015293458796352  0.7513822669985523  0.6248390220836608
  0.0149409950922450  0.2285578006421280  0.3724666226494404
  0.2537724368719089  0.0017968291860333  0.1252555274698715
  0.2539346222921335  0.0020978665240564  0.6252122107627609
  0.2398490606170419  0.4918546441828739  0.6255467453336511
  0.7506775365328278  0.4906263672953532  0.1257316302688954
  0.7456862004884455  0.4930306837019181  0.6245286997597785
  0.7502616029636736  1.0010005594139011  0.3761619867878341
  0.7467722647291100  0.9995752455725454  0.8740484282462073
  0.2512904103198412  0.2525589715828601  0.1237445210370327
  0.2585330751381745  0.2519971921497369  0.6257643752535406
  0.7492294976507126  0.2596828816426892  0.1265736405178734
  0.2547585890102804  0.7446366509410939  0.3744731481314710
  0.2514934144806871  0.7501718463699792  0.8751062850357401
  0.7521335163365084  0.7504062313061445  0.3741303001928549
  0.7483406290646700  0.7512129333113878  0.8756901460809186
  0.1246203709771975  0.5044739616793228  0.9953452022055234
  0.6256075351199931  0.5080741941969678  0.9989126320556455
  0.1258475298483193  0.0158512297341194  0.2544766466280997
  0.6247776029842087  0.0082298759143893  0.2502916253496664
  0.6234396758251192  0.2551687950710050  0.5025125888979398
  0.6245178025673667  0.7412537548429852  0.0033338569515198
  0.6241073212365151  0.7600620302474854  0.4957757708002762
  0.1251561214197691  0.2519504238554898  0.7459830616144049
  0.1254260897400966  0.7445222034808557  0.2516667392864040
  0.6254145623630607  0.2369055818258826  0.2537172796161041
  0.6251872147048082  0.2527717911112790  0.7432938783853423
  0.6226069100352726  0.7471928417919413  0.2511059146451934
  0.3760520152141379 -0.0005960854902849  0.9930271531846354
  0.3746428866402858  0.5037009838538816  0.5031997574339249
  0.8735067171063842  0.0017939771714459  0.0014099303603455
  0.8741567537775662  0.5013262179533878  0.4990191879231417
  0.3759856052706176  0.9970568010287084  0.7565597617644547
  0.3735141536107384  0.4901070754067372  0.2492830780295779
  0.8753756362424695  0.4901222780766020  0.2533931237934822
  0.8749891367914252  0.5070266856022223  0.7469112278931271
  0.3761937940061564  0.2487625709917770 -0.0022354979434284
  0.8750417693449554  0.2484330126586655  0.0014532548570637
  0.8747242203499499  0.7440448025677351  0.7492857555366791
  0.5076063888700989  0.1222331275009108  0.4938250201962289
  0.9974398380477277  0.1260587955346636  0.7364240269309107
  0.4881875933611485  0.1249540077091749  0.2640201235529894
  0.5018010576054868  0.1235978550831710  0.7489326340457505
  0.5015836580792417  0.6251943881791561  0.7515019986278535
  1.0013784410390596  0.3749010264023825 -0.0040912176971922
  0.0026173076338675  0.8753041768779749  0.9941516377044989
 -0.0006369886018440  0.8755115178837738  0.4900454039754192
  0.5037539154917695  0.3739014612041867  0.0083020607561955
  0.5050475549455380  0.8754301491293186  0.0055348792509528
  0.0124065961215207  0.3733232438198058  0.2592837729291393
  0.2563417320392565  0.6251581868029106  0.0045327374849552
  0.7428089486919371  0.1244446606135479  0.5062268181751024
  0.2476567031971792  0.6243276604231014  0.7471576940260549
  0.7509947189562921  0.1246343672473064  0.7437315510842241
  0.2502225792861795  0.3725348147633195  0.4899929835971212
  0.2503562208511599  0.8750031705391693  0.4979730450911247
  0.2365495428324135  0.3736536427858692  0.2584236709825808
  0.0023236414406575  0.9941551910822509  0.1271630360518640
  0.0048575626031822  0.9875966784204178  0.6245163739752425
  1.0000786305467750  0.4984344986091341  0.1253649056284873
  0.4942372992835370  0.0087094882677737  0.1266493335535707
  0.4970984948942238  0.9967670801833952  0.6230775552746379
  0.5011400132506494  0.5079973725528326  0.1275107527169027
  0.5063026353699102  0.5016007577991575  0.6246753948863124
  0.0036902444461101  0.5106312495062476  0.3755765503605800
  0.9959592990684722  0.5064526728503925  0.8728833604070181
  0.5032292841720237  0.9875205374145912  0.3766888623369036
  0.5144541286816289 -0.0018425562733267  0.8751902976865504
  0.0042358998447256  0.2551183158657742  0.1279123811035323
  0.9953905787445955  0.2670075315037301  0.6232371565960011
  0.5000797982499270  0.2376671385153951  0.1267850181063179
  0.4879851268549479  0.2455023334231392  0.6228921239663838
  0.4956069897437980  0.7444672786997725  0.1270119489749273
  0.9997519803495880  0.2413619324230690  0.8745508625699706
  0.9942166470678404  0.7428206434963972  0.3749484583521108
  0.0015925627297254  0.7438515206971782  0.8741735087118456
  0.4996956354802659  0.2643292053361514  0.3756604220314787
  0.5054143472732305  0.2532361528516830  0.8742942382982376
  0.4924088238394098  0.7559250044426190  0.3755757110986827
  0.4980471418008757  0.7539737244063367  0.8742572444496657
  0.2450952770549232  0.4912788742757509  0.1247463899577113
  0.7494222331537274  0.0021775550937707  0.1270232469280128
  0.7463344628251204  0.9941862193236400  0.6236137053859920
  0.2514270226518785  0.0047492519420966  0.3755009632961086
  0.2437310060955733  0.9962798253587701  0.8743928523938080
  0.2470037046804024  0.5125235903263009  0.3747552658008889
  0.2587663984571785  0.5003862995349261  0.8735628710293327
  0.7452517223307289  0.5069318921850162  0.3745958317519074
  0.7518379082652248  0.5060510679924121  0.8744130748355402
  0.2520942540807728  0.7564141182290685  0.1251743601471792
  0.2488493412524883  0.7525126069955471  0.6248407840956148
  0.7555892490879492  0.2616000299056098  0.6237672833661739
  0.7524111599667164  0.7495286574995773  0.1261296794438672
  0.7469951251996477  0.7494281978969359  0.6245112811618824
  0.2371227128073380  0.2362975834161980  0.3728762665940632
  0.2486608633108606  0.2490098209919334  0.8744253328081805
  0.7514618586084634  0.2417169726814294  0.3740856524990766
  0.7480398823359573  0.2438500322077189  0.8761347664926671
  0.1265384378375420  0.0027425057701714  0.0011928041263987
  0.1254575305427537  0.0082437045470378  0.4965270775383386
  0.1237464851856905  0.5029657547564285  0.4930542418005291
  0.6253281198416593  0.0027108987532279  0.0077541471277427
  0.6235161590709766  0.9848126295047016  0.5025818346257193
  0.6240753604457158  0.4955620869764005  0.4983193524095302
  0.1270517661945522 -0.0000829602370927  0.7479841055142978
  0.1242368698489307  0.5113570883464663  0.2482846804130808
  0.1233208484697490  0.4931801132739840  0.7621177432555554
  0.6236801259969290  0.9945808129924341  0.7418316061245488
  0.6246806768197268  0.5056772309669015  0.2494003457711862
  0.6261139871119875  0.4925460123801698  0.7552311910655770
  0.1259457955854818  0.2487619233207733  0.9973755837061061
  0.1294665317004756  0.2349477926874812  0.5010563808249412
  0.1252853052748461  0.7446524385838855  0.0010766442777485
  0.1241859773521384  0.7476995299528062  0.4958866629794131
  0.6264100458839356  0.2477345393733920  0.9997403279169231
  0.1268770417389631  0.2250623628539845  0.2484439637858133
  0.1234734628025084  0.7540525690699312  0.7510539735530798
  0.6261241805482067  0.7545367760569719  0.7508232226928225
  0.3773035428009469  0.0040482325105546  0.4953236637747834
  0.3733995290680918  0.4946783822668974  0.0073130292267175
  0.8738120654548546  0.0015325724026387  0.5083047639041508
  0.8746888842042774  0.4970040562560406  0.9989853359346796
  0.3766955699717894  0.9902069940902608  0.2558678088341365
  0.3744777456306405  0.4983089173376292  0.7413797054956931
  0.8742061748842321  0.9919278221917526  0.2479832465445735
  0.8743871249406934  0.9941890923307241  0.7426360441019125
  0.3783645909782786  0.2433039856279677  0.4881968785640983
  0.3765809166250389  0.7576871412712693  0.0018981859094126
  0.3767588816860501  0.7446496642798007  0.5025161401457940
  0.8688777564977267  0.2519782953788014  0.4962273107159965
  0.8723332674656639  0.7549743437825036  0.9992086307440333
  0.8721838159177099  0.7455448493667247  0.5032463905681638
  0.3779543506438446  0.2633221777169109  0.2543058361601369
  0.3762061798924614  0.2490289744229091  0.7568366881380644
  0.3765184892528159  0.7550980054587442  0.2473098180451172
  0.3749796891449642  0.7545078642657831  0.7486086137039467
  0.8738472620814111  0.2616655343030049  0.2557703481779704
  0.8743524364239730  0.2531363165207357  0.7508403903399088
  0.8738120658316523  0.7556626313911144  0.2492948518125974
  0.0039322598325989  0.1267099112365217  0.0090428640275828
  0.9949516074065006  0.1197033780861878  0.5194209224160463
  0.9932847347034013  0.6253684265792615  1.0019792477874738
  1.0004378468235446  0.6270497405972530  0.5029861163953220
  0.5040182034925813  0.1244488268431093  0.9959467604607586
  0.4890515561474353  0.6273088283697869 -0.0016218396324042
  0.5058402273662669  0.6264708346566786  0.4948984055750009
  0.9836217221468750  0.1267812574086656  0.2352675429563129
  0.9917699785192774  0.6232529583203702  0.2465638992783830
  0.0105070927296416  0.6244702745321674  0.7467966083924854
  0.4936251337602322  0.6257607487531009  0.2568275856441757
  0.0029910415450135  0.3781943138237625  0.4850617868003260
  0.4929660667404599  0.3718199814626955  0.5089465193968621
  0.4891845986540956  0.8777235072812193  0.5004220869277950
  0.9955311931516256  0.3740336762041177  0.7602484066913286
  0.0050511480925712  0.8767414155927629  0.2595284030902659
 -0.0003044214021632  0.8757777338289355  0.7567582475444647
  0.5100586146971949  0.3711986499904320  0.2394406799152189
  0.4960131438279526  0.3730762809244739  0.7432990247591152
  0.5028605827740898  0.8761904291614924  0.2444204780775777
  0.5020185876087757  0.8752602414420130  0.7515216860178016
  0.2474242716571236  0.1248579203615844  0.9947165551548123
  0.2530995210447280  0.1235319668491731  0.4960177964520900
  0.2469831317879220  0.6259397944966384  0.5065529356505536
  0.7448322669386583  0.1260695590531740  0.0045749720307137
  0.7617583337070696  0.6253746739981264  0.0048116048810224
  0.7435450799132955  0.6255378381195067  0.5027291575702462
  0.2672094480367108  0.1269991572733878  0.2520221689596922
  0.2508124289602952  0.1245700293392838  0.7555344676817592
  0.2572222259972359  0.6231267451328791  0.2393153373868055
  0.7665279941956842  0.1260058208509534  0.2465407109044628
  0.7551446799257475  0.6248419281333043  0.2458136613994537
  0.7390707546103213  0.6247212621177556  0.7467703295530640
  0.2481042274939680  0.3760100861479601  0.9940801184971588
  0.2448859384563843  0.8739577838072639  0.0012146291789726
  0.7469026111890976  0.3747332806691187  0.9871318299060922
  0.7499925048509951  0.3728026499343857  0.4885925003266079
  0.7447973404924276  0.8748824144153627  0.0070395955746769
  0.7584931395123822  0.8760641109996740  0.5022210100177579
  0.2543175510490795  0.3758042378545834  0.7588522589013263
  0.2452326289689803  0.8761642637812768  0.2534026230002475
  0.2471374399213588  0.8733834018047643  0.7478501756863226
  0.7386881253773794  0.3736807163118846  0.2649960223418978
  0.7544974939887499  0.3734399035883728  0.7591253602908801
  0.7458636960718350  0.8755251753165749  0.2454486931117131
  0.7509914814536881  0.8750834505503479  0.7457232738177654
 
  0.00000000E+00  0.00000000E+00  0.00000000E+00
  0.00000000E+00  0.00000000E+00  0.00000000E+00
  0.00000000E+00  0.00000000E+00  0.00000000E+00
  0.00000000E+00  0.00000000E+00  0.00000000E+00
  0.00000000E+00  0.00000000E+00  0.00000000E+00
  0.00000000E+00  0.00000000E+00  0.00000000E+00
  0.00000000E+00  0.00000000E+00  0.00000000E+00
  0.00000000E+00  0.00000000E+00  0.00000000E+00
  0.00000000E+00  0.00000000E+00  0.00000000E+00
  0.00000000E+00  0.00000000E+00  0.00000000E+00
  0.00000000E+00  0.00000000E+00  0.00000000E+00
  0.00000000E+00  0.00000000E+00  0.00000000E+00
  0.00000000E+00  0.00000000E+00  0.00000000E+00
  0.00000000E+00  0.00000000E+00  0.00000000E+00
  0.00000000E+00  0.00000000E+00  0.00000000E+00
  0.00000000E+00  0.00000000E+00  0.00000000E+00
  0.00000000E+00  0.00000000E+00  0.00000000E+00
  0.00000000E+00  0.00000000E+00  0.00000000E+00
  0.00000000E+00  0.00000000E+00  0.00000000E+00
  0.00000000E+00  0.00000000E+00  0.00000000E+00
  0.00000000E+00  0.00000000E+00  0.00000000E+00
  0.00000000E+00  0.00000000E+00  0.00000000E+00
  0.00000000E+00  0.00000000E+00  0.00000000E+00
  0.00000000E+00  0.00000000E+00  0.00000000E+00
  0.00000000E+00  0.00000000E+00  0.00000000E+00
  0.00000000E+00  0.00000000E+00  0.00000000E+00
  0.00000000E+00  0.00000000E+00  0.00000000E+00
  0.00000000E+00  0.00000000E+00  0.00000000E+00
  0.00000000E+00  0.00000000E+00  0.00000000E+00
  0.00000000E+00  0.00000000E+00  0.00000000E+00
  0.00000000E+00  0.00000000E+00  0.00000000E+00
  0.00000000E+00  0.00000000E+00  0.00000000E+00
  0.00000000E+00  0.00000000E+00  0.00000000E+00
  0.00000000E+00  0.00000000E+00  0.00000000E+00
  0.00000000E+00  0.00000000E+00  0.00000000E+00
  0.00000000E+00  0.00000000E+00  0.00000000E+00
  0.00000000E+00  0.00000000E+00  0.00000000E+00
  0.00000000E+00  0.00000000E+00  0.00000000E+00
  0.00000000E+00  0.00000000E+00  0.00000000E+00
  0.00000000E+00  0.00000000E+00  0.00000000E+00
  0.00000000E+00  0.00000000E+00  0.00000000E+00
  0.00000000E+00  0.00000000E+00  0.00000000E+00
  0.00000000E+00  0.00000000E+00  0.00000000E+00
  0.00000000E+00  0.00000000E+00  0.00000000E+00
  0.00000000E+00  0.00000000E+00  0.00000000E+00
  0.00000000E+00  0.00000000E+00  0.00000000E+00
  0.00000000E+00  0.00000000E+00  0.00000000E+00
  0.00000000E+00  0.00000000E+00  0.00000000E+00
  0.00000000E+00  0.00000000E+00  0.00000000E+00
  0.00000000E+00  0.00000000E+00  0.00000000E+00
  0.00000000E+00  0.00000000E+00  0.00000000E+00
  0.00000000E+00  0.00000000E+00  0.00000000E+00
  0.00000000E+00  0.00000000E+00  0.00000000E+00
  0.00000000E+00  0.00000000E+00  0.00000000E+00
  0.00000000E+00  0.00000000E+00  0.00000000E+00
  0.00000000E+00  0.00000000E+00  0.00000000E+00
  0.00000000E+00  0.00000000E+00  0.00000000E+00
  0.00000000E+00  0.00000000E+00  0.00000000E+00
  0.00000000E+00  0.00000000E+00  0.00000000E+00
  0.00000000E+00  0.00000000E+00  0.00000000E+00
  0.00000000E+00  0.00000000E+00  0.00000000E+00
  0.00000000E+00  0.00000000E+00  0.00000000E+00
  0.00000000E+00  0.00000000E+00  0.00000000E+00
  0.00000000E+00  0.00000000E+00  0.00000000E+00
  0.00000000E+00  0.00000000E+00  0.00000000E+00
  0.00000000E+00  0.00000000E+00  0.00000000E+00
  0.00000000E+00  0.00000000E+00  0.00000000E+00
  0.00000000E+00  0.00000000E+00  0.00000000E+00
  0.00000000E+00  0.00000000E+00  0.00000000E+00
  0.00000000E+00  0.00000000E+00  0.00000000E+00
  0.00000000E+00  0.00000000E+00  0.00000000E+00
  0.00000000E+00  0.00000000E+00  0.00000000E+00
  0.00000000E+00  0.00000000E+00  0.00000000E+00
  0.00000000E+00  0.00000000E+00  0.00000000E+00
  0.00000000E+00  0.00000000E+00  0.00000000E+00
  0.00000000E+00  0.00000000E+00  0.00000000E+00
  0.00000000E+00  0.00000000E+00  0.00000000E+00
  0.00000000E+00  0.00000000E+00  0.00000000E+00
  0.00000000E+00  0.00000000E+00  0.00000000E+00
  0.00000000E+00  0.00000000E+00  0.00000000E+00
  0.00000000E+00  0.00000000E+00  0.00000000E+00
  0.00000000E+00  0.00000000E+00  0.00000000E+00
  0.00000000E+00  0.00000000E+00  0.00000000E+00
  0.00000000E+00  0.00000000E+00  0.00000000E+00
  0.00000000E+00  0.00000000E+00  0.00000000E+00
  0.00000000E+00  0.00000000E+00  0.00000000E+00
  0.00000000E+00  0.00000000E+00  0.00000000E+00
  0.00000000E+00  0.00000000E+00  0.00000000E+00
  0.00000000E+00  0.00000000E+00  0.00000000E+00
  0.00000000E+00  0.00000000E+00  0.00000000E+00
  0.00000000E+00  0.00000000E+00  0.00000000E+00
  0.00000000E+00  0.00000000E+00  0.00000000E+00
  0.00000000E+00  0.00000000E+00  0.00000000E+00
  0.00000000E+00  0.00000000E+00  0.00000000E+00
  0.00000000E+00  0.00000000E+00  0.00000000E+00
  0.00000000E+00  0.00000000E+00  0.00000000E+00
  0.00000000E+00  0.00000000E+00  0.00000000E+00
  0.00000000E+00  0.00000000E+00  0.00000000E+00
  0.00000000E+00  0.00000000E+00  0.00000000E+00
  0.00000000E+00  0.00000000E+00  0.00000000E+00
  0.00000000E+00  0.00000000E+00  0.00000000E+00
  0.00000000E+00  0.00000000E+00  0.00000000E+00
  0.00000000E+00  0.00000000E+00  0.00000000E+00
  0.00000000E+00  0.00000000E+00  0.00000000E+00
  0.00000000E+00  0.00000000E+00  0.00000000E+00
  0.00000000E+00  0.00000000E+00  0.00000000E+00
  0.00000000E+00  0.00000000E+00  0.00000000E+00
  0.00000000E+00  0.00000000E+00  0.00000000E+00
  0.00000000E+00  0.00000000E+00  0.00000000E+00
  0.00000000E+00  0.00000000E+00  0.00000000E+00
  0.00000000E+00  0.00000000E+00  0.00000000E+00
  0.00000000E+00  0.00000000E+00  0.00000000E+00
  0.00000000E+00  0.00000000E+00  0.00000000E+00
  0.00000000E+00  0.00000000E+00  0.00000000E+00
  0.00000000E+00  0.00000000E+00  0.00000000E+00
  0.00000000E+00  0.00000000E+00  0.00000000E+00
  0.00000000E+00  0.00000000E+00  0.00000000E+00
  0.00000000E+00  0.00000000E+00  0.00000000E+00
  0.00000000E+00  0.00000000E+00  0.00000000E+00
  0.00000000E+00  0.00000000E+00  0.00000000E+00
  0.00000000E+00  0.00000000E+00  0.00000000E+00
  0.00000000E+00  0.00000000E+00  0.00000000E+00
  0.00000000E+00  0.00000000E+00  0.00000000E+00
  0.00000000E+00  0.00000000E+00  0.00000000E+00
  0.00000000E+00  0.00000000E+00  0.00000000E+00
  0.00000000E+00  0.00000000E+00  0.00000000E+00
  0.00000000E+00  0.00000000E+00  0.00000000E+00
  0.00000000E+00  0.00000000E+00  0.00000000E+00
  0.00000000E+00  0.00000000E+00  0.00000000E+00
  0.00000000E+00  0.00000000E+00  0.00000000E+00
  0.00000000E+00  0.00000000E+00  0.00000000E+00
  0.00000000E+00  0.00000000E+00  0.00000000E+00
  0.00000000E+00  0.00000000E+00  0.00000000E+00
  0.00000000E+00  0.00000000E+00  0.00000000E+00
  0.00000000E+00  0.00000000E+00  0.00000000E+00
  0.00000000E+00  0.00000000E+00  0.00000000E+00
  0.00000000E+00  0.00000000E+00  0.00000000E+00
  0.00000000E+00  0.00000000E+00  0.00000000E+00
  0.00000000E+00  0.00000000E+00  0.00000000E+00
  0.00000000E+00  0.00000000E+00  0.00000000E+00
  0.00000000E+00  0.00000000E+00  0.00000000E+00
  0.00000000E+00  0.00000000E+00  0.00000000E+00
  0.00000000E+00  0.00000000E+00  0.00000000E+00
  0.00000000E+00  0.00000000E+00  0.00000000E+00
  0.00000000E+00  0.00000000E+00  0.00000000E+00
  0.00000000E+00  0.00000000E+00  0.00000000E+00
  0.00000000E+00  0.00000000E+00  0.00000000E+00
  0.00000000E+00  0.00000000E+00  0.00000000E+00
  0.00000000E+00  0.00000000E+00  0.00000000E+00
  0.00000000E+00  0.00000000E+00  0.00000000E+00
  0.00000000E+00  0.00000000E+00  0.00000000E+00
  0.00000000E+00  0.00000000E+00  0.00000000E+00
  0.00000000E+00  0.00000000E+00  0.00000000E+00
  0.00000000E+00  0.00000000E+00  0.00000000E+00
  0.00000000E+00  0.00000000E+00  0.00000000E+00
  0.00000000E+00  0.00000000E+00  0.00000000E+00
  0.00000000E+00  0.00000000E+00  0.00000000E+00
  0.00000000E+00  0.00000000E+00  0.00000000E+00
  0.00000000E+00  0.00000000E+00  0.00000000E+00
  0.00000000E+00  0.00000000E+00  0.00000000E+00
  0.00000000E+00  0.00000000E+00  0.00000000E+00
  0.00000000E+00  0.00000000E+00  0.00000000E+00
  0.00000000E+00  0.00000000E+00  0.00000000E+00
  0.00000000E+00  0.00000000E+00  0.00000000E+00
  0.00000000E+00  0.00000000E+00  0.00000000E+00
  0.00000000E+00  0.00000000E+00  0.00000000E+00
  0.00000000E+00  0.00000000E+00  0.00000000E+00
  0.00000000E+00  0.00000000E+00  0.00000000E+00
  0.00000000E+00  0.00000000E+00  0.00000000E+00
  0.00000000E+00  0.00000000E+00  0.00000000E+00
  0.00000000E+00  0.00000000E+00  0.00000000E+00
  0.00000000E+00  0.00000000E+00  0.00000000E+00
  0.00000000E+00  0.00000000E+00  0.00000000E+00
  0.00000000E+00  0.00000000E+00  0.00000000E+00
  0.00000000E+00  0.00000000E+00  0.00000000E+00
  0.00000000E+00  0.00000000E+00  0.00000000E+00
  0.00000000E+00  0.00000000E+00  0.00000000E+00
  0.00000000E+00  0.00000000E+00  0.00000000E+00
  0.00000000E+00  0.00000000E+00  0.00000000E+00
  0.00000000E+00  0.00000000E+00  0.00000000E+00
  0.00000000E+00  0.00000000E+00  0.00000000E+00
  0.00000000E+00  0.00000000E+00  0.00000000E+00
  0.00000000E+00  0.00000000E+00  0.00000000E+00
  0.00000000E+00  0.00000000E+00  0.00000000E+00
  0.00000000E+00  0.00000000E+00  0.00000000E+00
  0.00000000E+00  0.00000000E+00  0.00000000E+00
  0.00000000E+00  0.00000000E+00  0.00000000E+00
  0.00000000E+00  0.00000000E+00  0.00000000E+00
  0.00000000E+00  0.00000000E+00  0.00000000E+00
  0.00000000E+00  0.00000000E+00  0.00000000E+00
  0.00000000E+00  0.00000000E+00  0.00000000E+00
  0.00000000E+00  0.00000000E+00  0.00000000E+00
  0.00000000E+00  0.00000000E+00  0.00000000E+00
  0.00000000E+00  0.00000000E+00  0.00000000E+00
  0.00000000E+00  0.00000000E+00  0.00000000E+00
  0.00000000E+00  0.00000000E+00  0.00000000E+00
  0.00000000E+00  0.00000000E+00  0.00000000E+00
  0.00000000E+00  0.00000000E+00  0.00000000E+00
  0.00000000E+00  0.00000000E+00  0.00000000E+00
  0.00000000E+00  0.00000000E+00  0.00000000E+00
  0.00000000E+00  0.00000000E+00  0.00000000E+00
  0.00000000E+00  0.00000000E+00  0.00000000E+00
  0.00000000E+00  0.00000000E+00  0.00000000E+00
  0.00000000E+00  0.00000000E+00  0.00000000E+00
  0.00000000E+00  0.00000000E+00  0.00000000E+00
  0.00000000E+00  0.00000000E+00  0.00000000E+00
  0.00000000E+00  0.00000000E+00  0.00000000E+00
  0.00000000E+00  0.00000000E+00  0.00000000E+00
  0.00000000E+00  0.00000000E+00  0.00000000E+00
  0.00000000E+00  0.00000000E+00  0.00000000E+00
  0.00000000E+00  0.00000000E+00  0.00000000E+00
  0.00000000E+00  0.00000000E+00  0.00000000E+00
  0.00000000E+00  0.00000000E+00  0.00000000E+00
  0.00000000E+00  0.00000000E+00  0.00000000E+00
  0.00000000E+00  0.00000000E+00  0.00000000E+00
  0.00000000E+00  0.00000000E+00  0.00000000E+00
  0.00000000E+00  0.00000000E+00  0.00000000E+00
  0.00000000E+00  0.00000000E+00  0.00000000E+00
  0.00000000E+00  0.00000000E+00  0.00000000E+00
  0.00000000E+00  0.00000000E+00  0.00000000E+00
  0.00000000E+00  0.00000000E+00  0.00000000E+00
  0.00000000E+00  0.00000000E+00  0.00000000E+00
  0.00000000E+00  0.00000000E+00  0.00000000E+00
  0.00000000E+00  0.00000000E+00  0.00000000E+00
  0.00000000E+00  0.00000000E+00  0.00000000E+00
  0.00000000E+00  0.00000000E+00  0.00000000E+00
  0.00000000E+00  0.00000000E+00  0.00000000E+00
  0.00000000E+00  0.00000000E+00  0.00000000E+00
  0.00000000E+00  0.00000000E+00  0.00000000E+00
  0.00000000E+00  0.00000000E+00  0.00000000E+00
  0.00000000E+00  0.00000000E+00  0.00000000E+00
  0.00000000E+00  0.00000000E+00  0.00000000E+00
  0.00000000E+00  0.00000000E+00  0.00000000E+00
  0.00000000E+00  0.00000000E+00  0.00000000E+00
  0.00000000E+00  0.00000000E+00  0.00000000E+00
  0.00000000E+00  0.00000000E+00  0.00000000E+00
  0.00000000E+00  0.00000000E+00  0.00000000E+00
  0.00000000E+00  0.00000000E+00  0.00000000E+00
  0.00000000E+00  0.00000000E+00  0.00000000E+00
  0.00000000E+00  0.00000000E+00  0.00000000E+00
  0.00000000E+00  0.00000000E+00  0.00000000E+00
  0.00000000E+00  0.00000000E+00  0.00000000E+00
  0.00000000E+00  0.00000000E+00  0.00000000E+00
  0.00000000E+00  0.00000000E+00  0.00000000E+00
  0.00000000E+00  0.00000000E+00  0.00000000E+00
  0.00000000E+00  0.00000000E+00  0.00000000E+00
  0.00000000E+00  0.00000000E+00  0.00000000E+00
  0.00000000E+00  0.00000000E+00  0.00000000E+00
  0.00000000E+00  0.00000000E+00  0.00000000E+00
  0.00000000E+00  0.00000000E+00  0.00000000E+00
  0.00000000E+00  0.00000000E+00  0.00000000E+00
  0.00000000E+00  0.00000000E+00  0.00000000E+00
  0.00000000E+00  0.00000000E+00  0.00000000E+00
  0.00000000E+00  0.00000000E+00  0.00000000E+00
  0.00000000E+00  0.00000000E+00  0.00000000E+00
  0.00000000E+00  0.00000000E+00  0.00000000E+00
  0.00000000E+00  0.00000000E+00  0.00000000E+00
