config 28                               
   1.00000000000000     
    15.4263309999999993    0.0000000000000000    0.0000000000000000
     0.0000000000000000   15.4263309999999993    0.0000000000000000
     0.0000000000000000    0.0000000000000000   15.4263309999999993
   Li   Ti   O    F 
     1    64    64   128
Direct
  0.3215637410454928  0.6265227744191760  0.8752854638850279
  0.9961137197267933  0.9941741760284053  0.9944726819972801
  0.9988275296179908  0.9917984842326569  0.4935748588810276
  0.0059539347786290  0.4957124678382541  0.9971828395783525
  0.9945604410920909  0.5036064034495319  0.5080692405836498
  0.4950783470742773  0.9932959381582761  0.9994866848680944
  0.5020982157992405  0.0084351991322842  0.4991489720258018
  0.5040598723435854  0.4950069049686953  0.9962377755629268
  0.4914754588752426  0.4994267495915464  0.4959298138952275
  0.0068491629963357  0.0032308274717428  0.2558659487083608
  0.0010898410635356  0.0080827647223383  0.7566237029928021
  0.9936455481365394  0.4932041434708043  0.2512600857416989
  0.9935687006904448  0.4982952299752573  0.7415249063945464
  0.5057218139160152  0.0085975979094496  0.2503746107183135
  0.4920081573347855  0.0045115859772196  0.7523139568300937
  0.4922815775211081  0.4958434225615277  0.2572270430222264
  0.4992218028080072  0.5046336615492266  0.7582783518864575
  0.9960530980880122  0.2576981681380163  0.0019744045251042
  0.9984776756061667  0.2482546757697365  0.4915576306145324
  0.9995652155098268  0.7574592842841057  0.0060849295059055
  0.9978822334422515  0.7567978661783529  0.5055992115127096
  0.4958811771940412  0.2579772495893409  0.0019710322013453
  0.5091944377192980  0.2460383216916980  0.4981978681350540
  0.5079185950780544  0.7558155499671988  0.9988248635375807
  0.5088462838064925  0.7534891884749717  0.5079367514430116
  0.9998843580232680  0.2582148613793074  0.2552883970513535
  0.0060029697888839  0.2412159769645216  0.7478359885673547
  0.0077302624813047  0.7479246806809982  0.2437269658444114
  0.9947812653721820  0.7520556746182429  0.7423090764420149
  0.5082218312074326  0.2413606270908260  0.2522182489337569
  0.5066315347257440  0.2422856144704908  0.7507971044718691
  0.5069656182136650  0.7510084060748294  0.2529610059018399
  0.5017978502040659  0.7428905765501985  0.7425466770394753
  0.2569852863214023  0.9983307742205719  0.0053951021976580
  0.2514401375444794  0.9943171995662418  0.5064679383806847
  0.2433471862951674  0.5069548810243321  0.9999090033559627
  0.2544064319595824  0.4956761873989037  0.5073798903569358
  0.7571896161326774  0.9994345636827777  0.9940546575764118
  0.7498002063804806  0.0075719896448193  0.4947007713634392
  0.7409928278087737  0.5010122306111016  0.0042902146112158
  0.7552069293177768  0.4982267797001055  0.5060014620752062
  0.2452344286192544  0.0027294441825787  0.2431542253027527
  0.2580421090463819  0.9989887741757530  0.7442948815342635
  0.2549816411427923  0.4913320688605194  0.2520853800163518
  0.2478342111180022  0.5073763036509319  0.7400993624347960
  0.7446301925611436  0.0010577774733860  0.2554666932919250
  0.7489617376112843  0.0070027646797989  0.7557380623266623
  0.7550544381385141  0.4978900730956044  0.2420833705463909
  0.7568014538191385  0.4967841735780461  0.7421722556106783
  0.2573589335200459  0.2509757008803964  0.0065052757907946
  0.2539684486275829  0.2567290655530514  0.5063608536258760
  0.2542908861302466  0.7445605163860519  0.9934368306454433
  0.2530997244255263  0.7560912895558537  0.4914135662990052
  0.7571673995208617  0.2520026803852664  0.0079341258045196
  0.7423612489985515  0.2430261165282360  0.4976467182886146
  0.7424362814560250  0.7485059328118989  0.9926184497774764
  0.7420563125671783  0.7529393529618909  0.4930365370192513
  0.2508477969519533  0.2567913895729058  0.2435033077827062
  0.2438610642245572  0.2506937587436366  0.7445517752062754
  0.2444870398508461  0.7478728123731132  0.2558794124311547
  0.2497124974503227  0.7456886214384367  0.7502782440004162
  0.7418164740746732  0.2509860370951044  0.2427655444312811
  0.7455621590708901  0.2410513507767669  0.7509730803769867
  0.7462500087186178  0.7494488903415791  0.2571900796430805
  0.7586864485780708  0.7519245468733216  0.7554224494054136
  0.0147103870322783  0.5034887184973308  0.6248917853983743
  0.9966624027113442  0.0059839063568174  0.3759560407192868
  0.0017286344377509  0.0020950725806540  0.8727422623735169
  0.4935238504840526  0.4899508261688403  0.3754847132854717
  0.4855684571018080  0.4967936793669186  0.8749087811394277
  0.0082015632633639  0.7440716408483782  0.1257089073980202
  0.0111399275788538  0.7459841500508243  0.6233783555207053
  0.5168623008653069  0.7501788466149364  0.6238152452468400
  0.9907583592982181  0.2475124491247717  0.3766461389051039
  0.2574292918726526  0.0069459104263184  0.1246767348288388
  0.2578472524332357  0.0078015834276437  0.6254452862727407
  0.2321265444641211  0.5038308953866134  0.6251139631232163
  0.7444402823534265  0.4887251307731544  0.1250976756268415
  0.7398145306806143  0.4906895765094584  0.6244016007393172
  0.7493505600826094  0.0020670165650533  0.3760458862558325
  0.7446128760901956  0.0019076390090307  0.8734577295402597
  0.2427668551440428  0.2449157857246131  0.1257213357235227
  0.2504852390239751  0.2457513251975074  0.6257849198119942
  0.7380644665954676  0.2618465138305615  0.1267162534927479
  0.2649625699442007  0.7512144229272660  0.3733585074182643
  0.2708362417612116  0.7493977140300324  0.8798941957341281
  0.7612794450251978  0.7487934816004739  0.3741783716886898
  0.7594355115362468  0.7505675859837529  0.8752933083139636
  0.1249271804119460  0.5108908511715043  0.9886653302072472
  0.6251157493582732  0.5138739039717561  0.9927696348584756
  0.1257213942811705  0.0065198022037709  0.2502867225305737
  0.6247976763702511  0.0054770337262930  0.2481127190401053
  0.6245966491735563  0.2632253544974718  0.4900549103326420
  0.6243657656779557  0.7340659367565843  0.9908868951638614
  0.6250152013639318  0.7677288184258542  0.4844622528721201
  0.1248746869550756  0.2400063061507763  0.7525910272999503
  0.1255025368476890  0.7485671673752246  0.2614121641181627
  0.6256162408075640  0.2405199214888912  0.2659032838155012
  0.6260064593165492  0.2423078143558623  0.7507812199072980
  0.6230326962658772  0.7510608637989562  0.2614015213384185
  0.3764266370692357  0.9919355684233871  0.9900542793140336
  0.3756308328103697  0.5100683575472501  0.5105594858409599
  0.8731056324790897  0.9927872327496953  0.9985013320816180
  0.8751464838828467  0.5079224259884437  0.5068474279254420
  0.3761300637808946  0.9861066990260453  0.7591231803309247
  0.3736610739750169  0.4914885004146494  0.2428164515058335
  0.8752901205779349  0.4931353001095962  0.2462866601037738
  0.8754190792865397  0.4953864002877386  0.7394484527382362
  0.3762529213273733  0.2551548450984799  0.0077948210376774
  0.8743937755179961  0.2566115986909471  0.0094809937265078
  0.8748094624981950  0.7560674068658169  0.7382281969984669
  0.5166925900249698  0.1226515967814923  0.4926597060304158
  0.9855006107633908  0.1260108445491347  0.7439020088281754
  0.4909355844411816  0.1249526076956321  0.2654470914506613
  0.4910187108278461  0.1236608488262139  0.7501928906802874
  0.4881687506519106  0.6256317468326890  0.7520252946585958
  0.0078026026353689  0.3755204537746969  0.0049039377161891
  0.0103717093497619  0.8743482640344684  0.0019351894097545
  0.9883215773688422  0.8752580876508625  0.4988605345228166
  0.5104606742360586  0.3739696537280788  0.0088034602187579
  0.5121563011968119  0.8748932748007813  0.0050937669460683
  0.0111810521569920  0.3736689374550892  0.2468919898512298
  0.2684546649468923  0.6227147442146361  0.9938578015733333
  0.7346719604140127  0.1254243422539774  0.5061973893704452
  0.2681849759595225  0.6217089691943996  0.7602384526480477
  0.7620892180068726  0.1246984774099824  0.7412306365194860
  0.2578148882052331  0.3735874239390494  0.4995728409735576
  0.2594083409701073  0.8765710102315066  0.5031569237867587
  0.2379461375392891  0.3737870046697807  0.2522446094238892
  0.9989972527847917  0.0028408163694907  0.1265172687750212
  0.0028185706049555  0.9979296423134834  0.6236147695246232
  0.0068409068788608  0.5098111822790735  0.1251892995630489
  0.4909606886001610  0.0097540348941667  0.1262310912191860
  0.4943039802454998  0.9979344453553082  0.6227502993950933
  0.5067520144142229  0.5108550105927513  0.1271576924323892
  0.5134927035139476  0.5029983873718441  0.6246955852174425
  0.9956397566709295  0.4941048398466706  0.3764742296136466
  0.9892454134302516  0.4957126033597362  0.8729977624943736
  0.5064087878494100  0.9855712541376555  0.3766860624016389
  0.5181648856902402  0.9989262735767156  0.8749329138106441
  0.0119394907764093  0.2446249879906328  0.1274697260729161
  0.0033386019633773  0.2579346971223314  0.6217575624453745
  0.5130891721326165  0.2352828760772021  0.1271778485814880
  0.5009676051514558  0.2450466820386769  0.6226750305932924
  0.5101704722136194  0.7409735333806754  0.1271975463366601
  0.9923415283412693  0.2510132256846704  0.8746459310593480
  0.9846839284977442  0.7510810820515358  0.3747164839079785
  0.9881679346903632  0.7526301380337876  0.8745235045593522
  0.4874567554200385  0.2657590420353458  0.3756437203542191
  0.4973918008846927  0.2542172311280219  0.8751440959890890
  0.4831743215348854  0.7575032185178759  0.3755035337992533
  0.4837770993364490  0.7536730864902278  0.8746134473046639
  0.2363803597272956  0.5001989660686470  0.1259729195915121
  0.7506569098519391  0.0001953699228434  0.1263784006668147
  0.7487366164535386  0.9931821529540507  0.6228369351605504
  0.2511557642023102  0.9976681138168939  0.3751710879851258
  0.2408077590245222  0.9915249458102794  0.8742540767239835
  0.2551021590565556  0.5054675678799774  0.3757843739990174
  0.2710055759514516  0.4966569749157415  0.8753637540102128
  0.7516003736088325  0.5088375203311539  0.3749860741119297
  0.7587338466062814  0.5080866351936949  0.8742156284549527
  0.2414532813775716  0.7473575904636689  0.1261434530026183
  0.2345505321868908  0.7446726352468902  0.6182690896611512
  0.7476412912849140  0.2636213763562809  0.6229856544330111
  0.7416256512520918  0.7498810587774138  0.1257470190619992
  0.7364167197123377  0.7518396221401814  0.6239277398355397
  0.2573071116808292  0.2477026743210637  0.3746312808712358
  0.2549469009713375  0.2558063721389717  0.8758077783168737
  0.7661559351863750  0.2400543825255965  0.3744429954342212
  0.7566703005151129  0.2410498157113704  0.8764113802820257
  0.1266217978100780  0.0092691138920622  0.0036852693900515
  0.1251559020695586  0.9959933446180163  0.4999429565950895
  0.1233159358631430  0.4939613452750709  0.4864315152730999
  0.6250184472727713  0.0097959016967498  0.0098372017619411
  0.6240803694171322  0.9782830224268482  0.5043385746584607
  0.6251788582134145  0.4877928694338247  0.4926880853264127
  0.1272215156561434  0.0142868908736425  0.7453427569840531
  0.1238342395306029  0.5103932978428060  0.2568141714871287
  0.1243327376913936  0.5058325213207592  0.7691647352412961
  0.6238464853854989  0.0079290615507874  0.7382179138536173
  0.6246484400651106  0.5025189069816891  0.2550359985342145
  0.6255774677244648  0.5036241670547835  0.7624391202656010
  0.1251123363163285  0.2429058353177449  0.9916351210587564
  0.1238934600385906  0.2535158724195105  0.4944987379885489
  0.1257336416587345  0.7360731262561019  0.9891270286252912
  0.1238605067749118  0.7585843184693796  0.4824528361912704
  0.6265261341718309  0.2413176205316658  0.9913661182418296
  0.1246499191108747  0.2329711784536273  0.2610663216690740
  0.1195825122168642  0.7417210297759828  0.7654163475126140
  0.6257105662006681  0.7423974591507164  0.7641020020130855
  0.3784206203987016  0.0152675636254717  0.4919592560643630
  0.3733373433253284  0.4865042669822027  0.0150929358718503
  0.8744261835280444  0.0164202443759037  0.5072487812660451
  0.8747197992445571  0.4907859759685108  0.0049068402452553
  0.3774181180244247  0.9922751283619063  0.2582631370076802
  0.3750839547829150  0.4847990594984700  0.7327612880041846
  0.8737529440465037  0.9960440216377592  0.2477778721674521
  0.8743624755879595  0.9834824263802424  0.7453505017129072
  0.3794811206650591  0.2350169977511578  0.5010912424439515
  0.3779700465534573  0.7642247078191421  0.0192521017693418
  0.3778831880805925  0.7388698330231547  0.5125759849172882
  0.8742050916915554  0.2414661951086658  0.5095242612670633
  0.8722653666711501  0.7625622187421370  0.0105106302366783
  0.8724853933503917  0.7369948251864457  0.5127505867810631
  0.3783229443385308  0.2610597737635396  0.2418157900341928
  0.3766658952232217  0.2593594405045832  0.7495498510936990
  0.3778437946029441  0.7510016465824000  0.2373156671307710
  0.3797793826414783  0.7687493768411376  0.7327122031154105
  0.8741919498548936  0.2604992178226471  0.2403976600974416
  0.8745566821796700  0.2637379231755346  0.7445313307626141
  0.8733846842085941  0.7501959340590942  0.2395604783485691
  0.9960709921983852  0.1268571484990142  0.0009204381119273
  0.0065405523482843  0.1259129790943261  0.5090297647875859
  0.9867802593961291  0.6248567242489882  0.9937063206893811
  0.0085464374546475  0.6266833730808409  0.4905272394767317
  0.4970329538641682  0.1243847206713716  0.9948235538344387
  0.4798561364687630  0.6271310740232560  0.9953563324863234
  0.5133883114605424  0.6267779940170225  0.4926012420208508
  0.9876314605242512  0.1277346586348364  0.2463646040376858
  0.9947364202863831  0.6229490489304634  0.2587474490060814
  0.9962891042368851  0.6244349853322024  0.7562163065766178
  0.4970009816200384  0.6254668225858145  0.2598000634484877
  0.9944122517984039  0.3740010541405461  0.4999118493325494
  0.4870271812990727  0.3716591165135887  0.5105946649581482
  0.4825837686775630  0.8782401780710472  0.5025169106769287
  0.0081059555925847  0.3742404538627123  0.7505081346310907
  0.9986792589663364  0.8759380939298351  0.2501741630474710
  0.0113748561820914  0.8765855914246742  0.7465093810584348
  0.5092566063066747  0.3713641180433533  0.2374260185978792
  0.5068192320798411  0.3733134240018680  0.7440088487016047
  0.5000328225021569  0.8759302082868170  0.2418314339845904
  0.5143662692845604  0.8759482007905626  0.7517221160122141
  0.2549473057040016  0.1246428990439142  0.9882850401796527
  0.2429997566126210  0.1247039334938084  0.4933483248207511
  0.2408667308422459  0.6265032401088426  0.4960116262770894
  0.7538323055459615  0.1260366970615151  0.0072498841882752
  0.7676998374057502  0.6251661583863191  0.0066932920231430
  0.7362574030452765  0.6257649480546337  0.5039954655559101
  0.2642971795797023  0.1262331179154308  0.2570281503096549
  0.2638614311890456  0.1250457567529085  0.7626063527905725
  0.2548933436465652  0.6229105526305703  0.2466580473275751
  0.7628457890183930  0.1263888973660786  0.2440450259098770
  0.7500295875794787  0.6243885320758104  0.2438970193046326
  0.7504289141571742  0.6247688509048944  0.7438813530482264
  0.2402864951080106  0.3757717480032604  0.0018798949263720
  0.2371825780199622  0.8738276461842623  0.0064746851436798
  0.7394247620257380  0.3750074373259153  0.9844010753609093
  0.7622480849117477  0.3724722873563547  0.4872311397535736
  0.7347297785842180  0.8745440528514942  0.0046094441182261
  0.7677490257297388  0.8767192225777041  0.5008201615407462
  0.2424122553473858  0.3762308877259217  0.7527612561017069
  0.2511018708460591  0.8755848332590511  0.2452943204866638
  0.2337758844700206  0.8757621176790368  0.7425893302961265
  0.7430522738174341  0.3739666733667233  0.2686461867272478
  0.7445853444603621  0.3734223584257472  0.7619086783277017
  0.7505080516122118  0.8753233913069227  0.2463840247093235
  0.7384701369546055  0.8756106968146515  0.7469210241701734
 
  0.00000000E+00  0.00000000E+00  0.00000000E+00
  0.00000000E+00  0.00000000E+00  0.00000000E+00
  0.00000000E+00  0.00000000E+00  0.00000000E+00
  0.00000000E+00  0.00000000E+00  0.00000000E+00
  0.00000000E+00  0.00000000E+00  0.00000000E+00
  0.00000000E+00  0.00000000E+00  0.00000000E+00
  0.00000000E+00  0.00000000E+00  0.00000000E+00
  0.00000000E+00  0.00000000E+00  0.00000000E+00
  0.00000000E+00  0.00000000E+00  0.00000000E+00
  0.00000000E+00  0.00000000E+00  0.00000000E+00
  0.00000000E+00  0.00000000E+00  0.00000000E+00
  0.00000000E+00  0.00000000E+00  0.00000000E+00
  0.00000000E+00  0.00000000E+00  0.00000000E+00
  0.00000000E+00  0.00000000E+00  0.00000000E+00
  0.00000000E+00  0.00000000E+00  0.00000000E+00
  0.00000000E+00  0.00000000E+00  0.00000000E+00
  0.00000000E+00  0.00000000E+00  0.00000000E+00
  0.00000000E+00  0.00000000E+00  0.00000000E+00
  0.00000000E+00  0.00000000E+00  0.00000000E+00
  0.00000000E+00  0.00000000E+00  0.00000000E+00
  0.00000000E+00  0.00000000E+00  0.00000000E+00
  0.00000000E+00  0.00000000E+00  0.00000000E+00
  0.00000000E+00  0.00000000E+00  0.00000000E+00
  0.00000000E+00  0.00000000E+00  0.00000000E+00
  0.00000000E+00  0.00000000E+00  0.00000000E+00
  0.00000000E+00  0.00000000E+00  0.00000000E+00
  0.00000000E+00  0.00000000E+00  0.00000000E+00
  0.00000000E+00  0.00000000E+00  0.00000000E+00
  0.00000000E+00  0.00000000E+00  0.00000000E+00
  0.00000000E+00  0.00000000E+00  0.00000000E+00
  0.00000000E+00  0.00000000E+00  0.00000000E+00
  0.00000000E+00  0.00000000E+00  0.00000000E+00
  0.00000000E+00  0.00000000E+00  0.00000000E+00
  0.00000000E+00  0.00000000E+00  0.00000000E+00
  0.00000000E+00  0.00000000E+00  0.00000000E+00
  0.00000000E+00  0.00000000E+00  0.00000000E+00
  0.00000000E+00  0.00000000E+00  0.00000000E+00
  0.00000000E+00  0.00000000E+00  0.00000000E+00
  0.00000000E+00  0.00000000E+00  0.00000000E+00
  0.00000000E+00  0.00000000E+00  0.00000000E+00
  0.00000000E+00  0.00000000E+00  0.00000000E+00
  0.00000000E+00  0.00000000E+00  0.00000000E+00
  0.00000000E+00  0.00000000E+00  0.00000000E+00
  0.00000000E+00  0.00000000E+00  0.00000000E+00
  0.00000000E+00  0.00000000E+00  0.00000000E+00
  0.00000000E+00  0.00000000E+00  0.00000000E+00
  0.00000000E+00  0.00000000E+00  0.00000000E+00
  0.00000000E+00  0.00000000E+00  0.00000000E+00
  0.00000000E+00  0.00000000E+00  0.00000000E+00
  0.00000000E+00  0.00000000E+00  0.00000000E+00
  0.00000000E+00  0.00000000E+00  0.00000000E+00
  0.00000000E+00  0.00000000E+00  0.00000000E+00
  0.00000000E+00  0.00000000E+00  0.00000000E+00
  0.00000000E+00  0.00000000E+00  0.00000000E+00
  0.00000000E+00  0.00000000E+00  0.00000000E+00
  0.00000000E+00  0.00000000E+00  0.00000000E+00
  0.00000000E+00  0.00000000E+00  0.00000000E+00
  0.00000000E+00  0.00000000E+00  0.00000000E+00
  0.00000000E+00  0.00000000E+00  0.00000000E+00
  0.00000000E+00  0.00000000E+00  0.00000000E+00
  0.00000000E+00  0.00000000E+00  0.00000000E+00
  0.00000000E+00  0.00000000E+00  0.00000000E+00
  0.00000000E+00  0.00000000E+00  0.00000000E+00
  0.00000000E+00  0.00000000E+00  0.00000000E+00
  0.00000000E+00  0.00000000E+00  0.00000000E+00
  0.00000000E+00  0.00000000E+00  0.00000000E+00
  0.00000000E+00  0.00000000E+00  0.00000000E+00
  0.00000000E+00  0.00000000E+00  0.00000000E+00
  0.00000000E+00  0.00000000E+00  0.00000000E+00
  0.00000000E+00  0.00000000E+00  0.00000000E+00
  0.00000000E+00  0.00000000E+00  0.00000000E+00
  0.00000000E+00  0.00000000E+00  0.00000000E+00
  0.00000000E+00  0.00000000E+00  0.00000000E+00
  0.00000000E+00  0.00000000E+00  0.00000000E+00
  0.00000000E+00  0.00000000E+00  0.00000000E+00
  0.00000000E+00  0.00000000E+00  0.00000000E+00
  0.00000000E+00  0.00000000E+00  0.00000000E+00
  0.00000000E+00  0.00000000E+00  0.00000000E+00
  0.00000000E+00  0.00000000E+00  0.00000000E+00
  0.00000000E+00  0.00000000E+00  0.00000000E+00
  0.00000000E+00  0.00000000E+00  0.00000000E+00
  0.00000000E+00  0.00000000E+00  0.00000000E+00
  0.00000000E+00  0.00000000E+00  0.00000000E+00
  0.00000000E+00  0.00000000E+00  0.00000000E+00
  0.00000000E+00  0.00000000E+00  0.00000000E+00
  0.00000000E+00  0.00000000E+00  0.00000000E+00
  0.00000000E+00  0.00000000E+00  0.00000000E+00
  0.00000000E+00  0.00000000E+00  0.00000000E+00
  0.00000000E+00  0.00000000E+00  0.00000000E+00
  0.00000000E+00  0.00000000E+00  0.00000000E+00
  0.00000000E+00  0.00000000E+00  0.00000000E+00
  0.00000000E+00  0.00000000E+00  0.00000000E+00
  0.00000000E+00  0.00000000E+00  0.00000000E+00
  0.00000000E+00  0.00000000E+00  0.00000000E+00
  0.00000000E+00  0.00000000E+00  0.00000000E+00
  0.00000000E+00  0.00000000E+00  0.00000000E+00
  0.00000000E+00  0.00000000E+00  0.00000000E+00
  0.00000000E+00  0.00000000E+00  0.00000000E+00
  0.00000000E+00  0.00000000E+00  0.00000000E+00
  0.00000000E+00  0.00000000E+00  0.00000000E+00
  0.00000000E+00  0.00000000E+00  0.00000000E+00
  0.00000000E+00  0.00000000E+00  0.00000000E+00
  0.00000000E+00  0.00000000E+00  0.00000000E+00
  0.00000000E+00  0.00000000E+00  0.00000000E+00
  0.00000000E+00  0.00000000E+00  0.00000000E+00
  0.00000000E+00  0.00000000E+00  0.00000000E+00
  0.00000000E+00  0.00000000E+00  0.00000000E+00
  0.00000000E+00  0.00000000E+00  0.00000000E+00
  0.00000000E+00  0.00000000E+00  0.00000000E+00
  0.00000000E+00  0.00000000E+00  0.00000000E+00
  0.00000000E+00  0.00000000E+00  0.00000000E+00
  0.00000000E+00  0.00000000E+00  0.00000000E+00
  0.00000000E+00  0.00000000E+00  0.00000000E+00
  0.00000000E+00  0.00000000E+00  0.00000000E+00
  0.00000000E+00  0.00000000E+00  0.00000000E+00
  0.00000000E+00  0.00000000E+00  0.00000000E+00
  0.00000000E+00  0.00000000E+00  0.00000000E+00
  0.00000000E+00  0.00000000E+00  0.00000000E+00
  0.00000000E+00  0.00000000E+00  0.00000000E+00
  0.00000000E+00  0.00000000E+00  0.00000000E+00
  0.00000000E+00  0.00000000E+00  0.00000000E+00
  0.00000000E+00  0.00000000E+00  0.00000000E+00
  0.00000000E+00  0.00000000E+00  0.00000000E+00
  0.00000000E+00  0.00000000E+00  0.00000000E+00
  0.00000000E+00  0.00000000E+00  0.00000000E+00
  0.00000000E+00  0.00000000E+00  0.00000000E+00
  0.00000000E+00  0.00000000E+00  0.00000000E+00
  0.00000000E+00  0.00000000E+00  0.00000000E+00
  0.00000000E+00  0.00000000E+00  0.00000000E+00
  0.00000000E+00  0.00000000E+00  0.00000000E+00
  0.00000000E+00  0.00000000E+00  0.00000000E+00
  0.00000000E+00  0.00000000E+00  0.00000000E+00
  0.00000000E+00  0.00000000E+00  0.00000000E+00
  0.00000000E+00  0.00000000E+00  0.00000000E+00
  0.00000000E+00  0.00000000E+00  0.00000000E+00
  0.00000000E+00  0.00000000E+00  0.00000000E+00
  0.00000000E+00  0.00000000E+00  0.00000000E+00
  0.00000000E+00  0.00000000E+00  0.00000000E+00
  0.00000000E+00  0.00000000E+00  0.00000000E+00
  0.00000000E+00  0.00000000E+00  0.00000000E+00
  0.00000000E+00  0.00000000E+00  0.00000000E+00
  0.00000000E+00  0.00000000E+00  0.00000000E+00
  0.00000000E+00  0.00000000E+00  0.00000000E+00
  0.00000000E+00  0.00000000E+00  0.00000000E+00
  0.00000000E+00  0.00000000E+00  0.00000000E+00
  0.00000000E+00  0.00000000E+00  0.00000000E+00
  0.00000000E+00  0.00000000E+00  0.00000000E+00
  0.00000000E+00  0.00000000E+00  0.00000000E+00
  0.00000000E+00  0.00000000E+00  0.00000000E+00
  0.00000000E+00  0.00000000E+00  0.00000000E+00
  0.00000000E+00  0.00000000E+00  0.00000000E+00
  0.00000000E+00  0.00000000E+00  0.00000000E+00
  0.00000000E+00  0.00000000E+00  0.00000000E+00
  0.00000000E+00  0.00000000E+00  0.00000000E+00
  0.00000000E+00  0.00000000E+00  0.00000000E+00
  0.00000000E+00  0.00000000E+00  0.00000000E+00
  0.00000000E+00  0.00000000E+00  0.00000000E+00
  0.00000000E+00  0.00000000E+00  0.00000000E+00
  0.00000000E+00  0.00000000E+00  0.00000000E+00
  0.00000000E+00  0.00000000E+00  0.00000000E+00
  0.00000000E+00  0.00000000E+00  0.00000000E+00
  0.00000000E+00  0.00000000E+00  0.00000000E+00
  0.00000000E+00  0.00000000E+00  0.00000000E+00
  0.00000000E+00  0.00000000E+00  0.00000000E+00
  0.00000000E+00  0.00000000E+00  0.00000000E+00
  0.00000000E+00  0.00000000E+00  0.00000000E+00
  0.00000000E+00  0.00000000E+00  0.00000000E+00
  0.00000000E+00  0.00000000E+00  0.00000000E+00
  0.00000000E+00  0.00000000E+00  0.00000000E+00
  0.00000000E+00  0.00000000E+00  0.00000000E+00
  0.00000000E+00  0.00000000E+00  0.00000000E+00
  0.00000000E+00  0.00000000E+00  0.00000000E+00
  0.00000000E+00  0.00000000E+00  0.00000000E+00
  0.00000000E+00  0.00000000E+00  0.00000000E+00
  0.00000000E+00  0.00000000E+00  0.00000000E+00
  0.00000000E+00  0.00000000E+00  0.00000000E+00
  0.00000000E+00  0.00000000E+00  0.00000000E+00
  0.00000000E+00  0.00000000E+00  0.00000000E+00
  0.00000000E+00  0.00000000E+00  0.00000000E+00
  0.00000000E+00  0.00000000E+00  0.00000000E+00
  0.00000000E+00  0.00000000E+00  0.00000000E+00
  0.00000000E+00  0.00000000E+00  0.00000000E+00
  0.00000000E+00  0.00000000E+00  0.00000000E+00
  0.00000000E+00  0.00000000E+00  0.00000000E+00
  0.00000000E+00  0.00000000E+00  0.00000000E+00
  0.00000000E+00  0.00000000E+00  0.00000000E+00
  0.00000000E+00  0.00000000E+00  0.00000000E+00
  0.00000000E+00  0.00000000E+00  0.00000000E+00
  0.00000000E+00  0.00000000E+00  0.00000000E+00
  0.00000000E+00  0.00000000E+00  0.00000000E+00
  0.00000000E+00  0.00000000E+00  0.00000000E+00
  0.00000000E+00  0.00000000E+00  0.00000000E+00
  0.00000000E+00  0.00000000E+00  0.00000000E+00
  0.00000000E+00  0.00000000E+00  0.00000000E+00
  0.00000000E+00  0.00000000E+00  0.00000000E+00
  0.00000000E+00  0.00000000E+00  0.00000000E+00
  0.00000000E+00  0.00000000E+00  0.00000000E+00
  0.00000000E+00  0.00000000E+00  0.00000000E+00
  0.00000000E+00  0.00000000E+00  0.00000000E+00
  0.00000000E+00  0.00000000E+00  0.00000000E+00
  0.00000000E+00  0.00000000E+00  0.00000000E+00
  0.00000000E+00  0.00000000E+00  0.00000000E+00
  0.00000000E+00  0.00000000E+00  0.00000000E+00
  0.00000000E+00  0.00000000E+00  0.00000000E+00
  0.00000000E+00  0.00000000E+00  0.00000000E+00
  0.00000000E+00  0.00000000E+00  0.00000000E+00
  0.00000000E+00  0.00000000E+00  0.00000000E+00
  0.00000000E+00  0.00000000E+00  0.00000000E+00
  0.00000000E+00  0.00000000E+00  0.00000000E+00
  0.00000000E+00  0.00000000E+00  0.00000000E+00
  0.00000000E+00  0.00000000E+00  0.00000000E+00
  0.00000000E+00  0.00000000E+00  0.00000000E+00
  0.00000000E+00  0.00000000E+00  0.00000000E+00
  0.00000000E+00  0.00000000E+00  0.00000000E+00
  0.00000000E+00  0.00000000E+00  0.00000000E+00
  0.00000000E+00  0.00000000E+00  0.00000000E+00
  0.00000000E+00  0.00000000E+00  0.00000000E+00
  0.00000000E+00  0.00000000E+00  0.00000000E+00
  0.00000000E+00  0.00000000E+00  0.00000000E+00
  0.00000000E+00  0.00000000E+00  0.00000000E+00
  0.00000000E+00  0.00000000E+00  0.00000000E+00
  0.00000000E+00  0.00000000E+00  0.00000000E+00
  0.00000000E+00  0.00000000E+00  0.00000000E+00
  0.00000000E+00  0.00000000E+00  0.00000000E+00
  0.00000000E+00  0.00000000E+00  0.00000000E+00
  0.00000000E+00  0.00000000E+00  0.00000000E+00
  0.00000000E+00  0.00000000E+00  0.00000000E+00
  0.00000000E+00  0.00000000E+00  0.00000000E+00
  0.00000000E+00  0.00000000E+00  0.00000000E+00
  0.00000000E+00  0.00000000E+00  0.00000000E+00
  0.00000000E+00  0.00000000E+00  0.00000000E+00
  0.00000000E+00  0.00000000E+00  0.00000000E+00
  0.00000000E+00  0.00000000E+00  0.00000000E+00
  0.00000000E+00  0.00000000E+00  0.00000000E+00
  0.00000000E+00  0.00000000E+00  0.00000000E+00
  0.00000000E+00  0.00000000E+00  0.00000000E+00
  0.00000000E+00  0.00000000E+00  0.00000000E+00
  0.00000000E+00  0.00000000E+00  0.00000000E+00
  0.00000000E+00  0.00000000E+00  0.00000000E+00
  0.00000000E+00  0.00000000E+00  0.00000000E+00
  0.00000000E+00  0.00000000E+00  0.00000000E+00
  0.00000000E+00  0.00000000E+00  0.00000000E+00
  0.00000000E+00  0.00000000E+00  0.00000000E+00
  0.00000000E+00  0.00000000E+00  0.00000000E+00
  0.00000000E+00  0.00000000E+00  0.00000000E+00
  0.00000000E+00  0.00000000E+00  0.00000000E+00
  0.00000000E+00  0.00000000E+00  0.00000000E+00
  0.00000000E+00  0.00000000E+00  0.00000000E+00
  0.00000000E+00  0.00000000E+00  0.00000000E+00
  0.00000000E+00  0.00000000E+00  0.00000000E+00
  0.00000000E+00  0.00000000E+00  0.00000000E+00
  0.00000000E+00  0.00000000E+00  0.00000000E+00
  0.00000000E+00  0.00000000E+00  0.00000000E+00
  0.00000000E+00  0.00000000E+00  0.00000000E+00
  0.00000000E+00  0.00000000E+00  0.00000000E+00
  0.00000000E+00  0.00000000E+00  0.00000000E+00
  0.00000000E+00  0.00000000E+00  0.00000000E+00
