TiOF2 2x2x2 config 1065                 
   1.00000000000000     
     7.8293676686012201   -0.0005381495125189   -0.0009869140918804
    -0.0005601311665551    7.7244471336070823   -0.0008085793577409
    -0.0009513905329278   -0.0007905377007789    7.6202606273932441
   Ti   O    F 
     8     8    16
Direct
  0.0002129880058015  0.9849722277052189  0.9947695807677874
  0.0010462124034853  0.0004089293626894  0.5165380451222499
  0.0009224990252180  0.5109035686114196  0.9867833903445882
  0.9816373123022087  0.5001484258739659  0.5091154164706049
  0.5003760854830452  0.0028828884655042  0.0002117167900851
  0.5002598661124439  0.0071553846308406  0.4994992963814077
  0.5000456385287709  0.4809548344471642  0.0005876048643789
  0.5087886211035305  0.4840515005933138  0.5000025689596044
  0.7515058532839490  0.5004437300744755  0.4990025086462707
  0.9999917723255917  0.7501791556994819  0.0040337799454209
  0.5011308431756373  0.2561468585917784  0.9996449807894020
  0.4989742184670660  0.2541932034492405  0.5002698547539577
  0.9998754897496734  0.0030435932668784  0.7482595957149532
  0.0018541576176636  0.4971040072993010  0.7501755247884595
  0.5005860007142598  0.9973094758672379  0.2490294052021726
  0.5007161843803690  0.9973543656783564  0.7506774656181348
  0.2456984757309834  0.0024692780904314  0.0038569352310649
  0.2443305936311815  0.9967124962874389  0.4954344124644259
  0.2508544345674922  0.4997079043471025  0.0043641491746776
  0.2481644581619684  0.5025550516602499  0.4973551391509559
  0.7549014654874416  0.0023870822099083  0.0040022343288146
  0.7572591953894539  0.9964279446449436  0.4951790741197662
  0.7496845695471238  0.5001082482526903  0.0049718313213309
  0.9997339605978420  0.2502855836205723  0.0064893611830364
  0.0053815323746748  0.2480368890798026  0.4898720430714558
  0.0042925724386719  0.7523042367655819  0.4874972308090210
  0.5013329815282572  0.7435290764550022  0.9994769091262341
  0.4976218862040001  0.7464743733554334  0.5004823287984731
  0.9999356585669115  0.0055212518612368  0.2527496681116995
  0.0045289656914560  0.4950824411526467  0.2489875089696346
  0.4947811136049435  0.5158786891177669  0.2484708143261724
  0.4935743937988656  0.5152673034822931  0.7522096246536816
 
  0.00000000E+00  0.00000000E+00  0.00000000E+00
  0.00000000E+00  0.00000000E+00  0.00000000E+00
  0.00000000E+00  0.00000000E+00  0.00000000E+00
  0.00000000E+00  0.00000000E+00  0.00000000E+00
  0.00000000E+00  0.00000000E+00  0.00000000E+00
  0.00000000E+00  0.00000000E+00  0.00000000E+00
  0.00000000E+00  0.00000000E+00  0.00000000E+00
  0.00000000E+00  0.00000000E+00  0.00000000E+00
  0.00000000E+00  0.00000000E+00  0.00000000E+00
  0.00000000E+00  0.00000000E+00  0.00000000E+00
  0.00000000E+00  0.00000000E+00  0.00000000E+00
  0.00000000E+00  0.00000000E+00  0.00000000E+00
  0.00000000E+00  0.00000000E+00  0.00000000E+00
  0.00000000E+00  0.00000000E+00  0.00000000E+00
  0.00000000E+00  0.00000000E+00  0.00000000E+00
  0.00000000E+00  0.00000000E+00  0.00000000E+00
  0.00000000E+00  0.00000000E+00  0.00000000E+00
  0.00000000E+00  0.00000000E+00  0.00000000E+00
  0.00000000E+00  0.00000000E+00  0.00000000E+00
  0.00000000E+00  0.00000000E+00  0.00000000E+00
  0.00000000E+00  0.00000000E+00  0.00000000E+00
  0.00000000E+00  0.00000000E+00  0.00000000E+00
  0.00000000E+00  0.00000000E+00  0.00000000E+00
  0.00000000E+00  0.00000000E+00  0.00000000E+00
  0.00000000E+00  0.00000000E+00  0.00000000E+00
  0.00000000E+00  0.00000000E+00  0.00000000E+00
  0.00000000E+00  0.00000000E+00  0.00000000E+00
  0.00000000E+00  0.00000000E+00  0.00000000E+00
  0.00000000E+00  0.00000000E+00  0.00000000E+00
  0.00000000E+00  0.00000000E+00  0.00000000E+00
  0.00000000E+00  0.00000000E+00  0.00000000E+00
  0.00000000E+00  0.00000000E+00  0.00000000E+00
