TiOF2 2x2x2 config 0540                 
   1.00000000000000     
     7.8204567316257050    0.0005415625802889   -0.0013745826246183
     0.0005395150953059    7.7695538695622366    0.0000310863608214
    -0.0013260353452990    0.0000047292308616    7.6256902018039243
   Ti   O    F 
     8     8    16
Direct
  0.0001489783487116  0.0008613368384118  0.9834333925836205
  0.0006539528123355  0.9812697685230134  0.5038669081174589
  0.0009221426984851  0.5002482401866644  0.9830312788241500
  0.9822691400039645  0.5056665849077788  0.5016469408285076
  0.5002284680816160  0.9998102511808895  0.9916581874900956
  0.5001385921214307  0.9901947886021389  0.4860237195377621
  0.5002278781927600  0.4990878792606992  0.9834059300048992
  0.5089410625363797  0.5154424667107449  0.5029012106763275
  0.7517249695961183  0.4984154609585332  0.4970471301616257
  0.0009005874995438  0.7523631017965045  0.4969087031466799
  0.4990621328294864  0.7493221028868930  0.5000863113639511
  0.0000585831305884  0.0010405733642926  0.7552583534128274
  0.0013458169318952  0.4985000652172218  0.7566759245585644
  0.5003754886988290  0.9999517382546230  0.2472029633337485
  0.5003733245341309  0.0003703719087440  0.7592176523542307
  0.4987146932290543  0.4980343883182172  0.7570623653595376
  0.2450781116476861  0.9994999840186338  0.0072945897909591
  0.2465106837329785  0.0078512508928057  0.4992366512393289
  0.2491664634557793  0.5007431800306463  0.0080380096486650
  0.2484512428567385  0.4961273074162378  0.4961248758956245
  0.7553242746841136  0.9995218345289985  0.0073445754260462
  0.7542898588677360  0.0095420770568424  0.4991821470174926
  0.7518926534625621  0.5007369960853367  0.0095119748365562
  0.9998314262972769  0.2505009760614243  0.0092735650287068
  0.0029079782573405  0.2477353201912678  0.4957748009891176
  0.9998360183200035  0.7503442618575491  0.0108795659987848
  0.5008574256043232  0.2529411965551702  0.0084334405679272
  0.4976550610776442  0.2514862838921417  0.5009320285580827
  0.5008773169837255  0.7456761097667624  0.0090067199379007
  0.0000889688085977  0.0040905866253382  0.2459248941049523
  0.0042020269948040  0.4970423143002662  0.2433700922963880
  0.4969446777033610  0.4955812018052157  0.2442450969094878
 
  0.00000000E+00  0.00000000E+00  0.00000000E+00
  0.00000000E+00  0.00000000E+00  0.00000000E+00
  0.00000000E+00  0.00000000E+00  0.00000000E+00
  0.00000000E+00  0.00000000E+00  0.00000000E+00
  0.00000000E+00  0.00000000E+00  0.00000000E+00
  0.00000000E+00  0.00000000E+00  0.00000000E+00
  0.00000000E+00  0.00000000E+00  0.00000000E+00
  0.00000000E+00  0.00000000E+00  0.00000000E+00
  0.00000000E+00  0.00000000E+00  0.00000000E+00
  0.00000000E+00  0.00000000E+00  0.00000000E+00
  0.00000000E+00  0.00000000E+00  0.00000000E+00
  0.00000000E+00  0.00000000E+00  0.00000000E+00
  0.00000000E+00  0.00000000E+00  0.00000000E+00
  0.00000000E+00  0.00000000E+00  0.00000000E+00
  0.00000000E+00  0.00000000E+00  0.00000000E+00
  0.00000000E+00  0.00000000E+00  0.00000000E+00
  0.00000000E+00  0.00000000E+00  0.00000000E+00
  0.00000000E+00  0.00000000E+00  0.00000000E+00
  0.00000000E+00  0.00000000E+00  0.00000000E+00
  0.00000000E+00  0.00000000E+00  0.00000000E+00
  0.00000000E+00  0.00000000E+00  0.00000000E+00
  0.00000000E+00  0.00000000E+00  0.00000000E+00
  0.00000000E+00  0.00000000E+00  0.00000000E+00
  0.00000000E+00  0.00000000E+00  0.00000000E+00
  0.00000000E+00  0.00000000E+00  0.00000000E+00
  0.00000000E+00  0.00000000E+00  0.00000000E+00
  0.00000000E+00  0.00000000E+00  0.00000000E+00
  0.00000000E+00  0.00000000E+00  0.00000000E+00
  0.00000000E+00  0.00000000E+00  0.00000000E+00
  0.00000000E+00  0.00000000E+00  0.00000000E+00
  0.00000000E+00  0.00000000E+00  0.00000000E+00
  0.00000000E+00  0.00000000E+00  0.00000000E+00
