TiOF2 2x2x2 config 0540                 
   1.00000000000000     
     7.8204567316257050    0.0005415625802889   -0.0013745826246183
     0.0005395150953059    7.7695538695622366    0.0000310863608214
    -0.0013260353452990    0.0000047292308616    7.6256902018039243
   Ti   O    F 
     8     8    16
Direct
  0.0001489783487091  0.0008613368384139  0.9834333925836196
  0.0006539528123341  0.9812697685230165  0.5038669081174625
  0.0009221426984876  0.5002482401866657  0.9830312788241473
  0.9822691400039630  0.5056665849077757  0.5016469408285043
  0.5002284680816157  0.9998102511808882  0.9916581874900956
  0.5001385921214342  0.9901947886021392  0.4860237195377649
  0.5002278781927633  0.4990878792607009  0.9834059300048984
  0.5089410625363823  0.5154424667107451  0.5029012106763247
  0.7517249695961188  0.4984154609585348  0.4970471301616236
  0.0009005874995409  0.7523631017965070  0.4969087031466806
  0.4990621328294850  0.7493221028868955  0.5000863113639498
  0.0000585831305876  0.0010405733642953  0.7552583534128291
  0.0013458169318945  0.4985000652172228  0.7566759245585660
  0.5003754886988278  0.9999517382546259  0.2472029633337457
  0.5003733245341325  0.0003703719087441  0.7592176523542326
  0.4987146932290577  0.4980343883182160  0.7570623653595366
  0.2450781116476896  0.9994999840186308  0.0072945897909575
  0.2465106837329816  0.0078512508928047  0.4992366512393301
  0.2491664634557801  0.5007431800306450  0.0080380096486672
  0.2484512428567394  0.4961273074162351  0.4961248758956235
  0.7553242746841122  0.9995218345289996  0.0073445754260432
  0.7542898588677388  0.0095420770568406  0.4991821470174957
  0.7518926534625641  0.5007369960853387  0.0095119748365556
  0.9998314262972756  0.2505009760614217  0.0092735650287044
  0.0029079782573389  0.2477353201912663  0.4957748009891192
  0.9998360183200012  0.7503442618575479  0.0108795659987854
  0.5008574256043197  0.2529411965551711  0.0084334405679241
  0.4976550610776473  0.2514862838921426  0.5009320285580807
  0.5008773169837265  0.7456761097667630  0.0090067199378985
  0.0000889688086011  0.0040905866253396  0.2459248941049549
  0.0042020269948050  0.4970423143002655  0.2433700922963852
  0.4969446777033592  0.4955812018052155  0.2442450969094861
 
  0.00000000E+00  0.00000000E+00  0.00000000E+00
  0.00000000E+00  0.00000000E+00  0.00000000E+00
  0.00000000E+00  0.00000000E+00  0.00000000E+00
  0.00000000E+00  0.00000000E+00  0.00000000E+00
  0.00000000E+00  0.00000000E+00  0.00000000E+00
  0.00000000E+00  0.00000000E+00  0.00000000E+00
  0.00000000E+00  0.00000000E+00  0.00000000E+00
  0.00000000E+00  0.00000000E+00  0.00000000E+00
  0.00000000E+00  0.00000000E+00  0.00000000E+00
  0.00000000E+00  0.00000000E+00  0.00000000E+00
  0.00000000E+00  0.00000000E+00  0.00000000E+00
  0.00000000E+00  0.00000000E+00  0.00000000E+00
  0.00000000E+00  0.00000000E+00  0.00000000E+00
  0.00000000E+00  0.00000000E+00  0.00000000E+00
  0.00000000E+00  0.00000000E+00  0.00000000E+00
  0.00000000E+00  0.00000000E+00  0.00000000E+00
  0.00000000E+00  0.00000000E+00  0.00000000E+00
  0.00000000E+00  0.00000000E+00  0.00000000E+00
  0.00000000E+00  0.00000000E+00  0.00000000E+00
  0.00000000E+00  0.00000000E+00  0.00000000E+00
  0.00000000E+00  0.00000000E+00  0.00000000E+00
  0.00000000E+00  0.00000000E+00  0.00000000E+00
  0.00000000E+00  0.00000000E+00  0.00000000E+00
  0.00000000E+00  0.00000000E+00  0.00000000E+00
  0.00000000E+00  0.00000000E+00  0.00000000E+00
  0.00000000E+00  0.00000000E+00  0.00000000E+00
  0.00000000E+00  0.00000000E+00  0.00000000E+00
  0.00000000E+00  0.00000000E+00  0.00000000E+00
  0.00000000E+00  0.00000000E+00  0.00000000E+00
  0.00000000E+00  0.00000000E+00  0.00000000E+00
  0.00000000E+00  0.00000000E+00  0.00000000E+00
  0.00000000E+00  0.00000000E+00  0.00000000E+00
