Ti27 O27 F54                            
   1.00000000000000     
    11.6187990808467685   -0.0064445003307471   -0.0027346973921129
    -0.0064169107816125   11.5884865250040932   -0.0005575301580469
    -0.0027112370775082   -0.0005748286629635   11.5851620354519191
   Ti   O    F 
    27    27    54
Direct
  0.9866322909418699  0.0010952289690280  0.9999364695871904
  0.0110427258612447  0.9913518590990762  0.3421090459896732
  0.0094560340949172  0.0003621864920902  0.6539921779618680
  0.9996498360203674  0.3465285522656671  0.0006549404069887
  0.9994701286257097  0.3325902201249420  0.3467931357481433
  0.0118796293647705  0.3427547925470265  0.6615656612182335
  0.0066525050680326  0.6613259976516801  0.9885613692414879
  0.0113321680000595  0.6780383749280006  0.3316653598930159
  0.0100377038817143  0.6568178047979387  0.6748735018128897
  0.3319391680975201  0.0093279584112054  0.0106887970743799
  0.3231017396295854  0.9895373079869003  0.3255731125119894
  0.3235439551980548  0.0110819159447217  0.6676206201067743
  0.3452106563176898  0.3225108871027089  0.9997832789336201
  0.3441638723175870  0.3340425300946990  0.3442006971232701
  0.3222068800951661  0.3251120371692195  0.6588506879488278
  0.3199366234029597  0.6662047681186962  0.9999426911374982
  0.3233720909883644  0.6758991432660366  0.3419285087839228
  0.3231356435822050  0.6663935130625092  0.6547647806637684
  0.6717477284883557  0.0119303871872702  0.9936966376042662
  0.6674096167465891  0.0140179987078568  0.3336239220137145
  0.6664073178542509  0.9930071335296873  0.6793843052060495
  0.6573509659003207  0.3253149656962435  0.0119024251918347
  0.6572530359371882  0.3284071473432633  0.3206712870434814
  0.6674262808015996  0.3348090702210200  0.6665220214927814
  0.6659549088643644  0.6660853295923772  0.0099301706624715
  0.6666220518620847  0.6665967089357423  0.3242970914300045
  0.6668085238211461  0.6804267942366025  0.6667296177550099
  0.9965772166361404  0.4986249955875053  0.9984352138085413
  0.9944756121939804  0.4990028091420555  0.6697345046673249
  0.9964167864131426  0.8327769201425212  0.3311315344279180
  0.3344174767564638  0.1665562635692623  0.9922334250753764
  0.3389874117894394  0.1664261303511623  0.6725067620223726
  0.3381150398100630  0.8319758135561628  0.3332995344076508
  0.6635014440098246  0.1663261170944352  0.0068220967517192
  0.6699217600362957  0.1657098988189816  0.3294397894765027
  0.6665697374909172  0.8321536853758076  0.6647733368908604
  0.1667724521377565  0.0039211016924625  0.3378579700640003
  0.1666541831403592  0.9973189323481719  0.6657896507789687
  0.1664008661426877  0.3331456002109121  0.6725454493488883
  0.1682652382131593  0.6692531296028008  0.0040047275520934
  0.1653393075422045  0.6629642759698413  0.3279150625166096
  0.1677681745461825  0.6695641192891060  0.6669531738793140
  0.5003390151381666  0.3409780235048459  0.0013745997918377
  0.5013531321339997  0.3362133300801702  0.3321213622237167
  0.8340011288111384  0.9989609916393221  0.0034961542668341
  0.9919198832593068  0.0074760275496288  0.5003754240297980
  0.0012537466971665  0.3278993891526980  0.4984086238725141
  0.9956138556100456  0.6738045644773152  0.8348485062844020
  0.3328436957250318  0.0020322065464597  0.1646237251691218
  0.3322757312449696  0.3385598832548737  0.4996347312163749
  0.3384021087341154  0.6599049357683384  0.5004612695132806
  0.6641468652385782  0.0018846613820429  0.8325916401429083
  0.6743660909770242  0.3475805929858993  0.1665574476031253
  0.6661257134422627  0.6623756240015268  0.1667808017192911
  0.0040848021777293  0.1671375222797025  0.9984835368581173
  0.9909649727979541  0.1678347868683190  0.3238093193968155
  0.9935032885966280  0.1668675498267334  0.6764111774677488
  0.9950279313849322  0.4984832665284458  0.3303497553206398
  0.9999905127529019  0.8344373695535765  0.0100310147575655
  0.9889709619935019  0.8330855812297173  0.6616563464958034
  0.3373193202937017  0.1669663973454973  0.3347418133646372
  0.3291275959978961  0.5003260206099256  0.0017702175235002
  0.3331940212749203  0.4999304730867564  0.3218357196256107
  0.3408043482826528  0.4998606172952762  0.6751901850790034
  0.3387760973762894  0.8311938588189278  0.9990798745309846
  0.3449674875564313  0.8332286345205375  0.6662001877774131
  0.6627397369665360  0.1699840131809793  0.6617520485676209
  0.6767715289313543  0.5025113748330909  0.9880023356512808
  0.6715248389495301  0.5021995643290893  0.3450838523569004
  0.6710976644129119  0.4989040833801539  0.6682178021978231
  0.6620461010328000  0.8298590484234083  0.9980941703990780
  0.6652165799301741  0.8307660312930452  0.3394075757224613
  0.1642946801102809  0.9948938556232036  0.9936933763060267
  0.1654383836306579  0.3347961161769177  0.9973382732809029
  0.1648678144044879  0.3319349343385127  0.3266908412828329
  0.5006547316544143  0.9920960191934611  0.0006520945900803
  0.5031340548774210  0.0004972821131872  0.3378584751656106
  0.5023109795500886  0.0007426592306601  0.6609578768490465
  0.5056979362581302  0.3384212569575453  0.6684092303927329
  0.5024681020156478  0.6596207420891318  0.9950486084485490
  0.5037130150715114  0.6596729153801490  0.3328016077922911
  0.5039225145777451  0.6601490085673021  0.6729994867944669
  0.8310411223049954  0.9963339323065128  0.3234696467345799
  0.8315379664593365  0.0056513378586089  0.6708483168911101
  0.8338625665922876  0.3290967814922752  0.9943312191023281
  0.8325894780476233  0.3371665218831552  0.3380390248199348
  0.8292912889671840  0.3281983728707871  0.6677986756457130
  0.8303962264838063  0.6743245598017040  0.0006671102809221
  0.8296364701608994  0.6646873948218825  0.3375435730240426
  0.8297306715323174  0.6647480212329242  0.6621853595239813
  0.0046276777038088  0.0059859392811035  0.1649073705645208
  0.9971065014162974  0.9943472717649371  0.8341212525900659
  0.9957441189622287  0.3311613221927701  0.1660416099845037
  0.9941641396438854  0.3263746455787597  0.8351182165233055
  0.9877320014406905  0.6631268046971357  0.1650778370582771
  0.9942669760780376  0.6640880922460326  0.4993494406596355
  0.3407427218183372  0.0014079864415990  0.5006085848748327
  0.3388278788977672  0.9894432697946058  0.8339792834683664
  0.3261257753503415  0.3306442899213380  0.1663104012345897
  0.3367501691622294  0.3425616553416049  0.8334319474758090
  0.3463380109127385  0.6658409975912676  0.1639538120996420
  0.3393096903107491  0.6672021484974593  0.8348921894038881
  0.6602139344162836  0.9863592573770390  0.1680026324001744
  0.6733820199249791  0.0015327493318296  0.5003706085790540
  0.6693923980365923  0.3360877519901635  0.5034245835810225
  0.6692998190145971  0.3323912213577600  0.8299502650783097
  0.6621329840839465  0.6634570044077961  0.5001107779914733
  0.6705596337846416  0.6664190502691980  0.8339206243698953
 
  0.00000000E+00  0.00000000E+00  0.00000000E+00
  0.00000000E+00  0.00000000E+00  0.00000000E+00
  0.00000000E+00  0.00000000E+00  0.00000000E+00
  0.00000000E+00  0.00000000E+00  0.00000000E+00
  0.00000000E+00  0.00000000E+00  0.00000000E+00
  0.00000000E+00  0.00000000E+00  0.00000000E+00
  0.00000000E+00  0.00000000E+00  0.00000000E+00
  0.00000000E+00  0.00000000E+00  0.00000000E+00
  0.00000000E+00  0.00000000E+00  0.00000000E+00
  0.00000000E+00  0.00000000E+00  0.00000000E+00
  0.00000000E+00  0.00000000E+00  0.00000000E+00
  0.00000000E+00  0.00000000E+00  0.00000000E+00
  0.00000000E+00  0.00000000E+00  0.00000000E+00
  0.00000000E+00  0.00000000E+00  0.00000000E+00
  0.00000000E+00  0.00000000E+00  0.00000000E+00
  0.00000000E+00  0.00000000E+00  0.00000000E+00
  0.00000000E+00  0.00000000E+00  0.00000000E+00
  0.00000000E+00  0.00000000E+00  0.00000000E+00
  0.00000000E+00  0.00000000E+00  0.00000000E+00
  0.00000000E+00  0.00000000E+00  0.00000000E+00
  0.00000000E+00  0.00000000E+00  0.00000000E+00
  0.00000000E+00  0.00000000E+00  0.00000000E+00
  0.00000000E+00  0.00000000E+00  0.00000000E+00
  0.00000000E+00  0.00000000E+00  0.00000000E+00
  0.00000000E+00  0.00000000E+00  0.00000000E+00
  0.00000000E+00  0.00000000E+00  0.00000000E+00
  0.00000000E+00  0.00000000E+00  0.00000000E+00
  0.00000000E+00  0.00000000E+00  0.00000000E+00
  0.00000000E+00  0.00000000E+00  0.00000000E+00
  0.00000000E+00  0.00000000E+00  0.00000000E+00
  0.00000000E+00  0.00000000E+00  0.00000000E+00
  0.00000000E+00  0.00000000E+00  0.00000000E+00
  0.00000000E+00  0.00000000E+00  0.00000000E+00
  0.00000000E+00  0.00000000E+00  0.00000000E+00
  0.00000000E+00  0.00000000E+00  0.00000000E+00
  0.00000000E+00  0.00000000E+00  0.00000000E+00
  0.00000000E+00  0.00000000E+00  0.00000000E+00
  0.00000000E+00  0.00000000E+00  0.00000000E+00
  0.00000000E+00  0.00000000E+00  0.00000000E+00
  0.00000000E+00  0.00000000E+00  0.00000000E+00
  0.00000000E+00  0.00000000E+00  0.00000000E+00
  0.00000000E+00  0.00000000E+00  0.00000000E+00
  0.00000000E+00  0.00000000E+00  0.00000000E+00
  0.00000000E+00  0.00000000E+00  0.00000000E+00
  0.00000000E+00  0.00000000E+00  0.00000000E+00
  0.00000000E+00  0.00000000E+00  0.00000000E+00
  0.00000000E+00  0.00000000E+00  0.00000000E+00
  0.00000000E+00  0.00000000E+00  0.00000000E+00
  0.00000000E+00  0.00000000E+00  0.00000000E+00
  0.00000000E+00  0.00000000E+00  0.00000000E+00
  0.00000000E+00  0.00000000E+00  0.00000000E+00
  0.00000000E+00  0.00000000E+00  0.00000000E+00
  0.00000000E+00  0.00000000E+00  0.00000000E+00
  0.00000000E+00  0.00000000E+00  0.00000000E+00
  0.00000000E+00  0.00000000E+00  0.00000000E+00
  0.00000000E+00  0.00000000E+00  0.00000000E+00
  0.00000000E+00  0.00000000E+00  0.00000000E+00
  0.00000000E+00  0.00000000E+00  0.00000000E+00
  0.00000000E+00  0.00000000E+00  0.00000000E+00
  0.00000000E+00  0.00000000E+00  0.00000000E+00
  0.00000000E+00  0.00000000E+00  0.00000000E+00
  0.00000000E+00  0.00000000E+00  0.00000000E+00
  0.00000000E+00  0.00000000E+00  0.00000000E+00
  0.00000000E+00  0.00000000E+00  0.00000000E+00
  0.00000000E+00  0.00000000E+00  0.00000000E+00
  0.00000000E+00  0.00000000E+00  0.00000000E+00
  0.00000000E+00  0.00000000E+00  0.00000000E+00
  0.00000000E+00  0.00000000E+00  0.00000000E+00
  0.00000000E+00  0.00000000E+00  0.00000000E+00
  0.00000000E+00  0.00000000E+00  0.00000000E+00
  0.00000000E+00  0.00000000E+00  0.00000000E+00
  0.00000000E+00  0.00000000E+00  0.00000000E+00
  0.00000000E+00  0.00000000E+00  0.00000000E+00
  0.00000000E+00  0.00000000E+00  0.00000000E+00
  0.00000000E+00  0.00000000E+00  0.00000000E+00
  0.00000000E+00  0.00000000E+00  0.00000000E+00
  0.00000000E+00  0.00000000E+00  0.00000000E+00
  0.00000000E+00  0.00000000E+00  0.00000000E+00
  0.00000000E+00  0.00000000E+00  0.00000000E+00
  0.00000000E+00  0.00000000E+00  0.00000000E+00
  0.00000000E+00  0.00000000E+00  0.00000000E+00
  0.00000000E+00  0.00000000E+00  0.00000000E+00
  0.00000000E+00  0.00000000E+00  0.00000000E+00
  0.00000000E+00  0.00000000E+00  0.00000000E+00
  0.00000000E+00  0.00000000E+00  0.00000000E+00
  0.00000000E+00  0.00000000E+00  0.00000000E+00
  0.00000000E+00  0.00000000E+00  0.00000000E+00
  0.00000000E+00  0.00000000E+00  0.00000000E+00
  0.00000000E+00  0.00000000E+00  0.00000000E+00
  0.00000000E+00  0.00000000E+00  0.00000000E+00
  0.00000000E+00  0.00000000E+00  0.00000000E+00
  0.00000000E+00  0.00000000E+00  0.00000000E+00
  0.00000000E+00  0.00000000E+00  0.00000000E+00
  0.00000000E+00  0.00000000E+00  0.00000000E+00
  0.00000000E+00  0.00000000E+00  0.00000000E+00
  0.00000000E+00  0.00000000E+00  0.00000000E+00
  0.00000000E+00  0.00000000E+00  0.00000000E+00
  0.00000000E+00  0.00000000E+00  0.00000000E+00
  0.00000000E+00  0.00000000E+00  0.00000000E+00
  0.00000000E+00  0.00000000E+00  0.00000000E+00
  0.00000000E+00  0.00000000E+00  0.00000000E+00
  0.00000000E+00  0.00000000E+00  0.00000000E+00
  0.00000000E+00  0.00000000E+00  0.00000000E+00
  0.00000000E+00  0.00000000E+00  0.00000000E+00
  0.00000000E+00  0.00000000E+00  0.00000000E+00
  0.00000000E+00  0.00000000E+00  0.00000000E+00
  0.00000000E+00  0.00000000E+00  0.00000000E+00
  0.00000000E+00  0.00000000E+00  0.00000000E+00
