config 30                               
   1.00000000000000     
    15.4263309999999993    0.0000000000000000    0.0000000000000000
     0.0000000000000000   15.4263309999999993    0.0000000000000000
     0.0000000000000000    0.0000000000000000   15.4263309999999993
   Li   Ti   O    F 
     1    64    64   128
Direct
  0.3100842872948882  0.8805864815292328  0.3723698877335124
  0.9961414379186970  0.9951651386789464  0.9945100046765967
  0.9984058088560106  0.9916805425340349  0.4939647890143331
  0.0061582140904699  0.4959650334550827  0.9971491961807908
  0.9945767395560366  0.5043105757303818  0.5072431691177718
  0.4952154032198086  0.9929244859414694  0.9998341214361801
  0.5022341508548415  0.0058805957412678  0.4992099401118292
  0.5040569016319965  0.4949671170027748  0.9963602938388797
  0.4918308083313944  0.4974466405935425  0.4957554680899260
  0.0062263497199976  0.0034937058046337  0.2559800515778698
  0.0022713381434330  0.0078943796796840  0.7570473034476299
  0.9938713171233970  0.4925741508523864  0.2509691138746644
  0.9931430907041554  0.5000217186079929  0.7412303033055423
  0.5066566337991435  0.0079148882590169  0.2508590604093334
  0.4931327267923544  0.0050782319397773  0.7524659806647632
  0.4926288228678571  0.4943101470127870  0.2573100063731521
  0.5010669118331900  0.5037712623516126  0.7587385538126131
  0.9958165058192693  0.2580634130640873  0.0021156371304453
  0.9981969316040401  0.2483964618344403  0.4914205004135428
  0.9993037529862758  0.7580695534171480  0.0058260870868115
  0.9970107385783994  0.7573992737463016  0.5057436829133977
  0.4955221669592794  0.2578678703521541  0.0020173986507949
  0.5095223767285982  0.2424613182233800  0.4972272825718207
  0.5077545996866738  0.7550331505178189  0.9985202683214954
  0.5086658429110080  0.7523132912901619  0.5083438642072172
  0.9997796104117515  0.2583376743961878  0.2552940878885947
  0.0067111096340473  0.2430408540654459  0.7478966033353016
  0.0064449565991203  0.7474964153454000  0.2432971689847732
  0.9936001522276829  0.7506718418045325  0.7420947987554266
  0.5075421317645719  0.2398997289775928  0.2525481544899209
  0.5071414957322665  0.2430955352482412  0.7503094793612526
  0.5071643965511935  0.7497244185453151  0.2518177624633809
  0.5029091119140109  0.7419043100300409  0.7436672923057045
  0.2575425095320889  0.9978626605650053  0.0041742653690914
  0.2519160016450496  0.9976158902967793  0.5110947743110383
  0.2439974305122107  0.5082285182443400  0.9969123986668377
  0.2555284256246514  0.4955419665816705  0.5064139555575135
  0.7572069037524219  0.9999433071945227  0.9941456223215267
  0.7486823923680217  0.0088993398821342  0.4951121632680527
  0.7414936861328503  0.5005809109236766  0.0045819148479750
  0.7562081608232633  0.4987597247440282  0.5054594621122813
  0.2441515653822203  0.0054900656634833  0.2402594782908885
  0.2590790697004890  0.9983598616170333  0.7479587021801926
  0.2548726871245980  0.4899177816401436  0.2511526988985712
  0.2467810834037804  0.5068763074034983  0.7406475231055387
  0.7448124869751301  0.0016762462102821  0.2559904028079443
  0.7478845957263150  0.0071192837371151  0.7559690699284416
  0.7553417946057848  0.4973211762675022  0.2422150526120192
  0.7575228191077376  0.4982523109924279  0.7420858491342045
  0.2572366633620803  0.2515420402539040  0.0059047236697502
  0.2539705750930450  0.2579328527075478  0.5052837760941870
  0.2535720368811732  0.7425718803495086  0.9935025508113370
  0.2533164555581690  0.7563840641190398  0.4950067603789346
  0.7571039334524553  0.2519375624565671  0.0083635745047997
  0.7406190916094562  0.2442472347314441  0.4975245329231781
  0.7425410959625425  0.7483860858878892  0.9934399156631032
  0.7420754951608547  0.7537869503702779  0.4937203131463287
  0.2503514950317808  0.2571601070705974  0.2431316702957802
  0.2440543426815483  0.2518037954994571  0.7435930083345966
  0.2430077388109381  0.7451139774034268  0.2549891468739461
  0.2488166607760319  0.7425152815036705  0.7575837644162263
  0.7413268593554089  0.2504143596004458  0.2430630965325248
  0.7444870855204676  0.2425117543359211  0.7510711385259667
  0.7459695982519041  0.7492280236850919  0.2575762629417390
  0.7585447197628535  0.7500627965603544  0.7562632965216866
  0.0121779237367288  0.5038246960433026  0.6244467702298697
  0.9995228022566162  0.0047890719592349  0.3758609882409003
  0.0045139525518144  0.0015590801267188  0.8732409906954319
  0.4961221517507940  0.4890492986592785  0.3751640749010764
  0.4912876586346259  0.4942141620820611  0.8749567588384128
  0.0074798832874615  0.7442983074798196  0.1263132785689519
  0.0097368884538827  0.7461983803558915  0.6235604595606131
  0.5118248405532075  0.7507694384326488  0.6244768748956682
  0.9910474934743634  0.2482128065179229  0.3762333039546621
  0.2595172057531153  0.0047942559639976  0.1240535258627414
  0.2590606078508591  0.0057010061856130  0.6272551382377657
  0.2363000049359456  0.4993480914169303  0.6251542532305367
  0.7469348429829377  0.4878477398632970  0.1253629844396756
  0.7440163532107438  0.4906299187718112  0.6241919778635243
  0.7494802760779331  0.0033559855945532  0.3751303823130728
  0.7426615369130651  0.0022158679699534  0.8739718716191843
  0.2416090654231478  0.2469192005278007  0.1256142505282014
  0.2489693760406690  0.2468217828074712  0.6247238585588919
  0.7381283345806682  0.2623605540784146  0.1267178676238420
  0.2659703547151994  0.7567225179672611  0.3744738669794924
  0.2607075971433940  0.7544173525512813  0.8754770862362650
  0.7590592305102547  0.7478245419646220  0.3743190508975763
  0.7580196328761525  0.7478803362518018  0.8754925363173612
  0.1248030886435900  0.5093511034112341  0.9905900601512302
  0.6255541103917438  0.5112958075825937  0.9957060591855142
  0.1257439343781301  0.0095003463221725  0.2478124225547909
  0.6253273821482204  0.0088080490123273  0.2452456049476473
  0.6263077736730548  0.2691766751078452  0.4904199617393792
  0.6247750119691337  0.7365158764317526  0.9933923661167264
  0.6248766558794588  0.7694052514222316  0.4878134271963144
  0.1249563139695266  0.2529677903584384  0.7531680826763067
  0.1261513059508142  0.7446614738199612  0.2607954314516689
  0.6253903504634192  0.2367557178566052  0.2646097829702547
  0.6259073086339062  0.2542633462410885  0.7520295534767945
  0.6228712341300752  0.7473403925593114  0.2592604577317180
  0.3760060292528483  0.9935668529144086  0.9875745545681925
  0.3754798258299226  0.5138846491201442  0.5069425324180393
  0.8735406823441865  0.9957620291867152  0.9965682092617254
  0.8759098508998658  0.5136748887980106  0.5035143385395611
  0.3752871845875299  0.9979661105945622  0.7661544607139631
  0.3734196785254575  0.4883300240526061  0.2453491122256895
  0.8756474780221386  0.4906034094518536  0.2486087734576671
  0.8756566627066495  0.5107294145499650  0.7421288776175229
  0.3757128443886168  0.2526299642570694  0.0082233487760784
  0.8745008861764192  0.2541929677273997  0.0101615528368392
  0.8754772216390259  0.7415741218157206  0.7406449724790652
  0.5205008136856915  0.1272880754713458  0.4887808065831293
  0.9980132751718831  0.1263442280580025  0.7450057768107494
  0.4875888224043550  0.1240217000130019  0.2660655073233013
  0.5026588078617975  0.1237303855529082  0.7526842968034573
  0.5035372042387058  0.6252158185768999  0.7523895054514469
  0.0057681742653116  0.3757913268027148  0.0053525296671566
  0.0080184339768500  0.8743977193878630  0.0024204605442499
  0.9827484602754561  0.8752075655345070  0.4994975261956567
  0.5073039726536234  0.3738256557573607  0.0109932594129432
  0.5091958690083843  0.8741449451826808  0.0073419573602446
  0.0134019232286518  0.3737192096658657  0.2465714200904782
  0.2613122508710503  0.6255032046843819  0.0017358410110151
  0.7315584837128852  0.1257393012699965  0.5059472804000660
  0.2455562240629268  0.6255912863132665  0.7515043360163061
  0.7497467801440398  0.1249968864338935  0.7417832414164169
  0.2622608299821833  0.3741500079451031  0.4965646412619096
  0.2696235805275100  0.8767768335097194  0.4973756047486673
  0.2353909221918445  0.3733887139283332  0.2554223861510202
  0.9977694817340431  0.0026277425616015  0.1266835197529972
  0.0013267724084994  0.9986763634302122  0.6234666889050872
  0.0042749203391493  0.5103482077296562  0.1250917206012471
  0.4869699262147181  0.0105180914204834  0.1261985158116522
  0.4881872132256301  0.9964915816205336  0.6281992938889061
  0.5040511813944145  0.5112146963683951  0.1275636623652690
  0.5114883795022162  0.5030532263539984  0.6243307296815234
 -0.0004564237708544  0.4947414904383612  0.3760529059850565
  0.9914239467213366  0.4965597414138703  0.8727246188114980
  0.5073259753494198  0.9784150160748374  0.3715027768889003
  0.5205137967481939  0.9956608253150211  0.8758207942622163
  0.0125529170216229  0.2443234982547276  0.1274839293848618
  0.0040845322960727  0.2573947804200101  0.6215242131906781
  0.5121176784235194  0.2333632136396591  0.1270030968132307
  0.5014364500879076  0.2447764446425051  0.6231101204724936
  0.5055245951758661  0.7377115347100864  0.1265776017452402
  0.9914965495382301  0.2518021256517604  0.8746719214496523
  0.9885149374372090  0.7515177619896919  0.3751475945546422
  0.9933710076764114  0.7521753040864941  0.8739799473048013
  0.4877574677980361  0.2680492765933787  0.3743627186234130
  0.4957371694307297  0.2569111781695370  0.8749493081652341
  0.4835681195438188  0.7599055904605877  0.3746575743660417
  0.4878871074827099  0.7537123445357927  0.8744754182080688
  0.2400588912096826  0.4959145177488893  0.1246893335538282
  0.7534952998477465  0.9987236482008016  0.1261034050280723
  0.7539833668960416  0.9932862287821866  0.6236663732567104
  0.2507740956406224  0.9913300656061382  0.3740427605580228
  0.2365429148024036  0.9907444272232205  0.8750987951819865
  0.2516229624569166  0.5095911812485009  0.3749446771191690
  0.2631823706512497  0.4974301590840083  0.8733896677935429
  0.7501140999052487  0.5090495363893717  0.3747310880737351
  0.7562579714183529  0.5100793514252639  0.8742976327288267
  0.2433463330774209  0.7535156780955303  0.1263076798376362
  0.2406554957599421  0.7516748849576340  0.6241074798792957
  0.7486778090105347  0.2637182020606973  0.6234714828072360
  0.7441608810179690  0.7510440686337023  0.1260283491087232
  0.7398840041598311  0.7529579982401152  0.6242480425843269
  0.2565403230549299  0.2448107616554277  0.3744941354490014
  0.2557638755034184  0.2540026161543593  0.8752422695945475
  0.7659640590604958  0.2406539108352858  0.3738703540177376
  0.7571586115202514  0.2410081230001909  0.8765468347508373
  0.1267245583429165  0.0069645177145552  0.0062505196996166
  0.1256458207515869  0.9851262689653318  0.5022153751346828
  0.1238548619350662  0.4897473816604426  0.4891239902547154
  0.6247745979255850  0.0067349831851728  0.0125663445285216
  0.6292840125269340  0.9737969835122846  0.5064686636146424
  0.6262944786135941  0.4858947741823624  0.4945098789202880
  0.1274161349745059 -0.0002120228985468  0.7432507669451122
  0.1241794383299003  0.5128505533251080  0.2529125470531494
  0.1238636243316509  0.4916944531975622  0.7656567277163302
  0.6239661341368972  0.9934131446445390  0.7372523534776514
  0.6247613635381630  0.5052023351022946  0.2528400728570823
  0.6268379859908058  0.4910183694746397  0.7592539720704238
  0.1249907513439392  0.2451441136648523  0.9906574644124889
  0.1235890938153235  0.2617489880103306  0.4936785071183523
  0.1257271776266931  0.7388502071537235  0.9920509695205294
  0.1253731379328692  0.7660071468792055  0.4880286585740006
  0.6262323873323649  0.2442230048261908  0.9909554138232979
  0.1245666156803390  0.2307962314878569  0.2607164670563271
  0.1239419144424390  0.7567505386680896  0.7600416525690122
  0.6265232310622393  0.7556959977261672  0.7609501983066580
  0.3724583055023626  0.0214863662075458  0.4884132689786322
  0.3729912684688514  0.4901864343044221  0.0109498554838455
  0.8754133031284936  0.0211014083118491  0.5042368474306710
  0.8748835821757570  0.4930268983047649  0.0029376029985688
  0.3756598723593230  0.9855470507539104  0.2623814183824044
  0.3747461651664193  0.5016429690202717  0.7367919335570896
  0.8749350531237007  0.9925836199999987  0.2488601053698347
  0.8747759714535703  0.9955090236692005  0.7482007967757408
  0.3777834323804088  0.2322105330130687  0.5007872180180468
  0.3764023592459115  0.7624360881323987  0.0123081289942212
  0.3771145906539601  0.7326405111109835  0.5108540784300052
  0.8753731530008021  0.2350851876739858  0.5091885520310568
  0.8727293577520332  0.7607740048935023  0.0085411217554425
  0.8730825675289864  0.7326463842187508  0.5103523618802720
  0.3776140714242200  0.2627171457288960  0.2410344649755547
  0.3761256747283877  0.2479380108183866  0.7486030000745048
  0.3765922965894498  0.7549259681538744  0.2401540569449459
  0.3750727062914086  0.7521607644258469  0.7382902962265088
  0.8743993934855976  0.2630241405527382  0.2401011501915029
  0.8747397758986712  0.2529976576248997  0.7436969307481870
  0.8742160096346291  0.7534835372964975  0.2420059333080624
  0.9984551135780297  0.1268865142221283  0.0007836779785127
  0.0150577905840749  0.1258695079752928  0.5068275853720774
  0.9884633160794178  0.6256387293671281  0.9936122608467262
  0.0147637613501589  0.6275171906268245  0.4909518425785605
  0.4990116920374025  0.1238564250804500  0.9929454020552075
  0.4844337141151427  0.6267190056941384  0.9961726891374455
  0.5159940420426239  0.6262731717795990  0.4920229777208442
  0.9854718785028362  0.1275409273259202  0.2470217875060275
  0.9921918240232946  0.6232428527341917  0.2587823560044923
  0.0135676097326758  0.6250917969481296  0.7568340786119594
  0.4933031104423048  0.6250191220479335  0.2608352240762914
  0.9875800182678534  0.3743987980578856  0.5001052477080595
  0.4833350738142015  0.3724089530269488  0.5104309716619477
  0.4765651680162804  0.8752792938300187  0.5012117420113650
  0.9941622412039793  0.3751894601274459  0.7490887169823179
  0.0035980952464873  0.8755426586159026  0.2502118114785630
  0.9984301533502492  0.8757499449288444  0.7464617518551745
  0.5114908436192945  0.3706332150681869  0.2360960149513707
  0.4949142504452081  0.3736701605454325  0.7417996164707888
  0.5026508411931156  0.8741734702581940  0.2362667217082784
  0.5004169217544336  0.8742504297072282  0.7534616155775072
  0.2523097771010891  0.1243151999200614  0.9899284221188460
  0.2330620385010332  0.1235705952529648  0.4942244454033922
  0.2359034729033965  0.6288027863263793  0.4995885858136420
  0.7504396116235922  0.1260856339548325  0.0079317316983872
  0.7659786008417072  0.6252359141162273  0.0086322371466036
  0.7339892517823151  0.6263092082835295  0.5046345182762074
  0.2674303775930507  0.1264185796935814  0.2560260541045988
  0.2500391801873124  0.1245546349307892  0.7610954043795254
  0.2582957303797571  0.6227863752231051  0.2442813145500675
  0.7664982065987708  0.1264764456397522  0.2425772159231547
  0.7539239214837830  0.6244189031339400  0.2429637078525733
  0.7369708800478532  0.6249850722720379  0.7434052475157527
  0.2430633121414172  0.3761609629924270  0.9991959858483025
  0.2395991977038215  0.8735421191478132  0.0055461930695387
  0.7427047322090078  0.3750511102479439  0.9837178261432995
  0.7689550767033954  0.3733660915137695  0.4880453385252350
  0.7381557277649188  0.8743684359020329  0.0032030314661181
  0.7720671640213129  0.8759860521922839  0.4992982746428101
  0.2559509185116654  0.3765379932246292  0.7524643903157704
  0.2508133579762655  0.8757625269532938  0.2532391943017875
  0.2484936653329917  0.8738358780703933  0.7438337686737351
  0.7396330853960146  0.3737879744247555  0.2684186174224867
  0.7577473199128402  0.3744222445606898  0.7619973371028924
  0.7469296452950520  0.8750577803097551  0.2478756198428718
  0.7529840520758505  0.8747969384998093  0.7483640982789517
 
  0.00000000E+00  0.00000000E+00  0.00000000E+00
  0.00000000E+00  0.00000000E+00  0.00000000E+00
  0.00000000E+00  0.00000000E+00  0.00000000E+00
  0.00000000E+00  0.00000000E+00  0.00000000E+00
  0.00000000E+00  0.00000000E+00  0.00000000E+00
  0.00000000E+00  0.00000000E+00  0.00000000E+00
  0.00000000E+00  0.00000000E+00  0.00000000E+00
  0.00000000E+00  0.00000000E+00  0.00000000E+00
  0.00000000E+00  0.00000000E+00  0.00000000E+00
  0.00000000E+00  0.00000000E+00  0.00000000E+00
  0.00000000E+00  0.00000000E+00  0.00000000E+00
  0.00000000E+00  0.00000000E+00  0.00000000E+00
  0.00000000E+00  0.00000000E+00  0.00000000E+00
  0.00000000E+00  0.00000000E+00  0.00000000E+00
  0.00000000E+00  0.00000000E+00  0.00000000E+00
  0.00000000E+00  0.00000000E+00  0.00000000E+00
  0.00000000E+00  0.00000000E+00  0.00000000E+00
  0.00000000E+00  0.00000000E+00  0.00000000E+00
  0.00000000E+00  0.00000000E+00  0.00000000E+00
  0.00000000E+00  0.00000000E+00  0.00000000E+00
  0.00000000E+00  0.00000000E+00  0.00000000E+00
  0.00000000E+00  0.00000000E+00  0.00000000E+00
  0.00000000E+00  0.00000000E+00  0.00000000E+00
  0.00000000E+00  0.00000000E+00  0.00000000E+00
  0.00000000E+00  0.00000000E+00  0.00000000E+00
  0.00000000E+00  0.00000000E+00  0.00000000E+00
  0.00000000E+00  0.00000000E+00  0.00000000E+00
  0.00000000E+00  0.00000000E+00  0.00000000E+00
  0.00000000E+00  0.00000000E+00  0.00000000E+00
  0.00000000E+00  0.00000000E+00  0.00000000E+00
  0.00000000E+00  0.00000000E+00  0.00000000E+00
  0.00000000E+00  0.00000000E+00  0.00000000E+00
  0.00000000E+00  0.00000000E+00  0.00000000E+00
  0.00000000E+00  0.00000000E+00  0.00000000E+00
  0.00000000E+00  0.00000000E+00  0.00000000E+00
  0.00000000E+00  0.00000000E+00  0.00000000E+00
  0.00000000E+00  0.00000000E+00  0.00000000E+00
  0.00000000E+00  0.00000000E+00  0.00000000E+00
  0.00000000E+00  0.00000000E+00  0.00000000E+00
  0.00000000E+00  0.00000000E+00  0.00000000E+00
  0.00000000E+00  0.00000000E+00  0.00000000E+00
  0.00000000E+00  0.00000000E+00  0.00000000E+00
  0.00000000E+00  0.00000000E+00  0.00000000E+00
  0.00000000E+00  0.00000000E+00  0.00000000E+00
  0.00000000E+00  0.00000000E+00  0.00000000E+00
  0.00000000E+00  0.00000000E+00  0.00000000E+00
  0.00000000E+00  0.00000000E+00  0.00000000E+00
  0.00000000E+00  0.00000000E+00  0.00000000E+00
  0.00000000E+00  0.00000000E+00  0.00000000E+00
  0.00000000E+00  0.00000000E+00  0.00000000E+00
  0.00000000E+00  0.00000000E+00  0.00000000E+00
  0.00000000E+00  0.00000000E+00  0.00000000E+00
  0.00000000E+00  0.00000000E+00  0.00000000E+00
  0.00000000E+00  0.00000000E+00  0.00000000E+00
  0.00000000E+00  0.00000000E+00  0.00000000E+00
  0.00000000E+00  0.00000000E+00  0.00000000E+00
  0.00000000E+00  0.00000000E+00  0.00000000E+00
  0.00000000E+00  0.00000000E+00  0.00000000E+00
  0.00000000E+00  0.00000000E+00  0.00000000E+00
  0.00000000E+00  0.00000000E+00  0.00000000E+00
  0.00000000E+00  0.00000000E+00  0.00000000E+00
  0.00000000E+00  0.00000000E+00  0.00000000E+00
  0.00000000E+00  0.00000000E+00  0.00000000E+00
  0.00000000E+00  0.00000000E+00  0.00000000E+00
  0.00000000E+00  0.00000000E+00  0.00000000E+00
  0.00000000E+00  0.00000000E+00  0.00000000E+00
  0.00000000E+00  0.00000000E+00  0.00000000E+00
  0.00000000E+00  0.00000000E+00  0.00000000E+00
  0.00000000E+00  0.00000000E+00  0.00000000E+00
  0.00000000E+00  0.00000000E+00  0.00000000E+00
  0.00000000E+00  0.00000000E+00  0.00000000E+00
  0.00000000E+00  0.00000000E+00  0.00000000E+00
  0.00000000E+00  0.00000000E+00  0.00000000E+00
  0.00000000E+00  0.00000000E+00  0.00000000E+00
  0.00000000E+00  0.00000000E+00  0.00000000E+00
  0.00000000E+00  0.00000000E+00  0.00000000E+00
  0.00000000E+00  0.00000000E+00  0.00000000E+00
  0.00000000E+00  0.00000000E+00  0.00000000E+00
  0.00000000E+00  0.00000000E+00  0.00000000E+00
  0.00000000E+00  0.00000000E+00  0.00000000E+00
  0.00000000E+00  0.00000000E+00  0.00000000E+00
  0.00000000E+00  0.00000000E+00  0.00000000E+00
  0.00000000E+00  0.00000000E+00  0.00000000E+00
  0.00000000E+00  0.00000000E+00  0.00000000E+00
  0.00000000E+00  0.00000000E+00  0.00000000E+00
  0.00000000E+00  0.00000000E+00  0.00000000E+00
  0.00000000E+00  0.00000000E+00  0.00000000E+00
  0.00000000E+00  0.00000000E+00  0.00000000E+00
  0.00000000E+00  0.00000000E+00  0.00000000E+00
  0.00000000E+00  0.00000000E+00  0.00000000E+00
  0.00000000E+00  0.00000000E+00  0.00000000E+00
  0.00000000E+00  0.00000000E+00  0.00000000E+00
  0.00000000E+00  0.00000000E+00  0.00000000E+00
  0.00000000E+00  0.00000000E+00  0.00000000E+00
  0.00000000E+00  0.00000000E+00  0.00000000E+00
  0.00000000E+00  0.00000000E+00  0.00000000E+00
  0.00000000E+00  0.00000000E+00  0.00000000E+00
  0.00000000E+00  0.00000000E+00  0.00000000E+00
  0.00000000E+00  0.00000000E+00  0.00000000E+00
  0.00000000E+00  0.00000000E+00  0.00000000E+00
  0.00000000E+00  0.00000000E+00  0.00000000E+00
  0.00000000E+00  0.00000000E+00  0.00000000E+00
  0.00000000E+00  0.00000000E+00  0.00000000E+00
  0.00000000E+00  0.00000000E+00  0.00000000E+00
  0.00000000E+00  0.00000000E+00  0.00000000E+00
  0.00000000E+00  0.00000000E+00  0.00000000E+00
  0.00000000E+00  0.00000000E+00  0.00000000E+00
  0.00000000E+00  0.00000000E+00  0.00000000E+00
  0.00000000E+00  0.00000000E+00  0.00000000E+00
  0.00000000E+00  0.00000000E+00  0.00000000E+00
  0.00000000E+00  0.00000000E+00  0.00000000E+00
  0.00000000E+00  0.00000000E+00  0.00000000E+00
  0.00000000E+00  0.00000000E+00  0.00000000E+00
  0.00000000E+00  0.00000000E+00  0.00000000E+00
  0.00000000E+00  0.00000000E+00  0.00000000E+00
  0.00000000E+00  0.00000000E+00  0.00000000E+00
  0.00000000E+00  0.00000000E+00  0.00000000E+00
  0.00000000E+00  0.00000000E+00  0.00000000E+00
  0.00000000E+00  0.00000000E+00  0.00000000E+00
  0.00000000E+00  0.00000000E+00  0.00000000E+00
  0.00000000E+00  0.00000000E+00  0.00000000E+00
  0.00000000E+00  0.00000000E+00  0.00000000E+00
  0.00000000E+00  0.00000000E+00  0.00000000E+00
  0.00000000E+00  0.00000000E+00  0.00000000E+00
  0.00000000E+00  0.00000000E+00  0.00000000E+00
  0.00000000E+00  0.00000000E+00  0.00000000E+00
  0.00000000E+00  0.00000000E+00  0.00000000E+00
  0.00000000E+00  0.00000000E+00  0.00000000E+00
  0.00000000E+00  0.00000000E+00  0.00000000E+00
  0.00000000E+00  0.00000000E+00  0.00000000E+00
  0.00000000E+00  0.00000000E+00  0.00000000E+00
  0.00000000E+00  0.00000000E+00  0.00000000E+00
  0.00000000E+00  0.00000000E+00  0.00000000E+00
  0.00000000E+00  0.00000000E+00  0.00000000E+00
  0.00000000E+00  0.00000000E+00  0.00000000E+00
  0.00000000E+00  0.00000000E+00  0.00000000E+00
  0.00000000E+00  0.00000000E+00  0.00000000E+00
  0.00000000E+00  0.00000000E+00  0.00000000E+00
  0.00000000E+00  0.00000000E+00  0.00000000E+00
  0.00000000E+00  0.00000000E+00  0.00000000E+00
  0.00000000E+00  0.00000000E+00  0.00000000E+00
  0.00000000E+00  0.00000000E+00  0.00000000E+00
  0.00000000E+00  0.00000000E+00  0.00000000E+00
  0.00000000E+00  0.00000000E+00  0.00000000E+00
  0.00000000E+00  0.00000000E+00  0.00000000E+00
  0.00000000E+00  0.00000000E+00  0.00000000E+00
  0.00000000E+00  0.00000000E+00  0.00000000E+00
  0.00000000E+00  0.00000000E+00  0.00000000E+00
  0.00000000E+00  0.00000000E+00  0.00000000E+00
  0.00000000E+00  0.00000000E+00  0.00000000E+00
  0.00000000E+00  0.00000000E+00  0.00000000E+00
  0.00000000E+00  0.00000000E+00  0.00000000E+00
  0.00000000E+00  0.00000000E+00  0.00000000E+00
  0.00000000E+00  0.00000000E+00  0.00000000E+00
  0.00000000E+00  0.00000000E+00  0.00000000E+00
  0.00000000E+00  0.00000000E+00  0.00000000E+00
  0.00000000E+00  0.00000000E+00  0.00000000E+00
  0.00000000E+00  0.00000000E+00  0.00000000E+00
  0.00000000E+00  0.00000000E+00  0.00000000E+00
  0.00000000E+00  0.00000000E+00  0.00000000E+00
  0.00000000E+00  0.00000000E+00  0.00000000E+00
  0.00000000E+00  0.00000000E+00  0.00000000E+00
  0.00000000E+00  0.00000000E+00  0.00000000E+00
  0.00000000E+00  0.00000000E+00  0.00000000E+00
  0.00000000E+00  0.00000000E+00  0.00000000E+00
  0.00000000E+00  0.00000000E+00  0.00000000E+00
  0.00000000E+00  0.00000000E+00  0.00000000E+00
  0.00000000E+00  0.00000000E+00  0.00000000E+00
  0.00000000E+00  0.00000000E+00  0.00000000E+00
  0.00000000E+00  0.00000000E+00  0.00000000E+00
  0.00000000E+00  0.00000000E+00  0.00000000E+00
  0.00000000E+00  0.00000000E+00  0.00000000E+00
  0.00000000E+00  0.00000000E+00  0.00000000E+00
  0.00000000E+00  0.00000000E+00  0.00000000E+00
  0.00000000E+00  0.00000000E+00  0.00000000E+00
  0.00000000E+00  0.00000000E+00  0.00000000E+00
  0.00000000E+00  0.00000000E+00  0.00000000E+00
  0.00000000E+00  0.00000000E+00  0.00000000E+00
  0.00000000E+00  0.00000000E+00  0.00000000E+00
  0.00000000E+00  0.00000000E+00  0.00000000E+00
  0.00000000E+00  0.00000000E+00  0.00000000E+00
  0.00000000E+00  0.00000000E+00  0.00000000E+00
  0.00000000E+00  0.00000000E+00  0.00000000E+00
  0.00000000E+00  0.00000000E+00  0.00000000E+00
  0.00000000E+00  0.00000000E+00  0.00000000E+00
  0.00000000E+00  0.00000000E+00  0.00000000E+00
  0.00000000E+00  0.00000000E+00  0.00000000E+00
  0.00000000E+00  0.00000000E+00  0.00000000E+00
  0.00000000E+00  0.00000000E+00  0.00000000E+00
  0.00000000E+00  0.00000000E+00  0.00000000E+00
  0.00000000E+00  0.00000000E+00  0.00000000E+00
  0.00000000E+00  0.00000000E+00  0.00000000E+00
  0.00000000E+00  0.00000000E+00  0.00000000E+00
  0.00000000E+00  0.00000000E+00  0.00000000E+00
  0.00000000E+00  0.00000000E+00  0.00000000E+00
  0.00000000E+00  0.00000000E+00  0.00000000E+00
  0.00000000E+00  0.00000000E+00  0.00000000E+00
  0.00000000E+00  0.00000000E+00  0.00000000E+00
  0.00000000E+00  0.00000000E+00  0.00000000E+00
  0.00000000E+00  0.00000000E+00  0.00000000E+00
  0.00000000E+00  0.00000000E+00  0.00000000E+00
  0.00000000E+00  0.00000000E+00  0.00000000E+00
  0.00000000E+00  0.00000000E+00  0.00000000E+00
  0.00000000E+00  0.00000000E+00  0.00000000E+00
  0.00000000E+00  0.00000000E+00  0.00000000E+00
  0.00000000E+00  0.00000000E+00  0.00000000E+00
  0.00000000E+00  0.00000000E+00  0.00000000E+00
  0.00000000E+00  0.00000000E+00  0.00000000E+00
  0.00000000E+00  0.00000000E+00  0.00000000E+00
  0.00000000E+00  0.00000000E+00  0.00000000E+00
  0.00000000E+00  0.00000000E+00  0.00000000E+00
  0.00000000E+00  0.00000000E+00  0.00000000E+00
  0.00000000E+00  0.00000000E+00  0.00000000E+00
  0.00000000E+00  0.00000000E+00  0.00000000E+00
  0.00000000E+00  0.00000000E+00  0.00000000E+00
  0.00000000E+00  0.00000000E+00  0.00000000E+00
  0.00000000E+00  0.00000000E+00  0.00000000E+00
  0.00000000E+00  0.00000000E+00  0.00000000E+00
  0.00000000E+00  0.00000000E+00  0.00000000E+00
  0.00000000E+00  0.00000000E+00  0.00000000E+00
  0.00000000E+00  0.00000000E+00  0.00000000E+00
  0.00000000E+00  0.00000000E+00  0.00000000E+00
  0.00000000E+00  0.00000000E+00  0.00000000E+00
  0.00000000E+00  0.00000000E+00  0.00000000E+00
  0.00000000E+00  0.00000000E+00  0.00000000E+00
  0.00000000E+00  0.00000000E+00  0.00000000E+00
  0.00000000E+00  0.00000000E+00  0.00000000E+00
  0.00000000E+00  0.00000000E+00  0.00000000E+00
  0.00000000E+00  0.00000000E+00  0.00000000E+00
  0.00000000E+00  0.00000000E+00  0.00000000E+00
  0.00000000E+00  0.00000000E+00  0.00000000E+00
  0.00000000E+00  0.00000000E+00  0.00000000E+00
  0.00000000E+00  0.00000000E+00  0.00000000E+00
  0.00000000E+00  0.00000000E+00  0.00000000E+00
  0.00000000E+00  0.00000000E+00  0.00000000E+00
  0.00000000E+00  0.00000000E+00  0.00000000E+00
  0.00000000E+00  0.00000000E+00  0.00000000E+00
  0.00000000E+00  0.00000000E+00  0.00000000E+00
  0.00000000E+00  0.00000000E+00  0.00000000E+00
  0.00000000E+00  0.00000000E+00  0.00000000E+00
  0.00000000E+00  0.00000000E+00  0.00000000E+00
  0.00000000E+00  0.00000000E+00  0.00000000E+00
  0.00000000E+00  0.00000000E+00  0.00000000E+00
  0.00000000E+00  0.00000000E+00  0.00000000E+00
  0.00000000E+00  0.00000000E+00  0.00000000E+00
  0.00000000E+00  0.00000000E+00  0.00000000E+00
  0.00000000E+00  0.00000000E+00  0.00000000E+00
  0.00000000E+00  0.00000000E+00  0.00000000E+00
  0.00000000E+00  0.00000000E+00  0.00000000E+00
  0.00000000E+00  0.00000000E+00  0.00000000E+00
  0.00000000E+00  0.00000000E+00  0.00000000E+00
  0.00000000E+00  0.00000000E+00  0.00000000E+00
  0.00000000E+00  0.00000000E+00  0.00000000E+00
  0.00000000E+00  0.00000000E+00  0.00000000E+00
  0.00000000E+00  0.00000000E+00  0.00000000E+00
  0.00000000E+00  0.00000000E+00  0.00000000E+00
  0.00000000E+00  0.00000000E+00  0.00000000E+00
