TiOF2 2x2x2 config 0253                 
   1.00000000000000     
     7.8561923702329883   -0.0000000018641350   -0.0000000045423906
    -0.0000000004792416    7.6442450279564698    0.0000007292071072
    -0.0000000061734895    0.0000007273577453    7.6442633034033358
   Ti   O    F 
     8     8    16
Direct
  0.0000000031462264  0.9887472627930549  0.9887498981646843
  0.9999999967952107  0.9887481458978868  0.5112492711712946
  0.0000000031504541  0.5112522747465889  0.9887517659969802
  0.9999999968344326  0.5112529730693183  0.5112489563035965
  0.5000000031656953  0.9887477109142324  0.9887514236749837
  0.4999999968445437  0.9887482997269501  0.5112479109002450
  0.5000000031784779  0.5112519591994271  0.9887518317016202
  0.4999999968645312  0.5112526474584840  0.5112487524593377
  0.0000000020516211  0.7499994630727116  0.0061298750599406
  0.9999999979607992  0.7499975130093972  0.4938701236266567
  0.5000000020492479  0.7500022276077374  0.0061307191643110
  0.4999999979484926  0.7500006270532324  0.4938693491326873
  0.9999999999744347  0.0061306182409666  0.7500010021930095
  0.0000000000322089  0.4938686977288711  0.7499990514287020
  0.4999999999756355  0.0061305673191043  0.7500008446714972
  0.5000000000357758  0.4938696657190746  0.7499992470552854
  0.2500003286139147  0.0059895811095885  0.0059894567516707
  0.2500003774109345  0.0059895414924540  0.4940106157868343
  0.2499997955075841  0.4940103025797455  0.0059894472586990
  0.2499997026402312  0.4940102808209659  0.4940104928594735
  0.7499996767925410  0.0059895811242754  0.0059894567532979
  0.7499996171453773  0.0059895414797992  0.4940106157665127
  0.7500002099128906  0.4940103025844067  0.0059894472915758
  0.7500002919655984  0.4940102808300679  0.4940104928580666
  0.0000000026390694  0.2499997929575670  0.0087515002709253
  0.9999999973645544  0.2500005223719555  0.4912485026511035
  0.5000000026395952  0.2499996315785395  0.0087513790816374
  0.4999999973661602  0.2500002247479074  0.4912486150721875
  0.9999999999670024  0.0087509396135772  0.2499996273989709
  0.0000000000457874  0.4912485967490454  0.2500003450278001
  0.4999999999458069  0.0087515630827468  0.2499996971232576
  0.5000000000351648  0.4912486633203272  0.2500002853431553
 
  0.00000000E+00  0.00000000E+00  0.00000000E+00
  0.00000000E+00  0.00000000E+00  0.00000000E+00
  0.00000000E+00  0.00000000E+00  0.00000000E+00
  0.00000000E+00  0.00000000E+00  0.00000000E+00
  0.00000000E+00  0.00000000E+00  0.00000000E+00
  0.00000000E+00  0.00000000E+00  0.00000000E+00
  0.00000000E+00  0.00000000E+00  0.00000000E+00
  0.00000000E+00  0.00000000E+00  0.00000000E+00
  0.00000000E+00  0.00000000E+00  0.00000000E+00
  0.00000000E+00  0.00000000E+00  0.00000000E+00
  0.00000000E+00  0.00000000E+00  0.00000000E+00
  0.00000000E+00  0.00000000E+00  0.00000000E+00
  0.00000000E+00  0.00000000E+00  0.00000000E+00
  0.00000000E+00  0.00000000E+00  0.00000000E+00
  0.00000000E+00  0.00000000E+00  0.00000000E+00
  0.00000000E+00  0.00000000E+00  0.00000000E+00
  0.00000000E+00  0.00000000E+00  0.00000000E+00
  0.00000000E+00  0.00000000E+00  0.00000000E+00
  0.00000000E+00  0.00000000E+00  0.00000000E+00
  0.00000000E+00  0.00000000E+00  0.00000000E+00
  0.00000000E+00  0.00000000E+00  0.00000000E+00
  0.00000000E+00  0.00000000E+00  0.00000000E+00
  0.00000000E+00  0.00000000E+00  0.00000000E+00
  0.00000000E+00  0.00000000E+00  0.00000000E+00
  0.00000000E+00  0.00000000E+00  0.00000000E+00
  0.00000000E+00  0.00000000E+00  0.00000000E+00
  0.00000000E+00  0.00000000E+00  0.00000000E+00
  0.00000000E+00  0.00000000E+00  0.00000000E+00
  0.00000000E+00  0.00000000E+00  0.00000000E+00
  0.00000000E+00  0.00000000E+00  0.00000000E+00
  0.00000000E+00  0.00000000E+00  0.00000000E+00
  0.00000000E+00  0.00000000E+00  0.00000000E+00
