Ti27 O27 F54                            
   1.00000000000000     
    11.5831230776363530   -0.0014928021368922   -0.0060031866133810
    -0.0014831355220584   11.5767423652950381   -0.0042818690759858
    -0.0060216256282005   -0.0042931330364511   11.5856386470028419
   Ti   O    F 
    27    27    54
Direct
  0.0002123809131547  0.9919327806737996  0.0116295993527373
  0.0119629602263558  0.0045190990980828  0.3255720096688890
  0.9999292557023196  0.0126849798181752  0.6660842203115394
  0.0095267694128012  0.3344701337956479  0.9906818470820582
  0.9987269247821757  0.3200040559707702  0.3345843247950242
  0.0004553613864218  0.3267648887496719  0.6771073607015481
  0.0001744213259016  0.6771161595712982  0.9931475156705858
  0.0126022498157425  0.6658807585491999  0.3343608661351283
  0.9994149627814721  0.6669201372638369  0.6788993661642166
  0.3401212847372079  0.9914241163350468  0.0083947094690160
  0.3235640228988430  0.0084308055306792  0.3232141022302244
  0.3452681745640902  0.9890324949663025  0.6676490374466368
  0.3242267051396865  0.3336651302909175  0.0115185277819947
  0.3381678156897152  0.3219372841009331  0.3253634733501087
  0.3452177113954917  0.3331935017826382  0.6660213669813615
  0.3422419022809109  0.6783807438275886  0.0000483114793539
  0.3275386551431154  0.6665041455031755  0.3460334894377652
  0.3445642493599834  0.6754400038893849  0.6616009721568830
  0.6549708564773766  0.0081080727726643  0.0006087762642437
  0.6676184997291301  0.9940904630929097  0.3459644480798261
  0.6567957248432990  0.9893034899755193  0.6600142212494617
  0.6673215024886687  0.3234090354000401  0.9911007415711452
  0.6530179078784073  0.3345616823794799  0.3341132752846931
  0.6605877016169686  0.3332492057275260  0.6773659072329750
  0.6576419052769324  0.6660470533726084  0.9876478460853022
  0.6683701380090099  0.6787644613956232  0.3327662853759392
  0.6568046443457263  0.6747960820882852  0.6757327482140099
  0.0037822971866035  0.1687145065034485  0.3405157460596655
  0.0005352576605517  0.1669618924234015  0.6617545450627702
  0.0064041917454745  0.8321733891979619  0.9975911495315657
  0.3260725694272892  0.1679064236978007  0.3411908978416633
  0.3211269400453531  0.8322559859333509  0.9949248547793559
  0.3336072125181744  0.8333730840106668  0.6743401218474574
  0.6661669745988377  0.1683031789033436  0.0013391799699605
  0.6662512409693875  0.8313111576700649  0.3355014419856133
  0.6663062348512412  0.8322950640270648  0.6630842009566251
  0.1652883721660814  0.9869619042396351  0.3412679974377895
  0.1647276904785500  0.3317666506448376  0.9979583705118955
  0.1646125378790231  0.6722925333354155  0.3319364767947022
  0.5012906356039863  0.9937536395138835  0.9952565282470260
  0.4998593261471171  0.0097618825780756  0.6740211802710263
  0.5017975992904695  0.3340261673047635  0.3402672677493896
  0.4995118958355746  0.3311793925686217  0.6619471162576360
  0.5002699780940674  0.6716675058171475  0.9957521927379176
  0.4996848308818755  0.6570842444208438  0.6728111739870073
  0.0023769658862207  0.0009791774376282  0.1659994351409395
  0.9935747087751139  0.3384953077606667  0.8317166186115088
  0.9968083353352952  0.6605924596718040  0.8321063420947539
  0.3294795988492183  0.0029444422606346  0.1651868186025638
  0.3339880191416924  0.3312796639837288  0.1659976590257557
  0.3342595846101375  0.6658223348990830  0.4992117504158884
  0.6677869279898871  0.0073663277479596  0.4988146995456546
  0.6710945810682745  0.3395076054977721  0.8323686320399446
  0.6781499780518772  0.6610688635059248  0.8341131033583409
  0.9910442374690547  0.1673725761049667  0.9966792864224985
  0.9959061051661493  0.5006241646327538  0.0083011323669453
  0.9970389947224234  0.5003389852232587  0.3328823821001805
  0.0007691079544472  0.5004265287775667  0.6579651757543417
  0.9857772573847825  0.8304894305641000  0.3340332897706162
  0.0002016909482165  0.8335937446250909  0.6688127455409330
  0.3397466727664451  0.1684289103177719  0.9925027620015712
  0.3223778959953947  0.1688901570707486  0.6594940776921590
  0.3342590314157334  0.5001083026935547  0.9976539343339610
  0.3319095532036513  0.5000130544236399  0.3315697562138809
  0.3253681951104070  0.4976583630569422  0.6704723132837529
  0.3479464495425546  0.8319920974831021  0.3309067265074646
  0.6719673160597637  0.1683020168471785  0.3239831375739399
  0.6780842297563510  0.1678413837890673  0.6707730964540630
  0.6680736450848457  0.4989318471605984  0.0087398997117347
  0.6714068826549209  0.5001545338248548  0.3344778968338673
  0.6740576904808293  0.4979752596556537  0.6556100317756517
  0.6776623209382322  0.8334418205569278  0.0033622771124016
  0.1647122422379539  0.0150191460160656  0.9927222191024256
  0.1645324778124149  0.9987730980019052  0.6593056296935202
  0.1638502811753426  0.3453083593409048  0.3333891005166976
  0.1667968180695070  0.3362568514592539  0.6681558492410744
  0.1647370608423628  0.6538331402537665  0.0072286774161725
  0.1634895880433902  0.6647305764270186  0.6631874162229749
  0.5013977591054868  0.0055376554364557  0.3303992788145678
  0.4995628456802450  0.3388692072354829  0.9967644128667956
  0.5022287691419010  0.6580207575236017  0.3284406053835198
  0.8340824901827304  0.9987944594272804  0.9975018880796824
  0.8342196655537677  0.0020393641905230  0.3318251091112501
  0.8355253773743740  0.9985843932168805  0.6707218539698800
  0.8341608613815339  0.3370399792084129  0.0088003166700403
  0.8329437192105686  0.3355784074084482  0.3324961701090885
  0.8343257169012759  0.3367868229969559  0.6572796214033474
  0.8346591623937485  0.6648053683386550  0.0091109826041560
  0.8342606125818435  0.6617982704202490  0.3352486517763396
  0.8358185812885282  0.6642039252158156  0.6560022089025139
  0.9904475097739507  0.9906765980041072  0.5014693959748229
  0.0018513770114339  0.0014229300995936  0.8313984303794015
  0.9986348653634280  0.3317614733965968  0.1677367573046951
  0.0014653354268219  0.3417616213238546  0.5001007285901125
  0.9959170385244391  0.6658065188282762  0.1681973012951090
  0.9996324713397655  0.6685394053505505  0.5004742758369503
  0.3394555079565933  0.9942721659172946  0.5000025896718512
  0.3224323659750326  0.0107523977480142  0.8321776384194592
  0.3243786070747277  0.3428978929015400  0.5010976874748749
  0.3346950666939890  0.3318097065009056  0.8315101089365413
  0.3343805033876563  0.6642650616649988  0.1678962106295643
  0.3191838778988156  0.6571166592995681  0.8335830814644680
  0.6698191832860303  0.9983533897908785  0.1679070723477238
  0.6762721872426027  0.9992531269925991  0.8335787831352448
  0.6647510234607239  0.3379168133324200  0.1675015700962561
  0.6743204650535830  0.3267450446289502  0.4991849822711956
  0.6699405715492546  0.6641924928753085  0.1675838572509889
  0.6656615640417272  0.6594181909417713  0.4975987651496538
 
  0.00000000E+00  0.00000000E+00  0.00000000E+00
  0.00000000E+00  0.00000000E+00  0.00000000E+00
  0.00000000E+00  0.00000000E+00  0.00000000E+00
  0.00000000E+00  0.00000000E+00  0.00000000E+00
  0.00000000E+00  0.00000000E+00  0.00000000E+00
  0.00000000E+00  0.00000000E+00  0.00000000E+00
  0.00000000E+00  0.00000000E+00  0.00000000E+00
  0.00000000E+00  0.00000000E+00  0.00000000E+00
  0.00000000E+00  0.00000000E+00  0.00000000E+00
  0.00000000E+00  0.00000000E+00  0.00000000E+00
  0.00000000E+00  0.00000000E+00  0.00000000E+00
  0.00000000E+00  0.00000000E+00  0.00000000E+00
  0.00000000E+00  0.00000000E+00  0.00000000E+00
  0.00000000E+00  0.00000000E+00  0.00000000E+00
  0.00000000E+00  0.00000000E+00  0.00000000E+00
  0.00000000E+00  0.00000000E+00  0.00000000E+00
  0.00000000E+00  0.00000000E+00  0.00000000E+00
  0.00000000E+00  0.00000000E+00  0.00000000E+00
  0.00000000E+00  0.00000000E+00  0.00000000E+00
  0.00000000E+00  0.00000000E+00  0.00000000E+00
  0.00000000E+00  0.00000000E+00  0.00000000E+00
  0.00000000E+00  0.00000000E+00  0.00000000E+00
  0.00000000E+00  0.00000000E+00  0.00000000E+00
  0.00000000E+00  0.00000000E+00  0.00000000E+00
  0.00000000E+00  0.00000000E+00  0.00000000E+00
  0.00000000E+00  0.00000000E+00  0.00000000E+00
  0.00000000E+00  0.00000000E+00  0.00000000E+00
  0.00000000E+00  0.00000000E+00  0.00000000E+00
  0.00000000E+00  0.00000000E+00  0.00000000E+00
  0.00000000E+00  0.00000000E+00  0.00000000E+00
  0.00000000E+00  0.00000000E+00  0.00000000E+00
  0.00000000E+00  0.00000000E+00  0.00000000E+00
  0.00000000E+00  0.00000000E+00  0.00000000E+00
  0.00000000E+00  0.00000000E+00  0.00000000E+00
  0.00000000E+00  0.00000000E+00  0.00000000E+00
  0.00000000E+00  0.00000000E+00  0.00000000E+00
  0.00000000E+00  0.00000000E+00  0.00000000E+00
  0.00000000E+00  0.00000000E+00  0.00000000E+00
  0.00000000E+00  0.00000000E+00  0.00000000E+00
  0.00000000E+00  0.00000000E+00  0.00000000E+00
  0.00000000E+00  0.00000000E+00  0.00000000E+00
  0.00000000E+00  0.00000000E+00  0.00000000E+00
  0.00000000E+00  0.00000000E+00  0.00000000E+00
  0.00000000E+00  0.00000000E+00  0.00000000E+00
  0.00000000E+00  0.00000000E+00  0.00000000E+00
  0.00000000E+00  0.00000000E+00  0.00000000E+00
  0.00000000E+00  0.00000000E+00  0.00000000E+00
  0.00000000E+00  0.00000000E+00  0.00000000E+00
  0.00000000E+00  0.00000000E+00  0.00000000E+00
  0.00000000E+00  0.00000000E+00  0.00000000E+00
  0.00000000E+00  0.00000000E+00  0.00000000E+00
  0.00000000E+00  0.00000000E+00  0.00000000E+00
  0.00000000E+00  0.00000000E+00  0.00000000E+00
  0.00000000E+00  0.00000000E+00  0.00000000E+00
  0.00000000E+00  0.00000000E+00  0.00000000E+00
  0.00000000E+00  0.00000000E+00  0.00000000E+00
  0.00000000E+00  0.00000000E+00  0.00000000E+00
  0.00000000E+00  0.00000000E+00  0.00000000E+00
  0.00000000E+00  0.00000000E+00  0.00000000E+00
  0.00000000E+00  0.00000000E+00  0.00000000E+00
  0.00000000E+00  0.00000000E+00  0.00000000E+00
  0.00000000E+00  0.00000000E+00  0.00000000E+00
  0.00000000E+00  0.00000000E+00  0.00000000E+00
  0.00000000E+00  0.00000000E+00  0.00000000E+00
  0.00000000E+00  0.00000000E+00  0.00000000E+00
  0.00000000E+00  0.00000000E+00  0.00000000E+00
  0.00000000E+00  0.00000000E+00  0.00000000E+00
  0.00000000E+00  0.00000000E+00  0.00000000E+00
  0.00000000E+00  0.00000000E+00  0.00000000E+00
  0.00000000E+00  0.00000000E+00  0.00000000E+00
  0.00000000E+00  0.00000000E+00  0.00000000E+00
  0.00000000E+00  0.00000000E+00  0.00000000E+00
  0.00000000E+00  0.00000000E+00  0.00000000E+00
  0.00000000E+00  0.00000000E+00  0.00000000E+00
  0.00000000E+00  0.00000000E+00  0.00000000E+00
  0.00000000E+00  0.00000000E+00  0.00000000E+00
  0.00000000E+00  0.00000000E+00  0.00000000E+00
  0.00000000E+00  0.00000000E+00  0.00000000E+00
  0.00000000E+00  0.00000000E+00  0.00000000E+00
  0.00000000E+00  0.00000000E+00  0.00000000E+00
  0.00000000E+00  0.00000000E+00  0.00000000E+00
  0.00000000E+00  0.00000000E+00  0.00000000E+00
  0.00000000E+00  0.00000000E+00  0.00000000E+00
  0.00000000E+00  0.00000000E+00  0.00000000E+00
  0.00000000E+00  0.00000000E+00  0.00000000E+00
  0.00000000E+00  0.00000000E+00  0.00000000E+00
  0.00000000E+00  0.00000000E+00  0.00000000E+00
  0.00000000E+00  0.00000000E+00  0.00000000E+00
  0.00000000E+00  0.00000000E+00  0.00000000E+00
  0.00000000E+00  0.00000000E+00  0.00000000E+00
  0.00000000E+00  0.00000000E+00  0.00000000E+00
  0.00000000E+00  0.00000000E+00  0.00000000E+00
  0.00000000E+00  0.00000000E+00  0.00000000E+00
  0.00000000E+00  0.00000000E+00  0.00000000E+00
  0.00000000E+00  0.00000000E+00  0.00000000E+00
  0.00000000E+00  0.00000000E+00  0.00000000E+00
  0.00000000E+00  0.00000000E+00  0.00000000E+00
  0.00000000E+00  0.00000000E+00  0.00000000E+00
  0.00000000E+00  0.00000000E+00  0.00000000E+00
  0.00000000E+00  0.00000000E+00  0.00000000E+00
  0.00000000E+00  0.00000000E+00  0.00000000E+00
  0.00000000E+00  0.00000000E+00  0.00000000E+00
  0.00000000E+00  0.00000000E+00  0.00000000E+00
  0.00000000E+00  0.00000000E+00  0.00000000E+00
  0.00000000E+00  0.00000000E+00  0.00000000E+00
  0.00000000E+00  0.00000000E+00  0.00000000E+00
  0.00000000E+00  0.00000000E+00  0.00000000E+00
  0.00000000E+00  0.00000000E+00  0.00000000E+00
