TiOF2 2x2x2 config 0406                 
   1.00000000000000     
     7.8926717970130671    0.0000457767974954   -0.0000046122791386
     0.0000482712454430    7.7832412281493566   -0.0001869481514334
    -0.0000024456551037   -0.0001855413757387    7.6872593066985111
   Ti   O    F 
     8     8    16
Direct
  0.0002169312978357  0.0003312309039948  0.9999995469554807
  0.0010227367850228  0.9999625125255637  0.4999996261880437
  0.0014886963173907  0.4998619023849087  0.9999998126711117
  0.9785171609301975  0.4999286769490053  0.4999998588836838
  0.5002928515944791  0.9872893030195901  1.0000003744263599
  0.5003959219826847  0.0032786063513008  0.5000021527345596
  0.5005643450200072  0.5112079220078004 -0.0000007521416058
  0.4988772693785224  0.4981580848959812  0.4999981747378558
  0.7612800473746815  0.4993887422186739  0.5000002483916890
  0.4989265674860708  0.2477896490856794  0.5000023821606244
  0.5006663117461937  0.7507099998976529  0.9999983831789769
  0.4989429421820777  0.7522547767266643  0.4999991523731606
  0.5005396103024297  0.9979482882723439  0.2498971742740694
  0.5005380004435982  0.9979393951253325  0.7501017130512058
  0.4992079948363569  0.5018889878985111  0.2480553591672939
  0.4992092655902942  0.5018766126770200  0.7519477616521874
  0.2428279034723352  0.0030295035870867  0.0000005278965933
  0.2364593754519647  0.0003019245295472  0.4999995528704805
  0.2434558840655488  0.4970438840384732  0.9999998307124929
  0.2354927438733146  0.4993985906796681  0.4999985599353209
  0.7576481029740548  0.0030467025572819  0.9999983239971958
  0.7651222926978332  0.0003533532730177  0.5000009373496923
  0.7590501098280751  0.4973155828295615  0.0000025128233115
  0.9996431890028359  0.2509274642563573  0.9999979611897746
  0.0024978682857412  0.2441720261865754  0.5000001510555767
  0.9996173490127886  0.7492783030595555  0.0000005559296197
  0.0023950578420588  0.7557423078252103  0.4999992650145506
  0.5007711499630149  0.2491017599681346  0.0000018407398557
  0.0001649029410881  0.9997933334842201  0.2570879440894850
  0.0001666325761882  0.9998077089720819  0.7429112212845989
  0.0069992451850827  0.5004328764308998  0.2525803230978033
  0.0070015395602256  0.5004399873822777  0.7474195233089375
 
  0.00000000E+00  0.00000000E+00  0.00000000E+00
  0.00000000E+00  0.00000000E+00  0.00000000E+00
  0.00000000E+00  0.00000000E+00  0.00000000E+00
  0.00000000E+00  0.00000000E+00  0.00000000E+00
  0.00000000E+00  0.00000000E+00  0.00000000E+00
  0.00000000E+00  0.00000000E+00  0.00000000E+00
  0.00000000E+00  0.00000000E+00  0.00000000E+00
  0.00000000E+00  0.00000000E+00  0.00000000E+00
  0.00000000E+00  0.00000000E+00  0.00000000E+00
  0.00000000E+00  0.00000000E+00  0.00000000E+00
  0.00000000E+00  0.00000000E+00  0.00000000E+00
  0.00000000E+00  0.00000000E+00  0.00000000E+00
  0.00000000E+00  0.00000000E+00  0.00000000E+00
  0.00000000E+00  0.00000000E+00  0.00000000E+00
  0.00000000E+00  0.00000000E+00  0.00000000E+00
  0.00000000E+00  0.00000000E+00  0.00000000E+00
  0.00000000E+00  0.00000000E+00  0.00000000E+00
  0.00000000E+00  0.00000000E+00  0.00000000E+00
  0.00000000E+00  0.00000000E+00  0.00000000E+00
  0.00000000E+00  0.00000000E+00  0.00000000E+00
  0.00000000E+00  0.00000000E+00  0.00000000E+00
  0.00000000E+00  0.00000000E+00  0.00000000E+00
  0.00000000E+00  0.00000000E+00  0.00000000E+00
  0.00000000E+00  0.00000000E+00  0.00000000E+00
  0.00000000E+00  0.00000000E+00  0.00000000E+00
  0.00000000E+00  0.00000000E+00  0.00000000E+00
  0.00000000E+00  0.00000000E+00  0.00000000E+00
  0.00000000E+00  0.00000000E+00  0.00000000E+00
  0.00000000E+00  0.00000000E+00  0.00000000E+00
  0.00000000E+00  0.00000000E+00  0.00000000E+00
  0.00000000E+00  0.00000000E+00  0.00000000E+00
  0.00000000E+00  0.00000000E+00  0.00000000E+00
