config 06                               
   1.00000000000000     
    15.4263309999999993    0.0000000000000000    0.0000000000000000
     0.0000000000000000   15.4263309999999993    0.0000000000000000
     0.0000000000000000    0.0000000000000000   15.4263309999999993
   Li   Ti   O    F 
     1    64    64   128
Direct
  0.1636864876811123  0.3889296714289822  0.3815220041530892
  0.9953569363815977  0.9953363344488003  0.9942953548658016
  1.0002340660929683  0.9928732288517990  0.4935023923411135
  0.0054364659903779  0.4959375018410184  0.9968867198641900
  0.9939407275894939  0.5022172839293559  0.5070354936567760
  0.4942356345146964  0.9941012797896316  1.0001348293100021
  0.5004714154530103  0.0080476273884161  0.4989411581610434
  0.5039801947072594  0.4956418368966715  0.9961175284059164
  0.4929675264494543  0.4981694455744782  0.4952920958822983
  0.0066585091087797  0.0035577867995365  0.2557786574762650
  0.0018116382597769  0.0073670170511362  0.7565933414180379
  0.9937726218963618  0.4919431952244336  0.2495739127952897
  0.9926968201901807  0.4995274487519357  0.7413527366891441
  0.5054825775777310  0.0095548414729339  0.2506922452803729
  0.4929386008511239  0.0053212579517087  0.7524159306112546
  0.4940323400252666  0.4956976684424285  0.2572145699872271
  0.5009552127763084  0.5038779771999724  0.7587756898061576
  0.9956577905329715  0.2579379798834039  0.0023032471405526
  0.9993912549925044  0.2471828079446863  0.4952748100084566
  0.9978595566852162  0.7582153443356655  0.0060092362006955
  0.9979698046539273  0.7571620293011643  0.5057630846932210
  0.4953141723980700  0.2586160681591652  0.0009643685288783
  0.5088074056468039  0.2452174830283485  0.4994209421915006
  0.5070447257046989  0.7564840652094764  0.9994761274940767
  0.5067038984445212  0.7518291684309593  0.5088955908020146
  0.0000230913569574  0.2578513548616331  0.2576468213982263
  0.0067013427247863  0.2426479259252043  0.7484764930917511
  0.0062935482141519  0.7475693569368578  0.2429970276090915
  0.9927247571865353  0.7504623778035331  0.7428806221533906
  0.5075870778639845  0.2411178031866990  0.2516342658422521
  0.5068752462689257  0.2432604758202882  0.7501169997959228
  0.5062272228623363  0.7508681518806870  0.2520593297154738
  0.5018318475152922  0.7416419489833226  0.7439464317202732
  0.2564332413826793  0.9980348707529716  0.0062740787178208
  0.2501979110176368  0.9933656089490112  0.5061806316442573
  0.2432666360486999  0.5084923783917278  0.9976297567894002
  0.2555084549680636  0.4946170738283681  0.5091638040457056
  0.7568238553279727  0.0003080580687872  0.9939454332730103
  0.7502940681127002  0.0064952100890366  0.4947270500694033
  0.7412285031828022  0.5005433394843063  0.0050030032116002
  0.7556562018180930  0.4964972472387741  0.5052852387666877
  0.2445631410935428  0.0029916159619112  0.2438367503450830
  0.2579716561634666  0.9979332809082180  0.7445107471300049
  0.2563527806023099  0.4922273428943036  0.2495531933509857
  0.2468084623275044  0.5059232651397904  0.7416794851490467
  0.7441799341238224  0.0016731822821463  0.2557151597477064
  0.7477747170166761  0.0066319724299406  0.7557999991542522
  0.7560799794384861  0.4975218898914633  0.2425285972572116
  0.7571778443391645  0.4977194946112355  0.7422966997937409
  0.2577653663638262  0.2530284347494031  0.0049724497002421
  0.2530793522017673  0.2567523936442087  0.5071951368599806
  0.2518594487227356  0.7416357123444016  0.9944855132292403
  0.2512911008807984  0.7552740446001033  0.4924449669937425
  0.7575569899349756  0.2516458684051010  0.0064553186093456
  0.7443048557878513  0.2417276007014577  0.4985167889114714
  0.7414396001881639  0.7488113427516638  0.9937344386381642
  0.7416171150156237  0.7507884022987817  0.4936923811517674
  0.2506648096646724  0.2588539019681555  0.2431731050541457
  0.2444709593502286  0.2533602970879202  0.7444812944208113
  0.2434409541937561  0.7474871128483149  0.2559414690337855
  0.2477700954618380  0.7412450905591800  0.7563483621207977
  0.7426047894237007  0.2505836580993951  0.2414518273218793
  0.7438540169210479  0.2420030416173921  0.7501761014864533
  0.7452883652757235  0.7491130378361327  0.2566761261660743
  0.7574975176168206  0.7499378899817832  0.7564574218919194
  0.0101329650539279  0.5033215273219562  0.6245062400160659
  0.9980708195862479  0.0042473164215391  0.3755309623725338
  0.0017243944299939  0.0020699620580191  0.8728495077450327
  0.4983747048652206  0.4896303713491795  0.3749554350066238
  0.4932507661396249  0.4936491848154770  0.8748157801932313
  0.9996078569938237  0.7455673253521721  0.1255857340632458
  0.0027064595357270  0.7456428770205077  0.6244848818552412
  0.5029437491386182  0.7475932725655819  0.6247395310309014
  0.0051217735172661  0.2514481302149352  0.3725561621077627
  0.2561826111379146  0.9967373574488892  0.1257126102376385
  0.2564464927291423  0.9970388925063667  0.6250986762265777
  0.2389219995941608  0.4859063469479183  0.6264233277717197
  0.7481050320992042  0.4890553765600581  0.1252842235819120
  0.7449486991463736  0.4907672287837611  0.6239669580542840
  0.7478711481190642  0.0031417795237979  0.3757459360606935
  0.7440019376099141  1.0019905273467253  0.8734650559064842
  0.2511202293283246  0.2614761517954327  0.1259619810993972
  0.2588465495005364  0.2602586112467218  0.6255789385534349
  0.7469247138764290  0.2616080053990597  0.1257452411582624
  0.2554775491258671  0.7411762911540407  0.3747106305641366
  0.2527712035207331  0.7436066073891597  0.8752621825087861
  0.7530597573563385  0.7470843234692839  0.3739364132635780
  0.7497539649478286  0.7481307600488735  0.8754158568875336
  0.1245183221880248  0.5070494276554096  0.9933584320915368
  0.6250436367587059  0.5102010292177286  0.9973770052223146
  0.1255755725112582  0.0101313576272201  0.2496584186685831
  0.6243627956473742  0.0099987161080616  0.2478074891977519
  0.6240923105627526  0.2522899226366153  0.5007108749491264
  0.6239540618909812  0.7390149618476312  0.0013628287977425
  0.6240711106179109  0.7569688675740799  0.4945034864331119
  0.1256538041280399  0.2536106142880780  0.7462288078174020
  0.1253778601975579  0.7434817676885380  0.2526057601394603
  0.6249499123169355  0.2365171459428312  0.2543506448452979
  0.6251488122674533  0.2541382564982402  0.7443589368077832
  0.6221084773042402  0.7448498234265594  0.2522751483061790
  0.3758672064958163  0.9970261204479302  0.9916040177805181
  0.3755472800852098  0.4993562039825425  0.5048259088944419
  0.8727412842509340  0.9983677344732869  0.9984256651547263
  0.8752841397913389  0.4972529465724381  0.5001327800198760
  0.3760634371413547  0.9984477624500966  0.7585407998279117
  0.3735479435934540  0.4873540163294559  0.2473498261732164
  0.8748835228632892  0.4886003616295632  0.2506094719308873
  0.8751058716946294  0.5084907442571718  0.7446130041344199
  0.3755537940232373  0.2518064192736361 -0.0009036853309070
  0.8742016507027465  0.2523482715793853  0.0004874281982087
  0.8745339288292752  0.7424148102596175  0.7476653088877060
  0.5049182181970157  0.1223756936583952  0.4905593110317679
  0.9990917007174450  0.1261720040393891  0.7442252789624164
  0.4871291517437799  0.1253725257157500  0.2661285090250571
  0.5029763522771102  0.1238065743131659  0.7527116176133922
  0.5025165094392007  0.6250426026970196  0.7541520610665724
  0.0033757843651822  0.3760354235919429  0.0037733984440545
  0.0048205401560817  0.8750202607929921  0.0014407121077481
  0.0013665551208906  0.8743824968228457  0.4988332222496464
  0.5053684027619079  0.3743407702420010  0.0104914672036654
  0.5066871175668403  0.8753093540815368  0.0081399672834067
  0.0163960063573309  0.3757272099924265  0.2455934996056853
  0.2576111172254116  0.6250206813585709  0.0112116598023662
  0.7455377204719390  0.1240253006256973  0.5078897059931753
  0.2458112129757228  0.6241669966302286  0.7412660682275929
  0.7493133534817097  0.1246841878424400  0.7411939356252575
  0.2406981585676291  0.3740326392346914  0.4819267003107555
  0.2496135679432314  0.8754377471364080  0.4941603522145386
  0.2297516574637257  0.3752988107762920  0.2696679825568507
  0.9978786110998180  0.0029562610693016  0.1264692416961566
  0.0023289480442451  0.9946819823991990  0.6248850751731186
  0.0015299597113571  0.5105456661394913  0.1241054890249726
  0.4917429936339760  0.0114248915213059  0.1265812069159304
  0.4942107083241666  1.0011088532987469  0.6228848294727238
  0.5017582524936238  0.5100053911808394  0.1277987662040543
  0.5077697345481362  0.5046293979686123  0.6242674272408218
  0.0041017999956866  0.4958482979709198  0.3748746589062579
  0.9940295611998939  0.4987626324856761  0.8724818626259770
  0.5065581940175811  0.9849789206654476  0.3764724272301724
  0.5158565219062010  0.9944178313854422  0.8751860205125166
  0.0016021609068672  0.2455479669079924  0.1264789662745673
  0.9940754670054520  0.2597775394558721  0.6244501181998864
  0.5001590100012733  0.2359708410919084  0.1269196523232486
  0.4904502487161503  0.2421019655653800  0.6230548937392064
  0.4964569133727505  0.7417388340428280  0.1270503967818246
  1.0003889718366576  0.2508763348851064  0.8749042178852441
  0.9932055454893012  0.7505680531624811  0.3747145565328654
 -0.0004237792443522  0.7505877389674437  0.8741692441941289
  0.4985489837529185  0.2667775393158973  0.3757044446321271
  0.5041855303929056  0.2572244025322009  0.8745164296410350
  0.4911554500611530  0.7585095139431327  0.3755550114872835
  0.4961095895272903  0.7566845529678865  0.8742180922770606
  0.2426359401890428  0.4842418389182521  0.1243640293622519
  0.7506364569592614 -0.0010520309389546  0.1264266463850365
  0.7485161191100725  0.9916549273349831  0.6233218983606429
  0.2505196219187482  0.0078756370017369  0.3756162286026774
  0.2424825114210425  1.0031908529413247  0.8745620715969756
  0.2462470577655223  0.5113722505528847  0.3743250645774662
  0.2603713568136936  0.5077226955610403  0.8734647105387189
  0.7475698404197284  0.5083133962133136  0.3743445119048538
  0.7530908162656963  0.5077555229372028  0.8738819461408923
  0.2502418337957777  0.7598185928042135  0.1253606543941382
  0.2474834075046245  0.7565302855545701  0.6249063378273764
  0.7541558331030306  0.2631300033637224  0.6236586097677295
  0.7500205724992707  0.7519174253923614  0.1258879653079306
  0.7456870968120328  0.7510772070096527  0.6242789727997105
  0.2449201599346794  0.2402075643837651  0.3742309501597748
  0.2488404068248111  0.2435540556662173  0.8751904900909248
  0.7538928345786767  0.2398868903704141  0.3734732813537810
  0.7475025140859675  0.2419512812075060  0.8758499051315589
  0.1263153099399229  0.0050583097218816  0.0035299863899373
  0.1257874426029127  0.0082453849590723  0.5008353930944793
  0.1252811305062143  0.5035644431377861  0.4867821108181713
  0.6246279128782830  0.0057160548765447  0.0090833549453812
  0.6234326388822224  0.9870570319307144  0.5053172136313823
  0.6247128728779290  0.4975129154170214  0.4963303550893682
  0.1273813097269378 -0.0015664755671187  0.7458768457326376
  0.1248709533483538  0.5136154072927926  0.2517985651220983
  0.1235724993279209  0.4926489880800406  0.7635076868630843
  0.6233209599811309  0.9931099420160131  0.7392432361767666
  0.6242020469605541  0.5078652817355710  0.2511471149728622
  0.6262871693725703  0.4917255609122934  0.7558249367839628
  0.1256744278923478  0.2473813447057437  0.9987868576068709
  0.1295258638222350  0.2374899533153704  0.5055979389591898
  0.1249226480912521  0.7422378248430086 -0.0008867157482641
  0.1245576436346028  0.7454571254668790  0.4950367608274494
  0.6255672919168094  0.2453233780195353  0.9988899650746631
  0.1257086937734578  0.2313513321661123  0.2469838325318638
  0.1235036436642691  0.7554966370857932  0.7528041015335338
  0.6259649167807069  0.7555925217365098  0.7524676761477778
  0.3774242222641325  0.0015716772384940  0.4917216782102452
  0.3728095947255227  0.4930586879644437  0.0083054339955800
  0.8739376630466674  0.9982668341774077  0.5053656214192244
  0.8741291351473746  0.4952288398540242  1.0001248182559759
  0.3769989232345443  0.9901612100111074  0.2580504037059843
  0.3743835983712446  0.4995985481148437  0.7403190232242539
  0.8733661038488650  0.9916446212300378  0.2491240735083239
  0.8741783440714772  0.9960513659750587  0.7450084772068903
  0.3786918439139704  0.2506364453767385  0.4917818968723615
  0.3759679624238030  0.7595507407729034  0.0030680107683195
  0.3766095232774899  0.7457778977075666  0.5037974696997092
  0.8691757131661504  0.2541576052235391  0.4992505664589190
  0.8716137885558385  0.7580363460870114  1.0010394945272199
  0.8722391521888235  0.7461940848756868  0.5044622061638260
  0.3769976981432129  0.2658411439192576  0.2529429161697546
  0.3763821394039865  0.2490558474095801  0.7562406151213497
  0.3762928589083334  0.7556888947051142  0.2462879989203612
  0.3747229696412966  0.7526813465579461  0.7471159560078874
  0.8731026097241354  0.2641209343158367  0.2499775418488654
  0.8742115547100415  0.2521702500424493  0.7517942646767266
  0.8731586522648018  0.7565392991608808  0.2475866474505081
  0.0004833511958478  0.1270952986668172  0.0004061219523245
  0.9918412939228203  0.1191409572996900  0.5111627705506937
  0.9904246908345533  0.6257126727918891  0.9940266351264427
  0.9990730889095517  0.6263066464091663  0.4917256706424587
  0.5008061448570761  0.1247129146253896  0.9931382019771235
  0.4868529818191709  0.6272651453267921  0.9965632165844807
  0.5032376202728055  0.6258431961805734  0.4916574633833878
  0.9847878367068948  0.1274302303858029  0.2464790553758638
  0.9900746990030060  0.6232267803757771  0.2565056968034263
  0.0117377183737453  0.6245829109464626  0.7560358317269992
  0.4909437718165141  0.6254485010722753  0.2592648710226549
  0.0131470364354591  0.3786315784244932  0.4967613456365144
  0.4985591480749610  0.3722861910827879  0.5118481216988662
  0.4912036754738948  0.8774986299267415  0.5036737989842355
  0.9948709820254884  0.3750163340380810  0.7518436470558449
  0.0039232452748755  0.8758453376535686  0.2500623817007591
  0.9981951392652137  0.8753203865163073  0.7488041620395152
  0.5117786039740749  0.3717967719563767  0.2379543246490661
  0.4953944659656613  0.3735462050391293  0.7403773007307255
  0.5042654546034975  0.8760988607425914  0.2420338436478192
  0.5003607793756097  0.8751094502394986  0.7480220765343911
  0.2499486469710455  0.1257064249632612  0.0033900834770588
  0.2584387957292315  0.1249869740329933  0.5034612519110089
  0.2491339255906569  0.6250625724118626  0.5098673326576405
  0.7482604664097936  0.1261558075739984  0.0067851190731083
  0.7632134253671473  0.6253267476754354  0.0071257169718925
  0.7464428930031803  0.6244784261182572  0.5046571625577645
  0.2658026982937324  0.1280848949732581  0.2465313700489182
  0.2502230308926954  0.1254846029001618  0.7481286536515488
  0.2587544365795605  0.6226291659608433  0.2369009410492070
  0.7668099861321234  0.1262381217179384  0.2435627441655331
  0.7565237614583133  0.6245726336379623  0.2430632835302292
  0.7378018413251742  0.6243696424360822  0.7441338734019562
  0.2456837038466379  0.3766889962594969  0.9876652521372028
  0.2422977281232203  0.8736681471801632  0.9957159267030694
  0.7432294314019404  0.3750672288153353  0.9849013192949424
  0.7478618304544078  0.3725084001673321  0.4863715742639763
  0.7403933588305717  0.8747728941332248  0.0032608147969182
  0.7563101347619698  0.8753029716186267  0.4990316793404799
  0.2551778547694165  0.3767286489303046  0.7656130107843314
  0.2461876318977396  0.8758150088936092  0.2577258762562818
  0.2487752906285677  0.8733695701881857  0.7542482203373330
  0.7364739553025941  0.3739503247702484  0.2662015517486729
  0.7557123801617533  0.3736636873197942  0.7603704678235738
  0.7431381853086435  0.8753010140888848  0.2486906861132456
  0.7523062121609841  0.8748485125566168  0.7480834523795277
 
  0.00000000E+00  0.00000000E+00  0.00000000E+00
  0.00000000E+00  0.00000000E+00  0.00000000E+00
  0.00000000E+00  0.00000000E+00  0.00000000E+00
  0.00000000E+00  0.00000000E+00  0.00000000E+00
  0.00000000E+00  0.00000000E+00  0.00000000E+00
  0.00000000E+00  0.00000000E+00  0.00000000E+00
  0.00000000E+00  0.00000000E+00  0.00000000E+00
  0.00000000E+00  0.00000000E+00  0.00000000E+00
  0.00000000E+00  0.00000000E+00  0.00000000E+00
  0.00000000E+00  0.00000000E+00  0.00000000E+00
  0.00000000E+00  0.00000000E+00  0.00000000E+00
  0.00000000E+00  0.00000000E+00  0.00000000E+00
  0.00000000E+00  0.00000000E+00  0.00000000E+00
  0.00000000E+00  0.00000000E+00  0.00000000E+00
  0.00000000E+00  0.00000000E+00  0.00000000E+00
  0.00000000E+00  0.00000000E+00  0.00000000E+00
  0.00000000E+00  0.00000000E+00  0.00000000E+00
  0.00000000E+00  0.00000000E+00  0.00000000E+00
  0.00000000E+00  0.00000000E+00  0.00000000E+00
  0.00000000E+00  0.00000000E+00  0.00000000E+00
  0.00000000E+00  0.00000000E+00  0.00000000E+00
  0.00000000E+00  0.00000000E+00  0.00000000E+00
  0.00000000E+00  0.00000000E+00  0.00000000E+00
  0.00000000E+00  0.00000000E+00  0.00000000E+00
  0.00000000E+00  0.00000000E+00  0.00000000E+00
  0.00000000E+00  0.00000000E+00  0.00000000E+00
  0.00000000E+00  0.00000000E+00  0.00000000E+00
  0.00000000E+00  0.00000000E+00  0.00000000E+00
  0.00000000E+00  0.00000000E+00  0.00000000E+00
  0.00000000E+00  0.00000000E+00  0.00000000E+00
  0.00000000E+00  0.00000000E+00  0.00000000E+00
  0.00000000E+00  0.00000000E+00  0.00000000E+00
  0.00000000E+00  0.00000000E+00  0.00000000E+00
  0.00000000E+00  0.00000000E+00  0.00000000E+00
  0.00000000E+00  0.00000000E+00  0.00000000E+00
  0.00000000E+00  0.00000000E+00  0.00000000E+00
  0.00000000E+00  0.00000000E+00  0.00000000E+00
  0.00000000E+00  0.00000000E+00  0.00000000E+00
  0.00000000E+00  0.00000000E+00  0.00000000E+00
  0.00000000E+00  0.00000000E+00  0.00000000E+00
  0.00000000E+00  0.00000000E+00  0.00000000E+00
  0.00000000E+00  0.00000000E+00  0.00000000E+00
  0.00000000E+00  0.00000000E+00  0.00000000E+00
  0.00000000E+00  0.00000000E+00  0.00000000E+00
  0.00000000E+00  0.00000000E+00  0.00000000E+00
  0.00000000E+00  0.00000000E+00  0.00000000E+00
  0.00000000E+00  0.00000000E+00  0.00000000E+00
  0.00000000E+00  0.00000000E+00  0.00000000E+00
  0.00000000E+00  0.00000000E+00  0.00000000E+00
  0.00000000E+00  0.00000000E+00  0.00000000E+00
  0.00000000E+00  0.00000000E+00  0.00000000E+00
  0.00000000E+00  0.00000000E+00  0.00000000E+00
  0.00000000E+00  0.00000000E+00  0.00000000E+00
  0.00000000E+00  0.00000000E+00  0.00000000E+00
  0.00000000E+00  0.00000000E+00  0.00000000E+00
  0.00000000E+00  0.00000000E+00  0.00000000E+00
  0.00000000E+00  0.00000000E+00  0.00000000E+00
  0.00000000E+00  0.00000000E+00  0.00000000E+00
  0.00000000E+00  0.00000000E+00  0.00000000E+00
  0.00000000E+00  0.00000000E+00  0.00000000E+00
  0.00000000E+00  0.00000000E+00  0.00000000E+00
  0.00000000E+00  0.00000000E+00  0.00000000E+00
  0.00000000E+00  0.00000000E+00  0.00000000E+00
  0.00000000E+00  0.00000000E+00  0.00000000E+00
  0.00000000E+00  0.00000000E+00  0.00000000E+00
  0.00000000E+00  0.00000000E+00  0.00000000E+00
  0.00000000E+00  0.00000000E+00  0.00000000E+00
  0.00000000E+00  0.00000000E+00  0.00000000E+00
  0.00000000E+00  0.00000000E+00  0.00000000E+00
  0.00000000E+00  0.00000000E+00  0.00000000E+00
  0.00000000E+00  0.00000000E+00  0.00000000E+00
  0.00000000E+00  0.00000000E+00  0.00000000E+00
  0.00000000E+00  0.00000000E+00  0.00000000E+00
  0.00000000E+00  0.00000000E+00  0.00000000E+00
  0.00000000E+00  0.00000000E+00  0.00000000E+00
  0.00000000E+00  0.00000000E+00  0.00000000E+00
  0.00000000E+00  0.00000000E+00  0.00000000E+00
  0.00000000E+00  0.00000000E+00  0.00000000E+00
  0.00000000E+00  0.00000000E+00  0.00000000E+00
  0.00000000E+00  0.00000000E+00  0.00000000E+00
  0.00000000E+00  0.00000000E+00  0.00000000E+00
  0.00000000E+00  0.00000000E+00  0.00000000E+00
  0.00000000E+00  0.00000000E+00  0.00000000E+00
  0.00000000E+00  0.00000000E+00  0.00000000E+00
  0.00000000E+00  0.00000000E+00  0.00000000E+00
  0.00000000E+00  0.00000000E+00  0.00000000E+00
  0.00000000E+00  0.00000000E+00  0.00000000E+00
  0.00000000E+00  0.00000000E+00  0.00000000E+00
  0.00000000E+00  0.00000000E+00  0.00000000E+00
  0.00000000E+00  0.00000000E+00  0.00000000E+00
  0.00000000E+00  0.00000000E+00  0.00000000E+00
  0.00000000E+00  0.00000000E+00  0.00000000E+00
  0.00000000E+00  0.00000000E+00  0.00000000E+00
  0.00000000E+00  0.00000000E+00  0.00000000E+00
  0.00000000E+00  0.00000000E+00  0.00000000E+00
  0.00000000E+00  0.00000000E+00  0.00000000E+00
  0.00000000E+00  0.00000000E+00  0.00000000E+00
  0.00000000E+00  0.00000000E+00  0.00000000E+00
  0.00000000E+00  0.00000000E+00  0.00000000E+00
  0.00000000E+00  0.00000000E+00  0.00000000E+00
  0.00000000E+00  0.00000000E+00  0.00000000E+00
  0.00000000E+00  0.00000000E+00  0.00000000E+00
  0.00000000E+00  0.00000000E+00  0.00000000E+00
  0.00000000E+00  0.00000000E+00  0.00000000E+00
  0.00000000E+00  0.00000000E+00  0.00000000E+00
  0.00000000E+00  0.00000000E+00  0.00000000E+00
  0.00000000E+00  0.00000000E+00  0.00000000E+00
  0.00000000E+00  0.00000000E+00  0.00000000E+00
  0.00000000E+00  0.00000000E+00  0.00000000E+00
  0.00000000E+00  0.00000000E+00  0.00000000E+00
  0.00000000E+00  0.00000000E+00  0.00000000E+00
  0.00000000E+00  0.00000000E+00  0.00000000E+00
  0.00000000E+00  0.00000000E+00  0.00000000E+00
  0.00000000E+00  0.00000000E+00  0.00000000E+00
  0.00000000E+00  0.00000000E+00  0.00000000E+00
  0.00000000E+00  0.00000000E+00  0.00000000E+00
  0.00000000E+00  0.00000000E+00  0.00000000E+00
  0.00000000E+00  0.00000000E+00  0.00000000E+00
  0.00000000E+00  0.00000000E+00  0.00000000E+00
  0.00000000E+00  0.00000000E+00  0.00000000E+00
  0.00000000E+00  0.00000000E+00  0.00000000E+00
  0.00000000E+00  0.00000000E+00  0.00000000E+00
  0.00000000E+00  0.00000000E+00  0.00000000E+00
  0.00000000E+00  0.00000000E+00  0.00000000E+00
  0.00000000E+00  0.00000000E+00  0.00000000E+00
  0.00000000E+00  0.00000000E+00  0.00000000E+00
  0.00000000E+00  0.00000000E+00  0.00000000E+00
  0.00000000E+00  0.00000000E+00  0.00000000E+00
  0.00000000E+00  0.00000000E+00  0.00000000E+00
  0.00000000E+00  0.00000000E+00  0.00000000E+00
  0.00000000E+00  0.00000000E+00  0.00000000E+00
  0.00000000E+00  0.00000000E+00  0.00000000E+00
  0.00000000E+00  0.00000000E+00  0.00000000E+00
  0.00000000E+00  0.00000000E+00  0.00000000E+00
  0.00000000E+00  0.00000000E+00  0.00000000E+00
  0.00000000E+00  0.00000000E+00  0.00000000E+00
  0.00000000E+00  0.00000000E+00  0.00000000E+00
  0.00000000E+00  0.00000000E+00  0.00000000E+00
  0.00000000E+00  0.00000000E+00  0.00000000E+00
  0.00000000E+00  0.00000000E+00  0.00000000E+00
  0.00000000E+00  0.00000000E+00  0.00000000E+00
  0.00000000E+00  0.00000000E+00  0.00000000E+00
  0.00000000E+00  0.00000000E+00  0.00000000E+00
  0.00000000E+00  0.00000000E+00  0.00000000E+00
  0.00000000E+00  0.00000000E+00  0.00000000E+00
  0.00000000E+00  0.00000000E+00  0.00000000E+00
  0.00000000E+00  0.00000000E+00  0.00000000E+00
  0.00000000E+00  0.00000000E+00  0.00000000E+00
  0.00000000E+00  0.00000000E+00  0.00000000E+00
  0.00000000E+00  0.00000000E+00  0.00000000E+00
  0.00000000E+00  0.00000000E+00  0.00000000E+00
  0.00000000E+00  0.00000000E+00  0.00000000E+00
  0.00000000E+00  0.00000000E+00  0.00000000E+00
  0.00000000E+00  0.00000000E+00  0.00000000E+00
  0.00000000E+00  0.00000000E+00  0.00000000E+00
  0.00000000E+00  0.00000000E+00  0.00000000E+00
  0.00000000E+00  0.00000000E+00  0.00000000E+00
  0.00000000E+00  0.00000000E+00  0.00000000E+00
  0.00000000E+00  0.00000000E+00  0.00000000E+00
  0.00000000E+00  0.00000000E+00  0.00000000E+00
  0.00000000E+00  0.00000000E+00  0.00000000E+00
  0.00000000E+00  0.00000000E+00  0.00000000E+00
  0.00000000E+00  0.00000000E+00  0.00000000E+00
  0.00000000E+00  0.00000000E+00  0.00000000E+00
  0.00000000E+00  0.00000000E+00  0.00000000E+00
  0.00000000E+00  0.00000000E+00  0.00000000E+00
  0.00000000E+00  0.00000000E+00  0.00000000E+00
  0.00000000E+00  0.00000000E+00  0.00000000E+00
  0.00000000E+00  0.00000000E+00  0.00000000E+00
  0.00000000E+00  0.00000000E+00  0.00000000E+00
  0.00000000E+00  0.00000000E+00  0.00000000E+00
  0.00000000E+00  0.00000000E+00  0.00000000E+00
  0.00000000E+00  0.00000000E+00  0.00000000E+00
  0.00000000E+00  0.00000000E+00  0.00000000E+00
  0.00000000E+00  0.00000000E+00  0.00000000E+00
  0.00000000E+00  0.00000000E+00  0.00000000E+00
  0.00000000E+00  0.00000000E+00  0.00000000E+00
  0.00000000E+00  0.00000000E+00  0.00000000E+00
  0.00000000E+00  0.00000000E+00  0.00000000E+00
  0.00000000E+00  0.00000000E+00  0.00000000E+00
  0.00000000E+00  0.00000000E+00  0.00000000E+00
  0.00000000E+00  0.00000000E+00  0.00000000E+00
  0.00000000E+00  0.00000000E+00  0.00000000E+00
  0.00000000E+00  0.00000000E+00  0.00000000E+00
  0.00000000E+00  0.00000000E+00  0.00000000E+00
  0.00000000E+00  0.00000000E+00  0.00000000E+00
  0.00000000E+00  0.00000000E+00  0.00000000E+00
  0.00000000E+00  0.00000000E+00  0.00000000E+00
  0.00000000E+00  0.00000000E+00  0.00000000E+00
  0.00000000E+00  0.00000000E+00  0.00000000E+00
  0.00000000E+00  0.00000000E+00  0.00000000E+00
  0.00000000E+00  0.00000000E+00  0.00000000E+00
  0.00000000E+00  0.00000000E+00  0.00000000E+00
  0.00000000E+00  0.00000000E+00  0.00000000E+00
  0.00000000E+00  0.00000000E+00  0.00000000E+00
  0.00000000E+00  0.00000000E+00  0.00000000E+00
  0.00000000E+00  0.00000000E+00  0.00000000E+00
  0.00000000E+00  0.00000000E+00  0.00000000E+00
  0.00000000E+00  0.00000000E+00  0.00000000E+00
  0.00000000E+00  0.00000000E+00  0.00000000E+00
  0.00000000E+00  0.00000000E+00  0.00000000E+00
  0.00000000E+00  0.00000000E+00  0.00000000E+00
  0.00000000E+00  0.00000000E+00  0.00000000E+00
  0.00000000E+00  0.00000000E+00  0.00000000E+00
  0.00000000E+00  0.00000000E+00  0.00000000E+00
  0.00000000E+00  0.00000000E+00  0.00000000E+00
  0.00000000E+00  0.00000000E+00  0.00000000E+00
  0.00000000E+00  0.00000000E+00  0.00000000E+00
  0.00000000E+00  0.00000000E+00  0.00000000E+00
  0.00000000E+00  0.00000000E+00  0.00000000E+00
  0.00000000E+00  0.00000000E+00  0.00000000E+00
  0.00000000E+00  0.00000000E+00  0.00000000E+00
  0.00000000E+00  0.00000000E+00  0.00000000E+00
  0.00000000E+00  0.00000000E+00  0.00000000E+00
  0.00000000E+00  0.00000000E+00  0.00000000E+00
  0.00000000E+00  0.00000000E+00  0.00000000E+00
  0.00000000E+00  0.00000000E+00  0.00000000E+00
  0.00000000E+00  0.00000000E+00  0.00000000E+00
  0.00000000E+00  0.00000000E+00  0.00000000E+00
  0.00000000E+00  0.00000000E+00  0.00000000E+00
  0.00000000E+00  0.00000000E+00  0.00000000E+00
  0.00000000E+00  0.00000000E+00  0.00000000E+00
  0.00000000E+00  0.00000000E+00  0.00000000E+00
  0.00000000E+00  0.00000000E+00  0.00000000E+00
  0.00000000E+00  0.00000000E+00  0.00000000E+00
  0.00000000E+00  0.00000000E+00  0.00000000E+00
  0.00000000E+00  0.00000000E+00  0.00000000E+00
  0.00000000E+00  0.00000000E+00  0.00000000E+00
  0.00000000E+00  0.00000000E+00  0.00000000E+00
  0.00000000E+00  0.00000000E+00  0.00000000E+00
  0.00000000E+00  0.00000000E+00  0.00000000E+00
  0.00000000E+00  0.00000000E+00  0.00000000E+00
  0.00000000E+00  0.00000000E+00  0.00000000E+00
  0.00000000E+00  0.00000000E+00  0.00000000E+00
  0.00000000E+00  0.00000000E+00  0.00000000E+00
  0.00000000E+00  0.00000000E+00  0.00000000E+00
  0.00000000E+00  0.00000000E+00  0.00000000E+00
  0.00000000E+00  0.00000000E+00  0.00000000E+00
  0.00000000E+00  0.00000000E+00  0.00000000E+00
  0.00000000E+00  0.00000000E+00  0.00000000E+00
  0.00000000E+00  0.00000000E+00  0.00000000E+00
  0.00000000E+00  0.00000000E+00  0.00000000E+00
  0.00000000E+00  0.00000000E+00  0.00000000E+00
  0.00000000E+00  0.00000000E+00  0.00000000E+00
  0.00000000E+00  0.00000000E+00  0.00000000E+00
  0.00000000E+00  0.00000000E+00  0.00000000E+00
  0.00000000E+00  0.00000000E+00  0.00000000E+00
  0.00000000E+00  0.00000000E+00  0.00000000E+00
  0.00000000E+00  0.00000000E+00  0.00000000E+00
  0.00000000E+00  0.00000000E+00  0.00000000E+00
  0.00000000E+00  0.00000000E+00  0.00000000E+00
  0.00000000E+00  0.00000000E+00  0.00000000E+00
  0.00000000E+00  0.00000000E+00  0.00000000E+00
  0.00000000E+00  0.00000000E+00  0.00000000E+00
  0.00000000E+00  0.00000000E+00  0.00000000E+00
  0.00000000E+00  0.00000000E+00  0.00000000E+00
  0.00000000E+00  0.00000000E+00  0.00000000E+00
