TiOF2 2x2x2 config 1822                 
   1.00000000000000     
     7.7561676363787670   -0.0000839668923046    0.0020394244746991
    -0.0000848552681910    7.7564103112285006    0.0030537970642771
     0.0020216999755887    0.0030667481963696    7.6651220532404700
   Ti   O    F 
     8     8    16
Direct
  0.0009968776405387  0.9999552660518276  0.9808922053278266
  0.9893419139259123  0.9895237365874863  0.5028672729653323
  0.9848038180885084  0.4999317698889811  0.9886304045588972
  0.0004456044114320  0.5151568725492126  0.5113409575000389
  0.4995071420332522  0.0151707300316559  0.0126827284159887
  0.5151524084789258  0.9998136074981190  0.4873140007678813
  0.5106061231996151  0.4895440005183147  0.9971199241491249
  0.4989987454799873  0.4999608415867556  0.5190898357086340
  0.7491232602964146  0.0011208423121118  0.5001371449856080
  0.7510922404530760  0.5013578450837102  0.0033050712391542
  0.0007077306340761  0.7489028301758083  0.4967239791862497
  0.4993295200421386  0.2492036773653581  0.9998198935941431
  0.0015440592617395  0.0027235970347874  0.7533690679194720
  0.0015093740772087  0.4979499470835123  0.7499854913077115
  0.4989937639209430  0.9985479338691050  0.2499922104400127
  0.4979815393414171  0.5022570149206160  0.7466209515595565
  0.2482960998165638  0.9952500768904997  0.0001119796212876
  0.2516806376428562  0.0027762990225924  0.5011426330539592
  0.2483970774379571  0.5030605779627351  0.0058213036231862
  0.2519999173494298  0.4954699069369539  0.4905464780037931
  0.7524871242511963  0.9949107837090310  0.9998502189014786
  0.7471637846246040  0.4952154993237912  0.4894482841943812
  0.0043135551952744  0.2474215772326573  0.0092471703166694
  0.0021960721402579  0.2516239636303297  0.4941360250782267
  0.0036071989845610  0.7522572568343477  0.0108077752973941
  0.4962002769313330  0.2519194272201446  0.5004327039947256
  0.4978617591874013  0.7517530619807147  0.9989088471546452
  0.4954329376635656  0.7477246718848747  0.4996329002343884
  0.0036093866610400  0.0038277434022547  0.2444053916316449
  0.0035441749398615  0.4957666371231113  0.2500142535679473
  0.4961738246266094  0.9955753445403843  0.7500281480552573
  0.4969020512622961  0.5043266597482230  0.2555747476453902
 
  0.00000000E+00  0.00000000E+00  0.00000000E+00
  0.00000000E+00  0.00000000E+00  0.00000000E+00
  0.00000000E+00  0.00000000E+00  0.00000000E+00
  0.00000000E+00  0.00000000E+00  0.00000000E+00
  0.00000000E+00  0.00000000E+00  0.00000000E+00
  0.00000000E+00  0.00000000E+00  0.00000000E+00
  0.00000000E+00  0.00000000E+00  0.00000000E+00
  0.00000000E+00  0.00000000E+00  0.00000000E+00
  0.00000000E+00  0.00000000E+00  0.00000000E+00
  0.00000000E+00  0.00000000E+00  0.00000000E+00
  0.00000000E+00  0.00000000E+00  0.00000000E+00
  0.00000000E+00  0.00000000E+00  0.00000000E+00
  0.00000000E+00  0.00000000E+00  0.00000000E+00
  0.00000000E+00  0.00000000E+00  0.00000000E+00
  0.00000000E+00  0.00000000E+00  0.00000000E+00
  0.00000000E+00  0.00000000E+00  0.00000000E+00
  0.00000000E+00  0.00000000E+00  0.00000000E+00
  0.00000000E+00  0.00000000E+00  0.00000000E+00
  0.00000000E+00  0.00000000E+00  0.00000000E+00
  0.00000000E+00  0.00000000E+00  0.00000000E+00
  0.00000000E+00  0.00000000E+00  0.00000000E+00
  0.00000000E+00  0.00000000E+00  0.00000000E+00
  0.00000000E+00  0.00000000E+00  0.00000000E+00
  0.00000000E+00  0.00000000E+00  0.00000000E+00
  0.00000000E+00  0.00000000E+00  0.00000000E+00
  0.00000000E+00  0.00000000E+00  0.00000000E+00
  0.00000000E+00  0.00000000E+00  0.00000000E+00
  0.00000000E+00  0.00000000E+00  0.00000000E+00
  0.00000000E+00  0.00000000E+00  0.00000000E+00
  0.00000000E+00  0.00000000E+00  0.00000000E+00
  0.00000000E+00  0.00000000E+00  0.00000000E+00
  0.00000000E+00  0.00000000E+00  0.00000000E+00
