TiOF2 2x2x2 config 1999                 
   1.00000000000000     
     7.8124933520204412    0.0000086231617667    0.0001684323666850
     0.0000071659051459    7.8607210941524412    0.0001508611499390
     0.0001025595621994    0.0001479943288789    7.6761127758244996
   Ti   O    F 
     8     8    16
Direct
  0.9999996039288561  0.0000208199524891  0.9999961907260655
  0.0000009562153664  0.0003364344702135  0.4999968645181099
  0.0000017920617736  0.5000155495938614  0.9999949480513735
  0.0000001080112213  0.5005999774908432  0.5000010557468215
  0.4999990462487531  0.0022445017484500  0.0000764706048741
  0.4999996760871426  0.9856795154093518  0.5000931970770495
  0.5000006829278405  0.4995269795943784  0.9999971795171447
  0.4999952637420222  0.5054473462211391  0.5000051609385068
  0.2343232471943537  0.5030090027070742  0.5000012096551529
  0.7656793119009251  0.5030087211912999  0.5000046266935385
  0.5000005423864806  0.2445489324581018  0.5000026192824123
  0.5000004012686503  0.7546288174423168  0.4999906986879878
  0.4999995424272043  0.0053858742059418  0.2432821575374930
  0.4999988074816386  0.0054126324611872  0.7566487508868462
  0.5000026678520300  0.4952102244946133  0.2405296785493576
  0.4999984239941568  0.4952319076763700  0.7594756478272515
  0.2431520768544786  0.9997147756654243  0.9999917984272386
  0.2377248407400714  0.9985983111463597  0.4999785670627332
  0.2392343282605225  0.5004748036285704  0.0000064598937755
  0.7568463670278263  0.9997180105780430  0.9999817406713163
  0.7622743890510293  0.9985984805334809  0.4999968300459159
  0.7607667562122984  0.5004761756497871  0.9999948490004016
  0.9999990980236788  0.2575024447350529  0.0000032662404124
  0.0000012471925075  0.2403547806023099  0.4999990607763749
  0.0000005347474143  0.7425088872002163  0.9999983243558219
  0.0000007123330832  0.7606750184366504  0.5000011373249009
  0.4999968613443357  0.2498587564258230  0.9999766127446037
  0.5000012938999205  0.7515151055301672  0.9999792953040441
  0.9999872093136588  0.0002724785397277  0.2556483056061865
  0.0000116287009106  0.0002617213133007  0.7443432371397449
  0.9999983416974771  0.4995793223527301  0.2409915772744071
  0.0000042408723502  0.4995836905447177  0.7590124818321442
 
  0.00000000E+00  0.00000000E+00  0.00000000E+00
  0.00000000E+00  0.00000000E+00  0.00000000E+00
  0.00000000E+00  0.00000000E+00  0.00000000E+00
  0.00000000E+00  0.00000000E+00  0.00000000E+00
  0.00000000E+00  0.00000000E+00  0.00000000E+00
  0.00000000E+00  0.00000000E+00  0.00000000E+00
  0.00000000E+00  0.00000000E+00  0.00000000E+00
  0.00000000E+00  0.00000000E+00  0.00000000E+00
  0.00000000E+00  0.00000000E+00  0.00000000E+00
  0.00000000E+00  0.00000000E+00  0.00000000E+00
  0.00000000E+00  0.00000000E+00  0.00000000E+00
  0.00000000E+00  0.00000000E+00  0.00000000E+00
  0.00000000E+00  0.00000000E+00  0.00000000E+00
  0.00000000E+00  0.00000000E+00  0.00000000E+00
  0.00000000E+00  0.00000000E+00  0.00000000E+00
  0.00000000E+00  0.00000000E+00  0.00000000E+00
  0.00000000E+00  0.00000000E+00  0.00000000E+00
  0.00000000E+00  0.00000000E+00  0.00000000E+00
  0.00000000E+00  0.00000000E+00  0.00000000E+00
  0.00000000E+00  0.00000000E+00  0.00000000E+00
  0.00000000E+00  0.00000000E+00  0.00000000E+00
  0.00000000E+00  0.00000000E+00  0.00000000E+00
  0.00000000E+00  0.00000000E+00  0.00000000E+00
  0.00000000E+00  0.00000000E+00  0.00000000E+00
  0.00000000E+00  0.00000000E+00  0.00000000E+00
  0.00000000E+00  0.00000000E+00  0.00000000E+00
  0.00000000E+00  0.00000000E+00  0.00000000E+00
  0.00000000E+00  0.00000000E+00  0.00000000E+00
  0.00000000E+00  0.00000000E+00  0.00000000E+00
  0.00000000E+00  0.00000000E+00  0.00000000E+00
  0.00000000E+00  0.00000000E+00  0.00000000E+00
  0.00000000E+00  0.00000000E+00  0.00000000E+00
