Ti64 O64 F128                           
   1.00000000000000     
    15.2578961168953136    0.0000000000000000    0.0000000000000000
     0.0000000000000000   15.2578961168953136    0.0000000000000000
     0.0000000000000000    0.0000000000000000   15.2578961168953136
   Ti   O    F 
    64    64   128
Direct
  0.9974504092360168  0.9990576257249767  0.0083063988241339
  0.9927473049485516  0.9905027993614370  0.4994241975035488
  0.9968978524679482  0.5059136944774415  0.9937618091618686
  0.0069640833536224  0.5018223635926974  0.4928194182696816
  0.5065319050237902  0.0083767032435590  0.0024763956699905
  0.4913041487520983  0.0006362971601815  0.4973272716980722
  0.5076081508599766  0.5090165840066965  0.0001719527706351
  0.5014440311905174  0.4920120724114563  0.5083608203857914
  0.9987520581126911  0.0089087121609895  0.2449484810543293
  0.9906224242090810  0.9936943055058903  0.7505970680772767
  0.0069074743757462  0.4978158439553763  0.2569193051946946
  0.9923992203090382  0.5026379234456521  0.7551537937911627
  0.4936885296049935  0.9919966721996883  0.2512636377853279
  0.4908223681623654  0.9946797907942628  0.7519561102480812
  0.5077762340235298  0.4941605510989641  0.2558000600973062
  0.5026146226750038  0.4925277263320361  0.7453646893571356
  0.9947496174539618  0.2548694581554686  0.9924625700551855
  0.9938938377065083  0.2499873745120981  0.4926945229774099
  0.9984417817884775  0.7420850094243869  0.9934574539905222
  0.0027603264940917  0.7575308976727754  0.4959524612144908
  0.4925871969554348  0.2455484913661263  0.9998673850100768
  0.4942275258916151  0.2591173455839764  0.4958785386832470
  0.5022919174972866  0.7458955192811401  0.0093919806657430
  0.4933082703330997  0.7501407820128921  0.5085288511102196
  0.0011865757188459  0.2439920037281720  0.2565513823294951
  0.0063725749628029  0.2508558515577488  0.7538947026318092
  0.9948528230764128  0.7537047102121037  0.2560320024611330
  0.9978784176001745  0.7590464317601079  0.7553065863607216
  0.4920396673074171  0.2559616622631725  0.2529405897072148
  0.5041362728310925  0.2573152572772751  0.7489490652073506
  0.4981785742599431  0.7564253081017600  0.2460948574869784
  0.5009678694876025  0.7572019690080578  0.7464972727144027
  0.2547641218446168  0.0075199016778313  0.0041807392452362
  0.2529630670291628  0.0070668392105367  0.4935420361137202
  0.2550942936493785  0.5051364424355179  0.9933630270717301
  0.2436722066282329  0.4987663738873517  0.4917998265100057
  0.7399850977194591  0.9979367877956289  0.9958827064013379
  0.7527108893512334  0.9956138776326094  0.4932534328401101
  0.7448092377937675  0.5089655055076449  0.0008924532792937
  0.7553587226920840  0.5052455593876140  0.4931723425220513
  0.2590662649177523  0.0027551566998608  0.2419204307658751
  0.2529024790885948  0.0069590201688477  0.7520488637097179
  0.2457863397928670  0.4934173569044728  0.2548671955255035
  0.2484591672018792  0.5050006608103669  0.7561035486827696
  0.7476960862453967  0.0061567657723289  0.2564314074142106
  0.7534726970320452  0.9982334590097809  0.7573354077119639
  0.7464089529909299  0.4968201673808155  0.2602526227115936
  0.7567708318788159  0.5090529088913877  0.7506886514748071
  0.2567830236206542  0.2447215599511029  0.9962124446761803
  0.2567015166342385  0.2439289407361346  0.4949610755253828
  0.2542866817604976  0.7444074068687524  0.9924502656944727
  0.2582235044794522  0.7541216553027581  0.4939001877315412
  0.7558390721861882  0.2541258085652771  0.9939441397996097
  0.7542102446618000  0.2535368584230463  0.4936725396587298
  0.7524475654767788  0.7400363564222784  0.0066777576338308
  0.7486344912947211  0.7399575634376254  0.5072187170387722
  0.2558749868064562  0.2584649693435240  0.2484362636733626
  0.2415333271074405  0.2452051529189370  0.7476703042242113
  0.2589135453211797  0.7509155998478277  0.2540903064572101
  0.2500594279127116  0.7438285898557268  0.7560733902311254
  0.7474764918191015  0.2427308530666734  0.2565725088717453
  0.7419468658332266  0.2536683144344115  0.7545755442056683
  0.7564141170838949  0.7508751552112968  0.2444508482586860
  0.7475481317173970  0.7400377121153856  0.7472860440575656
  0.9844317596465674  0.0113652538317136  0.1230826345547415
  0.5173147767130082  0.4902669176509218  0.6261438455656350
  0.9848378037047840  0.4868929306349595  0.3761800181163468
  0.9920956094144787  0.4873280322370870  0.8749148681796401
  0.5188711117276209  0.7628282496554496  0.1248846028164893
  0.5160526518287006  0.7593956946669304  0.6268483088469332
  0.0133868598716109  0.2636286309687029  0.3736223380295939
  0.0095377284487916  0.2643984783715498  0.8733563808328050
  0.9962188516651183  0.7615681658214267  0.3766654786186664
  0.9903707565026884  0.7626379823150036  0.8750965407225787
  0.2673345262192517  0.0154189905271126  0.1232312912095646
  0.2647052037277407  0.4872051144153298  0.3758731260041044
  0.2589139023666984  0.4856195279743576  0.8746798866562314
  0.7334196935130844  0.9897488017535213  0.3745975426256814
  0.7345907654677883  0.9917304335568830  0.8762190075325675
  0.7663975638302563  0.4799809738998837  0.3775006314045455
  0.7392760398406768  0.7344576031153688  0.1251914521997366
  0.7367237149430461  0.7373429671278651  0.6278918126183388
  0.2544601971500574  0.7616303691550864  0.3754421988483824
  0.2614774213055061  0.7639297376494748  0.8739768605241949
  0.7351844732593922  0.2618108650515656  0.3746954007668366
  0.7403067162570059  0.2603568709831257  0.8746228173009120
  0.1250826259299966  0.5162082411374832  0.4884839140212545
  0.6244412642213100  0.0129771923623897  0.0200915885945789
  0.6270549279334775  0.5163878646369535  0.9879455646528149
  0.1245581663620767  0.5078849937338376  0.2603436738870922
  0.6271785524408812  0.5083952403336386  0.2646673132107870
  0.1244692553106816  0.2647797319464080  0.7331039580429313
  0.6228464339591803  0.2637113428542874  0.7368418540624307
  0.3757715384400754  0.9863053912926377  0.4835884638037023
  0.8732447057105575  0.9860542056045862  0.4904945243846624
  0.3741779098238827  0.9934209956232156  0.2686833526068622
  0.3731075425236249  0.0119124077403991  0.7621120686974677
  0.8732786308534496  0.0133486706355419  0.7615503176063821
  0.8746899807973511  0.5202772910903659  0.7398275605415293
  0.3747558957877518  0.2647889241210141  0.9871170282930670
  0.3743843746664207  0.2621203685730363  0.4790054590929422
  0.3763430787128627  0.7697202685971337  0.5115893252712522
  0.8755516702322897  0.2654984801350857  0.9943928028148361
  0.8741795387131024  0.2624130245121438  0.4900880533964741
  0.3740871807167191  0.2509780578287505  0.2672894098969275
  0.3761585887344177  0.7615792016987011  0.2404186273022688
  0.8757221531535401  0.7643854818604574  0.2413081555599537
  0.9808667320042437  0.6250771877116976  0.9916622538636698
  0.4847971757049185  0.1254028592959197  0.0145274086051604
  0.4860925254263771  0.6254541205886448  0.0134349107421502
  0.9842403531187932  0.1239527388333947  0.2643181950226474
  0.0154975451072574  0.8749437208442813  0.5171128972188269
  0.5154677394716968  0.3749349997168113  0.4836770287936413
  0.9822867901599454  0.8752280103476883  0.7338646285588476
  0.5071899110945002  0.3734602117801934  0.2691636511778201
  0.4847857322914398  0.3752290510161733  0.7619563536203257
  0.5139234555101726  0.8777439469829521  0.2667347365122670
  0.4872276091600869  0.8753917724778484  0.7621955832247176
  0.2608993430252022  0.1248052580494962  0.9796448683915574
  0.2596044441367082  0.1243179347532170  0.4804271859823686
  0.2686627202805319  0.6255138256403436  0.9907251821428806
  0.7734980480424799  0.6243448843457121  0.9855839937485699
  0.7692078953104751  0.6237589818627040  0.4889492645602169
  0.2345866442111259  0.1255575985100086  0.7605345129640021
  0.2340378575590051  0.6248303562016465  0.7595054896278576
  0.7644038668887098  0.1241591338735078  0.2588676972937483
  0.7312023125639420  0.6240161523943587  0.7703663442831754
  0.2438899542900494  0.3730398236200673  0.2324267313796363
  0.9912406568228868  0.0209313231837813  0.6243226130529385
  0.0067864030167190  0.5103004007110370  0.1246156074287715
  0.0109885787840025  0.5129872936242542  0.6258813493538194
  0.4783852626275653  0.9808361887604631  0.1240658811456669
  0.4868026066609736  0.9853587289111334  0.6225954062482660
  0.5136752232886386  0.4845186233481282  0.1265178350280617
  0.0141181568055852  0.9840769858778049  0.3730907463999750
  0.0130326905639378  0.9868169076107793  0.8765993902655878
  0.5187453177206569  0.0226140876901972  0.3752665958410414
  0.5174607997158041  0.0177562283304064  0.8749680914807292
  0.4842127429352476  0.5163366745491523  0.3790173239208488
  0.4852632210950617  0.5112499557317201  0.8751177753942485
  0.9927502141213093  0.2358407991152352  0.1240534719889615
  0.9895751388434990  0.2337110970478894  0.6231674698554222
  0.0103355377482030  0.7430554660308611  0.1240545263368158
  0.0065114290671963  0.7332756145286868  0.6265642292618009
  0.4886850461400185  0.2688497879997019  0.1256975179890874
  0.4799857952957833  0.2614239725052923  0.6225951132516038
  0.5191523948542832  0.2248636048828030  0.3750125237474799
  0.5135759227045150  0.2328187338897752  0.8744714712793862
  0.4926128516027496  0.7374567519637624  0.3778190982029910
  0.4848390779059492  0.7401424451534404  0.8762720009139910
  0.2592194740455882  0.0115929727171209  0.6217166793903013
  0.2445813768824467  0.5116500519763332  0.1237655867815446
  0.2434141136154335  0.5071358550523368  0.6245660303524094
  0.7697029076060699  0.0031636276531393  0.1247589486438047
  0.7552705068584069  0.0059233265280629  0.6250586264807660
  0.7425878611843784  0.5165079206434368  0.1274385657690245
  0.7317870304445766  0.5117650801719361  0.6259268031443165
  0.2296309288235419  0.9828567587285146  0.3718873114158125
  0.2329332649756814  0.9824528392114475  0.8749947028262275
  0.7653336292434572  0.4789903051848835  0.8765397451658641
  0.2628505437555326  0.2287065665141629  0.1239916412642131
  0.2684309257807213  0.2364393038921289  0.6217906025734640
  0.2404544705370413  0.7431621793904666  0.1235373439167922
  0.2404463551342015  0.7432124050403247  0.6246692620946842
  0.7566749565999690  0.2408059484607264  0.1250056941525236
  0.7585025631690243  0.2400283764564899  0.6243870225104978
  0.2255570188373988  0.2669770724095622  0.3735107263800438
  0.2344134911100317  0.2707806264888473  0.8732114930300021
  0.7590447979234797  0.7646149344632420  0.3775738655616479
  0.7677655452271345  0.7651325938572825  0.8762410449227099
  0.1239300275203069  0.0136611994459695  0.0105773570403392
  0.1239490514132446  0.0142397853192449  0.5083934330924020
  0.1255811986106068  0.5144611733378506  0.9937301402855858
  0.6215134680566724  0.0119285660492151  0.5134187667398487
  0.6259333958558302  0.5172368941428809  0.4848560285793485
  0.1245892711303554  0.0135815223669171  0.2360132076543037
  0.1227988285805160  0.9869125567252280  0.7371738006169192
  0.1236032018085467  0.4800123777708400  0.7535819905772976
  0.6237894794587869  0.0137928703533016  0.2287658530722546
  0.6228631622846779  0.9894805438396865  0.7365037618489527
  0.6272499661639057  0.4818482390288280  0.7693609182846873
  0.1252896390474310  0.2370783470888845  0.0100207438616721
  0.1255665914508008  0.2384086067342910  0.5131271820608410
  0.1257350572857217  0.7363284161807032  0.9903418125861311
  0.1265681410335587  0.7298213040161117  0.4977173958465283
  0.6245006624928844  0.2385705627705473  0.0111487204422145
  0.6223106992487586  0.2364194471999235  0.5145549379631430
  0.6274664997083939  0.7357590340996431  0.9790125664536156
  0.6240064711473600  0.7325627695699758  0.4867457106318798
  0.1256755314918888  0.2357053374266837  0.2338179615436795
  0.1249935517700887  0.7390834853643490  0.2533835567113155
  0.1245818503740692  0.7693280193019340  0.7552584050096288
  0.6227642210059444  0.2379932399250106  0.2349679089430799
  0.6282246624192981  0.7361961466553829  0.2663687575506354
  0.6260293266897229  0.7678211744060615  0.7733556139693216
  0.3770161370655806  0.9829231698181764  0.9790456735345208
  0.3784935677571546  0.4801093813564524  0.0121699012107388
  0.3755611486288988  0.4841944764982626  0.5162316257534136
  0.8751391328222901  0.9834228817550714  0.9851288810503865
  0.8743317872204853  0.4782721497672262  0.0133130237969759
  0.8761116683610982  0.4820620505618389  0.5228033779604027
  0.3781070957067267  0.4958889351594422  0.2373061676120230
  0.3765022679354315  0.5178385445516210  0.7377376499750113
  0.8750940272510773  0.9788431396867537  0.2641256781912422
  0.8748368309869610  0.4889234747931572  0.2349791010165881
  0.3766978142567159  0.7722950394344716  0.0151837373930383
  0.8764756370308734  0.7734298597765891  0.0157434599457084
  0.8743093250491075  0.7675881407024148  0.5134731180448373
  0.3738157680074830  0.2369805727696283  0.7634648999293595
  0.3758744716690237  0.7323221336187276  0.7352725925400452
  0.8745024827047150  0.2669862669279089  0.2558789131714617
  0.8741299701757314  0.2372779832806968  0.7547303533958301
  0.8748925028739499  0.7270903532178919  0.7406233957596448
  0.9882246564923557  0.1236332247963851  0.9833389317044604
  0.9911955489552807  0.1229652799866450  0.4824091297569028
  0.9788452827584692  0.6262018839982348  0.4929559819821278
  0.4862494455777809  0.1248811220099258  0.5153006875705757
  0.4845469586864581  0.6234395350991162  0.5118422802106197
  0.0146541181517622  0.1237479727678628  0.7628503879519075
  0.9869093292170645  0.6254181648154020  0.2570823137262649
  0.0210882085258238  0.6265872004626312  0.7621901120387135
  0.4940369344572661  0.1243836726411388  0.2321077204164015
  0.5082558690919753  0.1250315289454729  0.7332992921423134
  0.4945552015023366  0.6241995292890057  0.2398916709645814
  0.5180888177877844  0.6249869555032066  0.7480550746969820
  0.0183007825298147  0.3769100576897398  0.0164184370535480
  0.0148197164631843  0.3747828639146053  0.5175680142374917
  0.0169840506181424  0.8753001711447775  0.0117779902804020
  0.5154764130583701  0.3748155946776409  0.9871087336848768
  0.5141266764906217  0.8767354050509802  0.9846454149492389
  0.5191652408335431  0.8767285385501592  0.4839484648215452
  0.0102191246970715  0.3722808619294121  0.2318588267152750
  0.9814610108152197  0.3757998364898893  0.7315987440231543
  0.0164470609012624  0.8778923618326472  0.2370906551490436
  0.2703297546557700  0.6254265381108691  0.4947835450938942
  0.7651991681159773  0.1243993816998234  0.9941602061519723
  0.7568032662616713  0.1245222002839993  0.4925516351036859
  0.2500344025259935  0.1255686667070868  0.2704289528731506
  0.2609383623563243  0.6246990692710497  0.2566693435688895
  0.7340557485185785  0.1251531323597159  0.7547689050722420
  0.7662794058487867  0.6242074472445578  0.2683416145191660
  0.2358324874488483  0.3738809033397124  0.0157317315857055
  0.2353518811621438  0.3725394705911423  0.5138365057328342
  0.2364481287242429  0.8768521328414528  0.0112116043202333
  0.2306035636918742  0.8776217595717175  0.5118610704141651
  0.7348451310900095  0.3773524060933862  0.0163632119650832
  0.7318367528214338  0.3766930167153875  0.5184942652469278
  0.7359192286785277  0.8721916761242798  0.0109656450452204
  0.7311132826219983  0.8720597996630274  0.5120912090377858
  0.2669322353578156  0.3744749696833786  0.7344467922525382
  0.2341328989011737  0.8771978714903078  0.2351961304038085
  0.2610483438328475  0.8754714276936924  0.7350089424234409
  0.7395441442533429  0.3730919017264227  0.2318802486752843
  0.7650368525731749  0.3774612322107105  0.7353014176760402
  0.7331340908681044  0.8757411127836042  0.2374191779208676
  0.7636096864256273  0.8723719795276494  0.7409855247879120
 
  0.00000000E+00  0.00000000E+00  0.00000000E+00
  0.00000000E+00  0.00000000E+00  0.00000000E+00
  0.00000000E+00  0.00000000E+00  0.00000000E+00
  0.00000000E+00  0.00000000E+00  0.00000000E+00
  0.00000000E+00  0.00000000E+00  0.00000000E+00
  0.00000000E+00  0.00000000E+00  0.00000000E+00
  0.00000000E+00  0.00000000E+00  0.00000000E+00
  0.00000000E+00  0.00000000E+00  0.00000000E+00
  0.00000000E+00  0.00000000E+00  0.00000000E+00
  0.00000000E+00  0.00000000E+00  0.00000000E+00
  0.00000000E+00  0.00000000E+00  0.00000000E+00
  0.00000000E+00  0.00000000E+00  0.00000000E+00
  0.00000000E+00  0.00000000E+00  0.00000000E+00
  0.00000000E+00  0.00000000E+00  0.00000000E+00
  0.00000000E+00  0.00000000E+00  0.00000000E+00
  0.00000000E+00  0.00000000E+00  0.00000000E+00
  0.00000000E+00  0.00000000E+00  0.00000000E+00
  0.00000000E+00  0.00000000E+00  0.00000000E+00
  0.00000000E+00  0.00000000E+00  0.00000000E+00
  0.00000000E+00  0.00000000E+00  0.00000000E+00
  0.00000000E+00  0.00000000E+00  0.00000000E+00
  0.00000000E+00  0.00000000E+00  0.00000000E+00
  0.00000000E+00  0.00000000E+00  0.00000000E+00
  0.00000000E+00  0.00000000E+00  0.00000000E+00
  0.00000000E+00  0.00000000E+00  0.00000000E+00
  0.00000000E+00  0.00000000E+00  0.00000000E+00
  0.00000000E+00  0.00000000E+00  0.00000000E+00
  0.00000000E+00  0.00000000E+00  0.00000000E+00
  0.00000000E+00  0.00000000E+00  0.00000000E+00
  0.00000000E+00  0.00000000E+00  0.00000000E+00
  0.00000000E+00  0.00000000E+00  0.00000000E+00
  0.00000000E+00  0.00000000E+00  0.00000000E+00
  0.00000000E+00  0.00000000E+00  0.00000000E+00
  0.00000000E+00  0.00000000E+00  0.00000000E+00
  0.00000000E+00  0.00000000E+00  0.00000000E+00
  0.00000000E+00  0.00000000E+00  0.00000000E+00
  0.00000000E+00  0.00000000E+00  0.00000000E+00
  0.00000000E+00  0.00000000E+00  0.00000000E+00
  0.00000000E+00  0.00000000E+00  0.00000000E+00
  0.00000000E+00  0.00000000E+00  0.00000000E+00
  0.00000000E+00  0.00000000E+00  0.00000000E+00
  0.00000000E+00  0.00000000E+00  0.00000000E+00
  0.00000000E+00  0.00000000E+00  0.00000000E+00
  0.00000000E+00  0.00000000E+00  0.00000000E+00
  0.00000000E+00  0.00000000E+00  0.00000000E+00
  0.00000000E+00  0.00000000E+00  0.00000000E+00
  0.00000000E+00  0.00000000E+00  0.00000000E+00
  0.00000000E+00  0.00000000E+00  0.00000000E+00
  0.00000000E+00  0.00000000E+00  0.00000000E+00
  0.00000000E+00  0.00000000E+00  0.00000000E+00
  0.00000000E+00  0.00000000E+00  0.00000000E+00
  0.00000000E+00  0.00000000E+00  0.00000000E+00
  0.00000000E+00  0.00000000E+00  0.00000000E+00
  0.00000000E+00  0.00000000E+00  0.00000000E+00
  0.00000000E+00  0.00000000E+00  0.00000000E+00
  0.00000000E+00  0.00000000E+00  0.00000000E+00
  0.00000000E+00  0.00000000E+00  0.00000000E+00
  0.00000000E+00  0.00000000E+00  0.00000000E+00
  0.00000000E+00  0.00000000E+00  0.00000000E+00
  0.00000000E+00  0.00000000E+00  0.00000000E+00
  0.00000000E+00  0.00000000E+00  0.00000000E+00
  0.00000000E+00  0.00000000E+00  0.00000000E+00
  0.00000000E+00  0.00000000E+00  0.00000000E+00
  0.00000000E+00  0.00000000E+00  0.00000000E+00
  0.00000000E+00  0.00000000E+00  0.00000000E+00
  0.00000000E+00  0.00000000E+00  0.00000000E+00
  0.00000000E+00  0.00000000E+00  0.00000000E+00
  0.00000000E+00  0.00000000E+00  0.00000000E+00
  0.00000000E+00  0.00000000E+00  0.00000000E+00
  0.00000000E+00  0.00000000E+00  0.00000000E+00
  0.00000000E+00  0.00000000E+00  0.00000000E+00
  0.00000000E+00  0.00000000E+00  0.00000000E+00
  0.00000000E+00  0.00000000E+00  0.00000000E+00
  0.00000000E+00  0.00000000E+00  0.00000000E+00
  0.00000000E+00  0.00000000E+00  0.00000000E+00
  0.00000000E+00  0.00000000E+00  0.00000000E+00
  0.00000000E+00  0.00000000E+00  0.00000000E+00
  0.00000000E+00  0.00000000E+00  0.00000000E+00
  0.00000000E+00  0.00000000E+00  0.00000000E+00
  0.00000000E+00  0.00000000E+00  0.00000000E+00
  0.00000000E+00  0.00000000E+00  0.00000000E+00
  0.00000000E+00  0.00000000E+00  0.00000000E+00
  0.00000000E+00  0.00000000E+00  0.00000000E+00
  0.00000000E+00  0.00000000E+00  0.00000000E+00
  0.00000000E+00  0.00000000E+00  0.00000000E+00
  0.00000000E+00  0.00000000E+00  0.00000000E+00
  0.00000000E+00  0.00000000E+00  0.00000000E+00
  0.00000000E+00  0.00000000E+00  0.00000000E+00
  0.00000000E+00  0.00000000E+00  0.00000000E+00
  0.00000000E+00  0.00000000E+00  0.00000000E+00
  0.00000000E+00  0.00000000E+00  0.00000000E+00
  0.00000000E+00  0.00000000E+00  0.00000000E+00
  0.00000000E+00  0.00000000E+00  0.00000000E+00
  0.00000000E+00  0.00000000E+00  0.00000000E+00
  0.00000000E+00  0.00000000E+00  0.00000000E+00
  0.00000000E+00  0.00000000E+00  0.00000000E+00
  0.00000000E+00  0.00000000E+00  0.00000000E+00
  0.00000000E+00  0.00000000E+00  0.00000000E+00
  0.00000000E+00  0.00000000E+00  0.00000000E+00
  0.00000000E+00  0.00000000E+00  0.00000000E+00
  0.00000000E+00  0.00000000E+00  0.00000000E+00
  0.00000000E+00  0.00000000E+00  0.00000000E+00
  0.00000000E+00  0.00000000E+00  0.00000000E+00
  0.00000000E+00  0.00000000E+00  0.00000000E+00
  0.00000000E+00  0.00000000E+00  0.00000000E+00
  0.00000000E+00  0.00000000E+00  0.00000000E+00
  0.00000000E+00  0.00000000E+00  0.00000000E+00
  0.00000000E+00  0.00000000E+00  0.00000000E+00
  0.00000000E+00  0.00000000E+00  0.00000000E+00
  0.00000000E+00  0.00000000E+00  0.00000000E+00
  0.00000000E+00  0.00000000E+00  0.00000000E+00
  0.00000000E+00  0.00000000E+00  0.00000000E+00
  0.00000000E+00  0.00000000E+00  0.00000000E+00
  0.00000000E+00  0.00000000E+00  0.00000000E+00
  0.00000000E+00  0.00000000E+00  0.00000000E+00
  0.00000000E+00  0.00000000E+00  0.00000000E+00
  0.00000000E+00  0.00000000E+00  0.00000000E+00
  0.00000000E+00  0.00000000E+00  0.00000000E+00
  0.00000000E+00  0.00000000E+00  0.00000000E+00
  0.00000000E+00  0.00000000E+00  0.00000000E+00
  0.00000000E+00  0.00000000E+00  0.00000000E+00
  0.00000000E+00  0.00000000E+00  0.00000000E+00
  0.00000000E+00  0.00000000E+00  0.00000000E+00
  0.00000000E+00  0.00000000E+00  0.00000000E+00
  0.00000000E+00  0.00000000E+00  0.00000000E+00
  0.00000000E+00  0.00000000E+00  0.00000000E+00
  0.00000000E+00  0.00000000E+00  0.00000000E+00
  0.00000000E+00  0.00000000E+00  0.00000000E+00
  0.00000000E+00  0.00000000E+00  0.00000000E+00
  0.00000000E+00  0.00000000E+00  0.00000000E+00
  0.00000000E+00  0.00000000E+00  0.00000000E+00
  0.00000000E+00  0.00000000E+00  0.00000000E+00
  0.00000000E+00  0.00000000E+00  0.00000000E+00
  0.00000000E+00  0.00000000E+00  0.00000000E+00
  0.00000000E+00  0.00000000E+00  0.00000000E+00
  0.00000000E+00  0.00000000E+00  0.00000000E+00
  0.00000000E+00  0.00000000E+00  0.00000000E+00
  0.00000000E+00  0.00000000E+00  0.00000000E+00
  0.00000000E+00  0.00000000E+00  0.00000000E+00
  0.00000000E+00  0.00000000E+00  0.00000000E+00
  0.00000000E+00  0.00000000E+00  0.00000000E+00
  0.00000000E+00  0.00000000E+00  0.00000000E+00
  0.00000000E+00  0.00000000E+00  0.00000000E+00
  0.00000000E+00  0.00000000E+00  0.00000000E+00
  0.00000000E+00  0.00000000E+00  0.00000000E+00
  0.00000000E+00  0.00000000E+00  0.00000000E+00
  0.00000000E+00  0.00000000E+00  0.00000000E+00
  0.00000000E+00  0.00000000E+00  0.00000000E+00
  0.00000000E+00  0.00000000E+00  0.00000000E+00
  0.00000000E+00  0.00000000E+00  0.00000000E+00
  0.00000000E+00  0.00000000E+00  0.00000000E+00
  0.00000000E+00  0.00000000E+00  0.00000000E+00
  0.00000000E+00  0.00000000E+00  0.00000000E+00
  0.00000000E+00  0.00000000E+00  0.00000000E+00
  0.00000000E+00  0.00000000E+00  0.00000000E+00
  0.00000000E+00  0.00000000E+00  0.00000000E+00
  0.00000000E+00  0.00000000E+00  0.00000000E+00
  0.00000000E+00  0.00000000E+00  0.00000000E+00
  0.00000000E+00  0.00000000E+00  0.00000000E+00
  0.00000000E+00  0.00000000E+00  0.00000000E+00
  0.00000000E+00  0.00000000E+00  0.00000000E+00
  0.00000000E+00  0.00000000E+00  0.00000000E+00
  0.00000000E+00  0.00000000E+00  0.00000000E+00
  0.00000000E+00  0.00000000E+00  0.00000000E+00
  0.00000000E+00  0.00000000E+00  0.00000000E+00
  0.00000000E+00  0.00000000E+00  0.00000000E+00
  0.00000000E+00  0.00000000E+00  0.00000000E+00
  0.00000000E+00  0.00000000E+00  0.00000000E+00
  0.00000000E+00  0.00000000E+00  0.00000000E+00
  0.00000000E+00  0.00000000E+00  0.00000000E+00
  0.00000000E+00  0.00000000E+00  0.00000000E+00
  0.00000000E+00  0.00000000E+00  0.00000000E+00
  0.00000000E+00  0.00000000E+00  0.00000000E+00
  0.00000000E+00  0.00000000E+00  0.00000000E+00
  0.00000000E+00  0.00000000E+00  0.00000000E+00
  0.00000000E+00  0.00000000E+00  0.00000000E+00
  0.00000000E+00  0.00000000E+00  0.00000000E+00
  0.00000000E+00  0.00000000E+00  0.00000000E+00
  0.00000000E+00  0.00000000E+00  0.00000000E+00
  0.00000000E+00  0.00000000E+00  0.00000000E+00
  0.00000000E+00  0.00000000E+00  0.00000000E+00
  0.00000000E+00  0.00000000E+00  0.00000000E+00
  0.00000000E+00  0.00000000E+00  0.00000000E+00
  0.00000000E+00  0.00000000E+00  0.00000000E+00
  0.00000000E+00  0.00000000E+00  0.00000000E+00
  0.00000000E+00  0.00000000E+00  0.00000000E+00
  0.00000000E+00  0.00000000E+00  0.00000000E+00
  0.00000000E+00  0.00000000E+00  0.00000000E+00
  0.00000000E+00  0.00000000E+00  0.00000000E+00
  0.00000000E+00  0.00000000E+00  0.00000000E+00
  0.00000000E+00  0.00000000E+00  0.00000000E+00
  0.00000000E+00  0.00000000E+00  0.00000000E+00
  0.00000000E+00  0.00000000E+00  0.00000000E+00
  0.00000000E+00  0.00000000E+00  0.00000000E+00
  0.00000000E+00  0.00000000E+00  0.00000000E+00
  0.00000000E+00  0.00000000E+00  0.00000000E+00
  0.00000000E+00  0.00000000E+00  0.00000000E+00
  0.00000000E+00  0.00000000E+00  0.00000000E+00
  0.00000000E+00  0.00000000E+00  0.00000000E+00
  0.00000000E+00  0.00000000E+00  0.00000000E+00
  0.00000000E+00  0.00000000E+00  0.00000000E+00
  0.00000000E+00  0.00000000E+00  0.00000000E+00
  0.00000000E+00  0.00000000E+00  0.00000000E+00
  0.00000000E+00  0.00000000E+00  0.00000000E+00
  0.00000000E+00  0.00000000E+00  0.00000000E+00
  0.00000000E+00  0.00000000E+00  0.00000000E+00
  0.00000000E+00  0.00000000E+00  0.00000000E+00
  0.00000000E+00  0.00000000E+00  0.00000000E+00
  0.00000000E+00  0.00000000E+00  0.00000000E+00
  0.00000000E+00  0.00000000E+00  0.00000000E+00
  0.00000000E+00  0.00000000E+00  0.00000000E+00
  0.00000000E+00  0.00000000E+00  0.00000000E+00
  0.00000000E+00  0.00000000E+00  0.00000000E+00
  0.00000000E+00  0.00000000E+00  0.00000000E+00
  0.00000000E+00  0.00000000E+00  0.00000000E+00
  0.00000000E+00  0.00000000E+00  0.00000000E+00
  0.00000000E+00  0.00000000E+00  0.00000000E+00
  0.00000000E+00  0.00000000E+00  0.00000000E+00
  0.00000000E+00  0.00000000E+00  0.00000000E+00
  0.00000000E+00  0.00000000E+00  0.00000000E+00
  0.00000000E+00  0.00000000E+00  0.00000000E+00
  0.00000000E+00  0.00000000E+00  0.00000000E+00
  0.00000000E+00  0.00000000E+00  0.00000000E+00
  0.00000000E+00  0.00000000E+00  0.00000000E+00
  0.00000000E+00  0.00000000E+00  0.00000000E+00
  0.00000000E+00  0.00000000E+00  0.00000000E+00
  0.00000000E+00  0.00000000E+00  0.00000000E+00
  0.00000000E+00  0.00000000E+00  0.00000000E+00
  0.00000000E+00  0.00000000E+00  0.00000000E+00
  0.00000000E+00  0.00000000E+00  0.00000000E+00
  0.00000000E+00  0.00000000E+00  0.00000000E+00
  0.00000000E+00  0.00000000E+00  0.00000000E+00
  0.00000000E+00  0.00000000E+00  0.00000000E+00
  0.00000000E+00  0.00000000E+00  0.00000000E+00
  0.00000000E+00  0.00000000E+00  0.00000000E+00
  0.00000000E+00  0.00000000E+00  0.00000000E+00
  0.00000000E+00  0.00000000E+00  0.00000000E+00
  0.00000000E+00  0.00000000E+00  0.00000000E+00
  0.00000000E+00  0.00000000E+00  0.00000000E+00
  0.00000000E+00  0.00000000E+00  0.00000000E+00
  0.00000000E+00  0.00000000E+00  0.00000000E+00
  0.00000000E+00  0.00000000E+00  0.00000000E+00
  0.00000000E+00  0.00000000E+00  0.00000000E+00
  0.00000000E+00  0.00000000E+00  0.00000000E+00
  0.00000000E+00  0.00000000E+00  0.00000000E+00
  0.00000000E+00  0.00000000E+00  0.00000000E+00
  0.00000000E+00  0.00000000E+00  0.00000000E+00
  0.00000000E+00  0.00000000E+00  0.00000000E+00
  0.00000000E+00  0.00000000E+00  0.00000000E+00
  0.00000000E+00  0.00000000E+00  0.00000000E+00
  0.00000000E+00  0.00000000E+00  0.00000000E+00
  0.00000000E+00  0.00000000E+00  0.00000000E+00
  0.00000000E+00  0.00000000E+00  0.00000000E+00
  0.00000000E+00  0.00000000E+00  0.00000000E+00
  0.00000000E+00  0.00000000E+00  0.00000000E+00
  0.00000000E+00  0.00000000E+00  0.00000000E+00
