config 11                               
   1.00000000000000     
    15.4263309999999993    0.0000000000000000    0.0000000000000000
     0.0000000000000000   15.4263309999999993    0.0000000000000000
     0.0000000000000000    0.0000000000000000   15.4263309999999993
   Li   Ti   O    F 
     1    64    64   128
Direct
  0.1365179784311861  0.5897080277829511  0.5964417690647377
  0.9948692468205032  0.9959231801394057  0.9946946231578281
  0.9998917441908799  0.9928750367125849  0.4937145338278908
  0.0054024635831045  0.4952695815256086  0.9969595726927856
  0.9918000540277323  0.5026198549591746  0.5068913168934610
  0.4940751797148891  0.9945792853569356  0.9995847554955276
  0.5011866307285717  0.0040578119844306  0.5004537905105789
  0.5035478781039466  0.4952018913514583  0.9953414625213741
  0.4931446248224359  0.4973865706928967  0.4953624833766633
  0.0065522643909121  0.0031655888161971  0.2560445151317130
  0.0007743155434999  0.0080018014277027  0.7567572145924235
  0.9938944330915886  0.4941727819845313  0.2510145790965533
  0.9930477224859039  0.5005993137935812  0.7410289624726389
  0.5066636631743873  0.0080172346192530  0.2511213405405361
  0.4920811515310652  0.0037213442946980  0.7512119682813433
  0.4929153143471349  0.4966613039724842  0.2567181707568165
  0.5007372627102035  0.5042000863172161  0.7578102729433721
  0.9950579756545183  0.2573453614030629  0.0012892203330103
  0.9985965839831372  0.2491570630623131  0.4916408239785050
  0.9976096851329569  0.7582775579570193  0.0062237599382167
  0.9967228116481240  0.7576454070339099  0.5060553898979908
  0.4946800582948447  0.2574792613963113  0.0003592319688347
  0.5079942574711382  0.2418003216011972  0.4989789333650724
  0.5073351215258172  0.7563854872017253  0.9995571928106856
  0.5058871012401823  0.7518810516210283  0.5098529981033345
  0.0001381145689323  0.2589862888700859  0.2549437419599499
  0.0056907202968681  0.2425090299496057  0.7471902996084749
  0.0063218771699031  0.7486703922554113  0.2429050197259625
  0.9919488555324913  0.7513793444934200  0.7437653785628444
  0.5081210583908990  0.2418505495582552  0.2518162602934676
  0.5060638704574768  0.2416231881965352  0.7486633375612148
  0.5067625112258005  0.7513657299255582  0.2514395039146458
  0.5012081820171974  0.7422101225932621  0.7438447213750320
  0.2561597516816920  0.9990259115923010  0.0064777074688322
  0.2498026306738667  0.9948408441268654  0.5076131414768901
  0.2434675827190748  0.5074026677881359  0.9971952893708245
  0.2571912126149409  0.4915035871582231  0.5053904024385523
  0.7572694890857546  0.0007160156752026  0.9942491277626263
  0.7505428721593118  0.0067303711632980  0.4941720934812091
  0.7418940127228577  0.5004172537618586  0.0044883460992726
  0.7535544926192098  0.4979621471010214  0.5058725955957751
  0.2449724226628201  0.0029426068527140  0.2443485970871164
  0.2571818648378059  0.9981734550395827  0.7452558753899234
  0.2551683211104316  0.4923497150843117  0.2512488796884422
  0.2475099330483234  0.5065810974576533  0.7419796045401332
  0.7453596498746338  0.0005161076064450  0.2556913332643891
  0.7486808819627371  0.0064161862394086  0.7559604095532343
  0.7557134356064589  0.4993355830555285  0.2424922443099596
  0.7567255851172185  0.4981715035348261  0.7423683525612955
  0.2571611620847038  0.2510094622953186  0.0058360111156985
  0.2528166645244567  0.2548021409730540  0.5064078322333101
  0.2515519060844022  0.7427269911517358  0.9950487788208175
  0.2511381422324799  0.7569807775407473  0.4934785951251818
  0.7571605359793954  0.2505410911640770  0.0070593056182143
  0.7420647237125377  0.2430039289076413  0.4978888968127543
  0.7416161859979690  0.7501312957338722  0.9947770292596647
  0.7409875186529856  0.7530589527501760  0.4947676914247690
  0.2512847036607152  0.2576575095005359  0.2437710998216340
  0.2439442669283197  0.2508159904543071  0.7442155582009850
  0.2435762387841286  0.7483939451728205  0.2562529988047369
  0.2473839379564560  0.7434098604412214  0.7588181662434078
  0.7426284490732602  0.2508612247635872  0.2425878597741189
  0.7439567782546465  0.2419003314290658  0.7503265456286110
  0.7452858848763201  0.7506847797863182  0.2567568932435847
  0.7563688446836608  0.7513334499882955  0.7573127549410378
  0.0198279196583310  0.5163046057356492  0.6241842945533977
  0.9937746228808183  0.0038308238451587  0.3764392335746101
  0.9979542612961777  0.0013606700091100  0.8727037994347164
  0.4971886054778563  0.4951267202828039  0.3755687569962500
  0.4911203600366184  0.4990505978230543  0.8740990545127194
  0.9954599165389061  0.7445749822777700  0.1258827133002962
  0.0010595979714850  0.7398912404453550  0.6244899640077162
  0.4964984370735069  0.7569146246850054  0.6256203870202397
  0.9973184137500044  0.2510718794396222  0.3767352202405768
  0.2532538121904711  0.0061026513953427  0.1256262117381280
  0.2504451711409206  0.0059073959062669  0.6264601419938473
  0.2293942260344841  0.5029497724379276  0.6255028531537017
  0.7495281113254771  0.4935478184872744  0.1254713659032126
  0.7419509434876466  0.4946951315682265  0.6241341296235989
  0.7546336325137569  0.9979690379205853  0.3750073941729693
  0.7483990312192607  0.9963974329720647  0.8737201154375849
  0.2472314876373928  0.2486470671454847  0.1258193881924852
  0.2548954112819035  0.2463655591923860  0.6252869381415056
  0.7448371489050107  0.2577329818896808  0.1259307315365107
  0.2512185604941628  0.7469729210508427  0.3755156822625205
  0.2470012217127599  0.7546289162908741  0.8761901163012141
  0.7485725533039685  0.7534614474920763  0.3743979146090040
  0.7441557271995073  0.7544291011627474  0.8754337346874206
  0.1244849411344214  0.5019289106570878  0.9917943597709037
  0.6258951767804155  0.5046496221561122  0.9957697533105621
  0.1250937356566886  0.0039714342885209  0.2529711370070298
  0.6259982567131547  0.0014076014502806  0.2490132577507279
  0.6263468010544314  0.2576747441332903  0.4981016316865048
  0.6249695944077548  0.7440156743974691  0.0082550102327861
  0.6239730384526047  0.7608223700529475  0.5006877182706654
  0.1246647428541682  0.2489997842398810  0.7472614830138230
  0.1253563802017567  0.7515666717669408  0.2489665588626390
  0.6261584198645408  0.2449777992635667  0.2593639155628008
  0.6253669914250989  0.2496800690245291  0.7438692170714215
  0.6229076458600016  0.7547633799338427  0.2473004515612283
  0.3756516613949566  0.0015490968064582  0.9930690324881141
  0.3753341615937621  0.5034733158224992  0.5083686559062061
  0.8733869424429752  0.0048689835726517  0.0013169163779180
  0.8754086409615720  0.4984513376711968  0.5064784791205585
  0.3748443626516240  0.9938151887247393  0.7578368692314388
  0.3738817432909482  0.4958601029209002  0.2476758217362490
  0.8760178156749958  0.4981749802465120  0.2513354114322391
  0.8760751145343256  0.5063468376141083  0.7386444952467387
  0.3754243565892140  0.2460662640756333  0.0013308290841566
  0.8746086836546535  0.2456767083685958  0.0034517271775465
  0.8746243473510356  0.7457794809141398  0.7521638853102726
  0.5084086371090862  0.1265694303037685  0.4955127215556268
  0.9929567249420770  0.1267000743554127  0.7449239309062951
  0.4949751395315281  0.1255303133303709  0.2614462249839904
  0.4980232445733337  0.1230624642432192  0.7444763917398123
  0.4998604093936623  0.6249764526530951  0.7471328761514011
  0.9981655224040563  0.3756739523270635  0.0051810131149898
  0.9995988605560217  0.8750640712363212  0.0025927778020915
  0.0020801205423565  0.8749322924775431  0.5020717355049804
  0.5001308004509517  0.3740888293189792  0.0050840095626828
  0.5025674252910510  0.8749081392741284  0.0013209829717535
  0.0082582094948125  0.3747816961991822  0.2455738195247631
  0.2537577662717544  0.6251797223913779  0.0000318632189997
  0.7460899807907082  0.1250144433498164  0.5024809148640544
  0.2449440830488276  0.6247542625686819  0.7514284086533106
  0.7548875247574925  0.1248085531655380  0.7464528757901865
  0.2467801479701238  0.3731171350619520  0.4973455534995411
  0.2469023266129390  0.8751570775326067  0.5026478808410954
  0.2409436366438280  0.3750743967528820  0.2553652668634313
  0.0018761790489310  0.0037376581594010  0.1266540849835116
  0.0074981650128421  0.0001927458618695  0.6237996601058042
  0.0021999138959131  0.5104081573562965  0.1249194384728442
  0.4945555432998953  0.0055864107732305  0.1259742894400518
  0.4976950211061810  0.9847210071066571  0.6285951845938171
  0.5038087313071752  0.5066926891175958  0.1271113630804337
  0.5108628362416113  0.4988035194374859  0.6246519666546120
  0.0019675331702373  0.4925615886296701  0.3774749407448275
  0.9915745457871676  0.4951095640776837  0.8714629108601064
  0.5024624108641642  0.9871974076180586  0.3720854901087964
  0.5140049707638593  0.0042406165282950  0.8755111610076981
  0.0067649785241732  0.2449416833546455  0.1271424034020744
  0.9968623016732003  0.2568690554990080  0.6214682935916757
  0.5059292269553846  0.2404349951747497  0.1265295117347027
  0.4907088584633393  0.2514352588340273  0.6232648289793475
  0.4914567854199714  0.7457371189426407  0.1266883211434661
  0.9979402718385787  0.2535218607311192  0.8738279043734190
  0.9970603932293600  0.7533648305181614  0.3757037982682521
  0.0047327810581758  0.7535909166968202  0.8738326567016287
  0.4948266496357618  0.2652794569377734  0.3750569822988482
  0.5034383293587802  0.2488547244865847  0.8741279035075592
  0.4965830238336031  0.7500778549791886  0.3755603874816540
  0.5041738584275544  0.7464592380807997  0.8746872046329575
  0.2427626596263806  0.4959903805882344  0.1245939869169756
  0.7494879369410573  0.0061283276547079  0.1257782166002718
  0.7466438657679663  0.9976540770892246  0.6240758322016382
  0.2512690991171510  0.9986025441699634  0.3755649033027966
  0.2427945973742268  0.9911372883949277  0.8752912816797643
  0.2497490827464652  0.5107245127188821  0.3765266700571997
  0.2626514925648576  0.4959741953544443  0.8730101392254078
  0.7500618057022959  0.5072390705781994  0.3756776704313808
  0.7567622278105832  0.5044000348417385  0.8731900161711130
  0.2558073358725630  0.7521749531039569  0.1255304692119210
  0.2478273531618695  0.7478698701466299  0.6261768055799717
  0.7556469880192401  0.2602779777470579  0.6233891710101660
  0.7568057943205200  0.7456807765252264  0.1258766520226883
  0.7505860428927865  0.7461323304437060  0.6246513852354095
  0.2491809645458599  0.2466289048200589  0.3750337470397334
  0.2491059978840922  0.2550574232294950  0.8750870806823641
  0.7617285678647328  0.2447303637654616  0.3736398283646550
  0.7492642112571998  0.2470023154152483  0.8757680332788931
  0.1258014417086151  1.0000263503936511  0.0012001780313139
  0.1243319031154039  0.0106822406301821  0.4957570774048036
  0.1239124809989569  0.5121002918501543  0.4931195763659996
  0.6254256323390243  0.9989655887131584  0.0070639378632784
  0.6293119026154937  0.9811436182900161  0.5002936465435769
  0.6254211252760192  0.4953595040204363  0.4949941939015004
  0.1263601959388413  0.0041189814116026  0.7505874170843096
  0.1242544499053298  0.5084273003385344  0.2515899552612732
  0.1236836768302098  0.4948418626340584  0.7662105169602631
  0.6240767159755066  0.9975444877808639  0.7444955675581583
  0.6254757789060847  0.4984331231739225  0.2524658700436436
  0.6267789160471586  0.4951377368889294  0.7586149388615466
  0.1249874283382351  0.2525330072023647  0.9961095155651875
  0.1232761692307044  0.2420478585068587  0.5021521439011059
  0.1250648798139042  0.7468443407945531  0.0053175065298017
  0.1233598743723780  0.7417618798626094  0.5003406535076220
  0.6261180605431022  0.2523132416848010  0.9965928241928136
  0.1246365624710047  0.2363270325093925  0.2547438588736721
  0.1228625847479043  0.7528130556534288  0.7481544321450793
  0.6262622208664571  0.7516197703187916  0.7450780991646195
  0.3721135852136192  0.0049954689708464  0.4982657867021927
  0.3730495970602472  0.4971804017081052  0.0094626682424800
  0.8756636181642751  0.0025372584496116  0.5118125016125693
  0.8749992973849121  0.5005500140443782  0.0010321026073696
  0.3763408986715659  0.9965099571707073  0.2538411090364424
  0.3738867661562961  0.4985094433064751  0.7351538358762855
  0.8749664034426389  0.9988048259924718  0.2440726096445752
  0.8746465127891606  0.9909007893179809  0.7409529085167217
  0.3773788300144514  0.2483819486471873  0.4940104265027092
  0.3764272612891904  0.7551562069889004  0.9968894476506748
  0.3755335164386180  0.7404491537261149  0.5008175780832790
  0.8752011142970044  0.2565757580597794  0.5028367442465234
  0.8723634724862945  0.7521464738390142  0.9944393166081846
  0.8724245288436717  0.7452839021200873  0.5013058602908383
  0.3777604753148055  0.2588715223203691  0.2486748175476594
  0.3755462248106889  0.2516450020840793  0.7556130631189745
  0.3767384615037991  0.7474610158879849  0.2514363831531346
  0.3741193378044131  0.7545362105158918  0.7534662923556557
  0.8750279244645770  0.2574234256164072  0.2450027242581720
  0.8746360506018035  0.2576167557999360  0.7500982467210169
  0.8737791010535920  0.7458718553541910  0.2529314904857212
  0.0062484306082124  0.1273941746090297  0.9998250266286731
  0.9929687505925406  0.1266452807918328  0.5071864391645724
  0.9958340279656888  0.6255045774952729  0.9919850018922998
  0.9978138523437071  0.6263771620241058  0.4882156990582655
  0.5065034600896708  0.1247088791407121  0.9990494323726914
  0.4913087287429487  0.6267179868999860  0.0007910532690811
  0.5076577688689087  0.6253763635043765  0.5006342737354859
  0.9910462984497310  0.1282894869463751  0.2488360833319853
  0.9996562818470964  0.6235395654344841  0.2604070904227009
  0.0104624484827031  0.6252221795648828  0.7606483859574821
  0.5025224084043907  0.6254211526708309  0.2534957844648044
  0.0093891354512581  0.3756916781819973  0.5038660067142845
  0.4956294142490180  0.3733652730135987  0.5063906458991961
  0.4851120638677085  0.8739259770864477  0.4938906741319294
  0.9987975352982451  0.3763420794048345  0.7436596961602940
  0.9956913300609792  0.8759039873569946  0.2498684765927517
  0.0016108182125638  0.8759070241591492  0.7443440004458860
  0.5049877479130103  0.3724279652682735  0.2395222549298296
  0.4977285846029328  0.3735629999048981  0.7469402365885883
  0.4954226152899402  0.8751164996236227  0.2438012566525286
  0.5038040316797264  0.8733603235437345  0.7618230969548183
  0.2439732878821511  0.1250815135052247  0.9905744004973024
  0.2508825001601444  0.1252719695641998  0.4948228973907415
  0.2411023124770658  0.6260799844330823  0.5110407121780227
  0.7405916379095998  0.1262842936232492  0.9999033518823108
  0.7586680897256263  0.6254877821781503  0.0002405430973827
  0.7455214226340278  0.6254960633178392  0.5009645457168385
  0.2604738266655046  0.1271378303092406  0.2561150999560379
  0.2541635895614374  0.1247701720023756  0.7614842666327006
  0.2512666037752148  0.6237126194471621  0.2427905260466240
  0.7604103249600541  0.1264594139742313  0.2491297563490893
  0.7452340736358015  0.6251415707690526  0.2485981791351515
  0.7414876696495645  0.6245742962954327  0.7492841896401882
  0.2508168037969518  0.3763135241703651  0.9994017929474260
  0.2472447008581034  0.8737387881139960  0.0068543323227416
  0.7517299817172451  0.3752067736591712  0.9888178419649686
  0.7538984828788827  0.3741246158943103  0.4887332323722616
  0.7488014133794106  0.8749227370826540  0.0105720581515153
  0.7632374353537166  0.8754251599952252  0.5053573190325733
  0.2523258094710453  0.3764463755554224  0.7505434989625904
  0.2538325272714502  0.8754870194666625  0.2492068738184201
  0.2440936710663929  0.8731698031930942  0.7435378341696134
  0.7478848020139405  0.3748324227312763  0.2638522997862379
  0.7527977359876908  0.3744480177974019  0.7569873173668052
  0.7554792330558128  0.8750540711961595  0.2406778109532759
  0.7488749385089288  0.8748815147932190  0.7422471379946943
 
  0.00000000E+00  0.00000000E+00  0.00000000E+00
  0.00000000E+00  0.00000000E+00  0.00000000E+00
  0.00000000E+00  0.00000000E+00  0.00000000E+00
  0.00000000E+00  0.00000000E+00  0.00000000E+00
  0.00000000E+00  0.00000000E+00  0.00000000E+00
  0.00000000E+00  0.00000000E+00  0.00000000E+00
  0.00000000E+00  0.00000000E+00  0.00000000E+00
  0.00000000E+00  0.00000000E+00  0.00000000E+00
  0.00000000E+00  0.00000000E+00  0.00000000E+00
  0.00000000E+00  0.00000000E+00  0.00000000E+00
  0.00000000E+00  0.00000000E+00  0.00000000E+00
  0.00000000E+00  0.00000000E+00  0.00000000E+00
  0.00000000E+00  0.00000000E+00  0.00000000E+00
  0.00000000E+00  0.00000000E+00  0.00000000E+00
  0.00000000E+00  0.00000000E+00  0.00000000E+00
  0.00000000E+00  0.00000000E+00  0.00000000E+00
  0.00000000E+00  0.00000000E+00  0.00000000E+00
  0.00000000E+00  0.00000000E+00  0.00000000E+00
  0.00000000E+00  0.00000000E+00  0.00000000E+00
  0.00000000E+00  0.00000000E+00  0.00000000E+00
  0.00000000E+00  0.00000000E+00  0.00000000E+00
  0.00000000E+00  0.00000000E+00  0.00000000E+00
  0.00000000E+00  0.00000000E+00  0.00000000E+00
  0.00000000E+00  0.00000000E+00  0.00000000E+00
  0.00000000E+00  0.00000000E+00  0.00000000E+00
  0.00000000E+00  0.00000000E+00  0.00000000E+00
  0.00000000E+00  0.00000000E+00  0.00000000E+00
  0.00000000E+00  0.00000000E+00  0.00000000E+00
  0.00000000E+00  0.00000000E+00  0.00000000E+00
  0.00000000E+00  0.00000000E+00  0.00000000E+00
  0.00000000E+00  0.00000000E+00  0.00000000E+00
  0.00000000E+00  0.00000000E+00  0.00000000E+00
  0.00000000E+00  0.00000000E+00  0.00000000E+00
  0.00000000E+00  0.00000000E+00  0.00000000E+00
  0.00000000E+00  0.00000000E+00  0.00000000E+00
  0.00000000E+00  0.00000000E+00  0.00000000E+00
  0.00000000E+00  0.00000000E+00  0.00000000E+00
  0.00000000E+00  0.00000000E+00  0.00000000E+00
  0.00000000E+00  0.00000000E+00  0.00000000E+00
  0.00000000E+00  0.00000000E+00  0.00000000E+00
  0.00000000E+00  0.00000000E+00  0.00000000E+00
  0.00000000E+00  0.00000000E+00  0.00000000E+00
  0.00000000E+00  0.00000000E+00  0.00000000E+00
  0.00000000E+00  0.00000000E+00  0.00000000E+00
  0.00000000E+00  0.00000000E+00  0.00000000E+00
  0.00000000E+00  0.00000000E+00  0.00000000E+00
  0.00000000E+00  0.00000000E+00  0.00000000E+00
  0.00000000E+00  0.00000000E+00  0.00000000E+00
  0.00000000E+00  0.00000000E+00  0.00000000E+00
  0.00000000E+00  0.00000000E+00  0.00000000E+00
  0.00000000E+00  0.00000000E+00  0.00000000E+00
  0.00000000E+00  0.00000000E+00  0.00000000E+00
  0.00000000E+00  0.00000000E+00  0.00000000E+00
  0.00000000E+00  0.00000000E+00  0.00000000E+00
  0.00000000E+00  0.00000000E+00  0.00000000E+00
  0.00000000E+00  0.00000000E+00  0.00000000E+00
  0.00000000E+00  0.00000000E+00  0.00000000E+00
  0.00000000E+00  0.00000000E+00  0.00000000E+00
  0.00000000E+00  0.00000000E+00  0.00000000E+00
  0.00000000E+00  0.00000000E+00  0.00000000E+00
  0.00000000E+00  0.00000000E+00  0.00000000E+00
  0.00000000E+00  0.00000000E+00  0.00000000E+00
  0.00000000E+00  0.00000000E+00  0.00000000E+00
  0.00000000E+00  0.00000000E+00  0.00000000E+00
  0.00000000E+00  0.00000000E+00  0.00000000E+00
  0.00000000E+00  0.00000000E+00  0.00000000E+00
  0.00000000E+00  0.00000000E+00  0.00000000E+00
  0.00000000E+00  0.00000000E+00  0.00000000E+00
  0.00000000E+00  0.00000000E+00  0.00000000E+00
  0.00000000E+00  0.00000000E+00  0.00000000E+00
  0.00000000E+00  0.00000000E+00  0.00000000E+00
  0.00000000E+00  0.00000000E+00  0.00000000E+00
  0.00000000E+00  0.00000000E+00  0.00000000E+00
  0.00000000E+00  0.00000000E+00  0.00000000E+00
  0.00000000E+00  0.00000000E+00  0.00000000E+00
  0.00000000E+00  0.00000000E+00  0.00000000E+00
  0.00000000E+00  0.00000000E+00  0.00000000E+00
  0.00000000E+00  0.00000000E+00  0.00000000E+00
  0.00000000E+00  0.00000000E+00  0.00000000E+00
  0.00000000E+00  0.00000000E+00  0.00000000E+00
  0.00000000E+00  0.00000000E+00  0.00000000E+00
  0.00000000E+00  0.00000000E+00  0.00000000E+00
  0.00000000E+00  0.00000000E+00  0.00000000E+00
  0.00000000E+00  0.00000000E+00  0.00000000E+00
  0.00000000E+00  0.00000000E+00  0.00000000E+00
  0.00000000E+00  0.00000000E+00  0.00000000E+00
  0.00000000E+00  0.00000000E+00  0.00000000E+00
  0.00000000E+00  0.00000000E+00  0.00000000E+00
  0.00000000E+00  0.00000000E+00  0.00000000E+00
  0.00000000E+00  0.00000000E+00  0.00000000E+00
  0.00000000E+00  0.00000000E+00  0.00000000E+00
  0.00000000E+00  0.00000000E+00  0.00000000E+00
  0.00000000E+00  0.00000000E+00  0.00000000E+00
  0.00000000E+00  0.00000000E+00  0.00000000E+00
  0.00000000E+00  0.00000000E+00  0.00000000E+00
  0.00000000E+00  0.00000000E+00  0.00000000E+00
  0.00000000E+00  0.00000000E+00  0.00000000E+00
  0.00000000E+00  0.00000000E+00  0.00000000E+00
  0.00000000E+00  0.00000000E+00  0.00000000E+00
  0.00000000E+00  0.00000000E+00  0.00000000E+00
  0.00000000E+00  0.00000000E+00  0.00000000E+00
  0.00000000E+00  0.00000000E+00  0.00000000E+00
  0.00000000E+00  0.00000000E+00  0.00000000E+00
  0.00000000E+00  0.00000000E+00  0.00000000E+00
  0.00000000E+00  0.00000000E+00  0.00000000E+00
  0.00000000E+00  0.00000000E+00  0.00000000E+00
  0.00000000E+00  0.00000000E+00  0.00000000E+00
  0.00000000E+00  0.00000000E+00  0.00000000E+00
  0.00000000E+00  0.00000000E+00  0.00000000E+00
  0.00000000E+00  0.00000000E+00  0.00000000E+00
  0.00000000E+00  0.00000000E+00  0.00000000E+00
  0.00000000E+00  0.00000000E+00  0.00000000E+00
  0.00000000E+00  0.00000000E+00  0.00000000E+00
  0.00000000E+00  0.00000000E+00  0.00000000E+00
  0.00000000E+00  0.00000000E+00  0.00000000E+00
  0.00000000E+00  0.00000000E+00  0.00000000E+00
  0.00000000E+00  0.00000000E+00  0.00000000E+00
  0.00000000E+00  0.00000000E+00  0.00000000E+00
  0.00000000E+00  0.00000000E+00  0.00000000E+00
  0.00000000E+00  0.00000000E+00  0.00000000E+00
  0.00000000E+00  0.00000000E+00  0.00000000E+00
  0.00000000E+00  0.00000000E+00  0.00000000E+00
  0.00000000E+00  0.00000000E+00  0.00000000E+00
  0.00000000E+00  0.00000000E+00  0.00000000E+00
  0.00000000E+00  0.00000000E+00  0.00000000E+00
  0.00000000E+00  0.00000000E+00  0.00000000E+00
  0.00000000E+00  0.00000000E+00  0.00000000E+00
  0.00000000E+00  0.00000000E+00  0.00000000E+00
  0.00000000E+00  0.00000000E+00  0.00000000E+00
  0.00000000E+00  0.00000000E+00  0.00000000E+00
  0.00000000E+00  0.00000000E+00  0.00000000E+00
  0.00000000E+00  0.00000000E+00  0.00000000E+00
  0.00000000E+00  0.00000000E+00  0.00000000E+00
  0.00000000E+00  0.00000000E+00  0.00000000E+00
  0.00000000E+00  0.00000000E+00  0.00000000E+00
  0.00000000E+00  0.00000000E+00  0.00000000E+00
  0.00000000E+00  0.00000000E+00  0.00000000E+00
  0.00000000E+00  0.00000000E+00  0.00000000E+00
  0.00000000E+00  0.00000000E+00  0.00000000E+00
  0.00000000E+00  0.00000000E+00  0.00000000E+00
  0.00000000E+00  0.00000000E+00  0.00000000E+00
  0.00000000E+00  0.00000000E+00  0.00000000E+00
  0.00000000E+00  0.00000000E+00  0.00000000E+00
  0.00000000E+00  0.00000000E+00  0.00000000E+00
  0.00000000E+00  0.00000000E+00  0.00000000E+00
  0.00000000E+00  0.00000000E+00  0.00000000E+00
  0.00000000E+00  0.00000000E+00  0.00000000E+00
  0.00000000E+00  0.00000000E+00  0.00000000E+00
  0.00000000E+00  0.00000000E+00  0.00000000E+00
  0.00000000E+00  0.00000000E+00  0.00000000E+00
  0.00000000E+00  0.00000000E+00  0.00000000E+00
  0.00000000E+00  0.00000000E+00  0.00000000E+00
  0.00000000E+00  0.00000000E+00  0.00000000E+00
  0.00000000E+00  0.00000000E+00  0.00000000E+00
  0.00000000E+00  0.00000000E+00  0.00000000E+00
  0.00000000E+00  0.00000000E+00  0.00000000E+00
  0.00000000E+00  0.00000000E+00  0.00000000E+00
  0.00000000E+00  0.00000000E+00  0.00000000E+00
  0.00000000E+00  0.00000000E+00  0.00000000E+00
  0.00000000E+00  0.00000000E+00  0.00000000E+00
  0.00000000E+00  0.00000000E+00  0.00000000E+00
  0.00000000E+00  0.00000000E+00  0.00000000E+00
  0.00000000E+00  0.00000000E+00  0.00000000E+00
  0.00000000E+00  0.00000000E+00  0.00000000E+00
  0.00000000E+00  0.00000000E+00  0.00000000E+00
  0.00000000E+00  0.00000000E+00  0.00000000E+00
  0.00000000E+00  0.00000000E+00  0.00000000E+00
  0.00000000E+00  0.00000000E+00  0.00000000E+00
  0.00000000E+00  0.00000000E+00  0.00000000E+00
  0.00000000E+00  0.00000000E+00  0.00000000E+00
  0.00000000E+00  0.00000000E+00  0.00000000E+00
  0.00000000E+00  0.00000000E+00  0.00000000E+00
  0.00000000E+00  0.00000000E+00  0.00000000E+00
  0.00000000E+00  0.00000000E+00  0.00000000E+00
  0.00000000E+00  0.00000000E+00  0.00000000E+00
  0.00000000E+00  0.00000000E+00  0.00000000E+00
  0.00000000E+00  0.00000000E+00  0.00000000E+00
  0.00000000E+00  0.00000000E+00  0.00000000E+00
  0.00000000E+00  0.00000000E+00  0.00000000E+00
  0.00000000E+00  0.00000000E+00  0.00000000E+00
  0.00000000E+00  0.00000000E+00  0.00000000E+00
  0.00000000E+00  0.00000000E+00  0.00000000E+00
  0.00000000E+00  0.00000000E+00  0.00000000E+00
  0.00000000E+00  0.00000000E+00  0.00000000E+00
  0.00000000E+00  0.00000000E+00  0.00000000E+00
  0.00000000E+00  0.00000000E+00  0.00000000E+00
  0.00000000E+00  0.00000000E+00  0.00000000E+00
  0.00000000E+00  0.00000000E+00  0.00000000E+00
  0.00000000E+00  0.00000000E+00  0.00000000E+00
  0.00000000E+00  0.00000000E+00  0.00000000E+00
  0.00000000E+00  0.00000000E+00  0.00000000E+00
  0.00000000E+00  0.00000000E+00  0.00000000E+00
  0.00000000E+00  0.00000000E+00  0.00000000E+00
  0.00000000E+00  0.00000000E+00  0.00000000E+00
  0.00000000E+00  0.00000000E+00  0.00000000E+00
  0.00000000E+00  0.00000000E+00  0.00000000E+00
  0.00000000E+00  0.00000000E+00  0.00000000E+00
  0.00000000E+00  0.00000000E+00  0.00000000E+00
  0.00000000E+00  0.00000000E+00  0.00000000E+00
  0.00000000E+00  0.00000000E+00  0.00000000E+00
  0.00000000E+00  0.00000000E+00  0.00000000E+00
  0.00000000E+00  0.00000000E+00  0.00000000E+00
  0.00000000E+00  0.00000000E+00  0.00000000E+00
  0.00000000E+00  0.00000000E+00  0.00000000E+00
  0.00000000E+00  0.00000000E+00  0.00000000E+00
  0.00000000E+00  0.00000000E+00  0.00000000E+00
  0.00000000E+00  0.00000000E+00  0.00000000E+00
  0.00000000E+00  0.00000000E+00  0.00000000E+00
  0.00000000E+00  0.00000000E+00  0.00000000E+00
  0.00000000E+00  0.00000000E+00  0.00000000E+00
  0.00000000E+00  0.00000000E+00  0.00000000E+00
  0.00000000E+00  0.00000000E+00  0.00000000E+00
  0.00000000E+00  0.00000000E+00  0.00000000E+00
  0.00000000E+00  0.00000000E+00  0.00000000E+00
  0.00000000E+00  0.00000000E+00  0.00000000E+00
  0.00000000E+00  0.00000000E+00  0.00000000E+00
  0.00000000E+00  0.00000000E+00  0.00000000E+00
  0.00000000E+00  0.00000000E+00  0.00000000E+00
  0.00000000E+00  0.00000000E+00  0.00000000E+00
  0.00000000E+00  0.00000000E+00  0.00000000E+00
  0.00000000E+00  0.00000000E+00  0.00000000E+00
  0.00000000E+00  0.00000000E+00  0.00000000E+00
  0.00000000E+00  0.00000000E+00  0.00000000E+00
  0.00000000E+00  0.00000000E+00  0.00000000E+00
  0.00000000E+00  0.00000000E+00  0.00000000E+00
  0.00000000E+00  0.00000000E+00  0.00000000E+00
  0.00000000E+00  0.00000000E+00  0.00000000E+00
  0.00000000E+00  0.00000000E+00  0.00000000E+00
  0.00000000E+00  0.00000000E+00  0.00000000E+00
  0.00000000E+00  0.00000000E+00  0.00000000E+00
  0.00000000E+00  0.00000000E+00  0.00000000E+00
  0.00000000E+00  0.00000000E+00  0.00000000E+00
  0.00000000E+00  0.00000000E+00  0.00000000E+00
  0.00000000E+00  0.00000000E+00  0.00000000E+00
  0.00000000E+00  0.00000000E+00  0.00000000E+00
  0.00000000E+00  0.00000000E+00  0.00000000E+00
  0.00000000E+00  0.00000000E+00  0.00000000E+00
  0.00000000E+00  0.00000000E+00  0.00000000E+00
  0.00000000E+00  0.00000000E+00  0.00000000E+00
  0.00000000E+00  0.00000000E+00  0.00000000E+00
  0.00000000E+00  0.00000000E+00  0.00000000E+00
  0.00000000E+00  0.00000000E+00  0.00000000E+00
  0.00000000E+00  0.00000000E+00  0.00000000E+00
  0.00000000E+00  0.00000000E+00  0.00000000E+00
  0.00000000E+00  0.00000000E+00  0.00000000E+00
  0.00000000E+00  0.00000000E+00  0.00000000E+00
  0.00000000E+00  0.00000000E+00  0.00000000E+00
  0.00000000E+00  0.00000000E+00  0.00000000E+00
  0.00000000E+00  0.00000000E+00  0.00000000E+00
  0.00000000E+00  0.00000000E+00  0.00000000E+00
  0.00000000E+00  0.00000000E+00  0.00000000E+00
  0.00000000E+00  0.00000000E+00  0.00000000E+00
  0.00000000E+00  0.00000000E+00  0.00000000E+00
  0.00000000E+00  0.00000000E+00  0.00000000E+00
  0.00000000E+00  0.00000000E+00  0.00000000E+00
  0.00000000E+00  0.00000000E+00  0.00000000E+00
  0.00000000E+00  0.00000000E+00  0.00000000E+00
