config 26                               
   1.00000000000000     
    15.4263309999999993    0.0000000000000000    0.0000000000000000
     0.0000000000000000   15.4263309999999993    0.0000000000000000
     0.0000000000000000    0.0000000000000000   15.4263309999999993
   Li   Ti   O    F 
     1    64    64   128
Direct
  0.3304440040519465  0.6168894113533822  0.4005115690829163
  0.9955695015574257  0.9956106002139650  0.9945995249004173
  0.9994065150130945  0.9919137530418503  0.4934987813862036
  0.0056901662105858  0.4954142701570997  0.9978596897706274
  0.9927454521977459  0.5028119360935099  0.5068888765477189
  0.4946991515054113  0.9945349907893377  0.9990696477157336
  0.5015781375848732  0.0080993692705849  0.4999602099622039
  0.5043422769039934  0.4957271882716616  0.9952788649390998
  0.4914159740153313  0.4989671360033551  0.4940214499622053
  0.0074511609445629  0.0030249928708227  0.2562084845022823
  0.0015158854068940  0.0075270056433074  0.7567480285003556
  0.9932177432429261  0.4941719337191348  0.2517438979868167
  0.9925246128803795  0.4991161012370077  0.7419406576074490
  0.5073362336026616  0.0073865278519970  0.2496129901173534
  0.4930569362863831  0.0053050782166610  0.7513513793208751
  0.4938742395201632  0.4971777257988997  0.2566889155251019
  0.5012245587446683  0.5048553720929631  0.7577016695316223
  0.9954370832913810  0.2574426288581976  0.0011473631857664
  0.9985798619621079  0.2482120521025059  0.4912090201731943
  0.9986796781775185  0.7582542367533440  0.0062301196475216
  0.9974043945095136  0.7566565402897421  0.5062567083860416
  0.4950610325814021  0.2580319830485186  0.0005369042530294
  0.5081979802837687  0.2455487927916729  0.4993736455635289
  0.5076698218392071  0.7566603817975578  0.9986171618512575
  0.5084517692496796  0.7536056352666601  0.5076583224054978
  0.9995334066022087  0.2585812601227510  0.2549997630595319
  0.0062306823002361  0.2423137309645051  0.7471133860902557
  0.0049404850336457  0.7488632384837922  0.2435829934786107
  0.9930340537861069  0.7507804118465264  0.7431380376774224
  0.5081259802250931  0.2416541472124217  0.2511613270346655
  0.5066819769618226  0.2431283979328907  0.7496519234586724
  0.5038035431242659  0.7518590326597498  0.2521681875408715
  0.5019037114015110  0.7425842119693081  0.7423732339755550
  0.2568751333593637  0.9981744474455260  0.0062981307246096
  0.2504416483738513  0.9947241297954139  0.5063367803289772
  0.2436253935937604  0.5077201136480249  0.9979597072762273
  0.2529032963151173  0.4906504534240696  0.5083549286845602
  0.7576045572442253  0.0006305371803743  0.9939249373115016
  0.7504055176548835  0.0065658065770770  0.4940575832679836
  0.7420720772330941  0.5007563170369808  0.0050700670508704
  0.7546116637568225  0.4980962705430564  0.5051833716187722
  0.2455653953933769  0.0017954477827062  0.2440919624642163
  0.2578903855900653  0.9974248378009195  0.7446060036614678
  0.2549214303525684  0.4913764125619713  0.2504660436935949
  0.2477402779922465  0.5061846085339010  0.7424408629858468
  0.7456998789223840  0.0003649125432376  0.2553218055178713
  0.7486013169132444  0.0063891689973636  0.7558817599771617
  0.7558260592242882  0.4997128675320419  0.2426208213035533
  0.7572814854182772  0.4981604012593301  0.7426039309319492
  0.2574230028897024  0.2514974957779289  0.0057977797606587
  0.2535703718933950  0.2552850839406535  0.5055012320161920
  0.2522702595025431  0.7421716393157087  0.9945250543352220
  0.2511152179691524  0.7574360504353340  0.4943534583271071
  0.7574065453726884  0.2510604606028997  0.0070391098237574
  0.7423084855430651  0.2426463662535381  0.4979645341051655
  0.7424629657446502  0.7498835996822252  0.9932767357462828
  0.7428480255975274  0.7525744231942396  0.4919455298839702
  0.2514607079011456  0.2572495767241446  0.2438530057385762
  0.2439398129392779  0.2515951288245471  0.7439387046848074
  0.2422884950024360  0.7480512957906339  0.2564752921423555
  0.2480631007421286  0.7416839365494847  0.7574361170968534
  0.7422871365798260  0.2514178991889773  0.2422380180781777
  0.7441698298025596  0.2420189217860368  0.7506289483011008
  0.7429568415051288  0.7511537249601646  0.2553579484078318
  0.7575025033561693  0.7509295059295387  0.7556232067475495
  0.0063963309038561  0.5017385174646387  0.6243637295556599
  0.9958853320565924  0.0059547647901528  0.3763553020854958
  1.0000203167988060  0.0022083204180431  0.8726876386880633
  0.5037343945246999  0.4934050491457677  0.3756455089446075
  0.4973141138168802  0.4983419573495299  0.8741406070909303
  0.0024396791689406  0.7465294679782827  0.1262217665237104
  0.0050304793572002  0.7460816353869524  0.6241328309389704
  0.5024882619246542  0.7566425324960001  0.6249256577263844
  0.9956025750302187  0.2470131888222233  0.3765415035718644
  0.2544837946430299 -0.0007152707600759  0.1259480144838823
  0.2538044002150209 -0.0000052466497693  0.6244190259756237
  0.2450559798260061  0.4914446090681084  0.6261851400385843
  0.7531442057808875  0.4929719312224151  0.1254522827936126
  0.7478908390051831  0.4942243911178265  0.6239189146066356
  0.7515587013751649  0.9995148455646177  0.3761603911106076
  0.7469677065500041  0.9982607527352794  0.8733001245490553
  0.2465404292401932  0.2529713863014312  0.1260780072067547
  0.2534995307840008  0.2516104385210904  0.6245466397580838
  0.7440692522772190  0.2579683960576770  0.1258492980028802
  0.2630621697375679  0.7331163302708523  0.3761898900319322
  0.2516346540221178  0.7490520067136096  0.8753241786010434
  0.7568168380345922  0.7521780930305279  0.3756381785963185
  0.7508118281639853  0.7530592010153079  0.8744475412914797
  0.1248172924174309  0.5036165207101142  0.9974458536452286
  0.6258854478176885  0.5066208281745747  0.0009308941352610
  0.1260802119253843  0.0016003210413504  0.2527870363292375
  0.6264042321828882  0.0006879134653123  0.2495874899938372
  0.6238544521010668  0.2596588929074429  0.4967780698688810
  0.6255302230683255  0.7431239447673571  0.0004958448689087
  0.6244742232530733  0.7639596610332502  0.4939012619118875
  0.1249490236387373  0.2504902267121799  0.7481764964701101
  0.1253664556981970  0.7536572027543897  0.2576545305170221
  0.6258047649789599  0.2484345973691627  0.2601162060639048
  0.6253177476012770  0.2517337001365249  0.7460684430748941
  0.6279306654931032  0.7578362207003656  0.2528196768715893
  0.3757084726189915  0.0004105110085452  0.9929396279615325
  0.3731999251187836  0.5151040081379648  0.4910261398039588
  0.8735993122558531  0.0025562849426894  0.0003256495315817
  0.8748616275766666  0.5031130917295349  0.4977127924443569
  0.3758310635338126  0.9963072607681907  0.7555362139600068
  0.3733526755490057  0.5019811603334682  0.2559629607273853
  0.8759351483273441  0.4991026867708070  0.2545113634885106
  0.8753042936366751  0.5068285006479566  0.7482501685882333
  0.3754575790150812  0.2481939646406664  0.0026673103980728
  0.8746750272580841  0.2482232382313151  0.0040200993495046
  0.8754345551168448  0.7445657209869081  0.7469907399345219
  0.5118163818041592  0.1227800593833940  0.4987434041184786
  0.9959314469930987  0.1261395468452393  0.7438172312112378
  0.4973847297856945  0.1255823099846097  0.2611652432749798
  0.5004255658559782  0.1237019272432570  0.7447239288543005
  0.5012360247411567  0.6249309075437688  0.7467101408653147
  1.0003246940826265  0.3754441074265568  0.0038665417217316
  0.0020948358100111  0.8750985961758695  0.0013590524344790
 -0.0042462779499242  0.8749071333822710  0.4987265426444921
  0.5022712498744074  0.3740408208310471  0.0049899673992239
  0.5043195577516115  0.8764863256048007  0.9993193999418403
  0.0056466111670245  0.3741928358534851  0.2477478116265769
  0.2554802522106345  0.6250772534650925  0.0056367169718704
  0.7404565257442827  0.1253385793353631  0.5035688079567222
  0.2480817888137666  0.6241581789322900  0.7467109645240950
  0.7521832602142661  0.1248034926114383  0.7449127629502652
  0.2561245921517981  0.3722612869495127  0.4902809150401686
  0.2545362337668767  0.8755061493313141  0.4944986343343518
  0.2449237353999333  0.3746503981349519  0.2606545282542773
  0.0010495620707460  0.0025580127603578  0.1267913454910131
  0.0048349031997678  0.9980790792268266  0.6235349980011201
  0.9987408569405016  0.5081394111568827  0.1253892539208254
  0.4954224968087552  0.0083964529832967  0.1253872539346351
  0.4977392334710125  0.9920795649267720  0.6229859098107516
  0.4977489568871959  0.5043172679807292  0.1269076683728889
  0.4998112871524685  0.4968652844739935  0.6235524584324599
  0.0059070278202205  0.4964132023794185  0.3764148958101464
  0.9981678208562047  0.4979494430550108  0.8728285117424581
  0.5037548879571878  0.9941558548052237  0.3772573359120802
  0.5140918613728619  0.0040483931246432  0.8743078266154556
  0.0068328273529662  0.2459751876936804  0.1271601953771609
  0.9985364710746970  0.2584400773756541  0.6212868040550960
  0.5072319215612408  0.2403189683717986  0.1262606818903352
  0.4935798851040448  0.2503655171015607  0.6228598178288722
  0.4965666862778570  0.7487249450707839  0.1217886189839987
  0.9968706516440634  0.2507200188551144  0.8739462012254773
  0.9922751688365344  0.7498322339667652  0.3760444693295458
  0.0012841906754129  0.7508543418448018  0.8739192083519531
  0.4929320269683279  0.2612915197005406  0.3761615904662606
  0.5012474661503402  0.2499586586354967  0.8741057010435492
  0.4839050450743466  0.7461490948228349  0.3818853230544590
  0.4971233352177811  0.7497300450571356  0.8730137705093718
  0.2492686690432801  0.4901372383705243  0.1245439940303236
  0.7501065656515525  0.0048089402647998  0.1260765328229950
  0.7461957061349334  0.9968261157897090  0.6230794238907467
  0.2533259849155988  0.0044859289142334  0.3761940629376653
  0.2439039471945938  0.9961505784801321  0.8739928092885644
  0.2469385347491506  0.5214478736768449  0.3746265233651684
  0.2564254623478038  0.5004018403588193  0.8735897962013015
  0.7439323260794662  0.5057542164268291  0.3750074629971964
  0.7501900282382959  0.5045142009282269  0.8737016486452681
  0.2491234023627731  0.7569139052027215  0.1260435516270972
  0.2451791438912901  0.7523745517711361  0.6240523377175019
  0.7525417119848168  0.2602845397626888  0.6230209210224685
  0.7544083469696424  0.7478051947563773  0.1244726861196121
  0.7456411511133576  0.7482171598057329  0.6246590616586881
  0.2513070774088026  0.2409539518998021  0.3748012378288316
  0.2508554406319660  0.2485085706445946  0.8749975532670744
  0.7605155525968241  0.2442116981062780  0.3743278934554683
  0.7511293970326590  0.2460467479106716  0.8756981944509638
  0.1264291419820908  0.0020292672015934  0.0014016356598033
  0.1252678761947175  0.0024366031928668  0.4977618982261650
  0.1247262149254793  0.4973456410943963  0.4941068487541769
  0.6257122851993174  0.0021138019037236  0.0068019645115887
  0.6240211214318556  0.9822948686941276  0.5020101932935891
  0.6240027176942292  0.4900391707392678  0.5010967876981345
  0.1272437124628637  0.0013066103533552  0.7472703654506115
  0.1249086293446129  0.5047982378719785  0.2477558142323489
  0.1238126444203740  0.4938731214199055  0.7594681775503854
  0.6237340075691097  0.9955599193635026  0.7416242995841477
  0.6256046104189479  0.4942926887187865  0.2471176166061520
  0.6263755947149323  0.4933834511406233  0.7510206311255576
  0.1251801358831925  0.2501406225221570  0.9955106822400187
  0.1239314983685802  0.2485548171461102  0.4994798645732603
  0.1255178579687080  0.7453253582503395 -0.0007975388660378
  0.1247391001492294  0.7510473093581262  0.4915659293538843
  0.6263223837728034  0.2496771655013723  0.9952411314810000
  0.1247427279603818  0.2396335368050287  0.2557684311968457
  0.1237346164298803  0.7533980448317329  0.7524031910001562
  0.6264220950809039  0.7537331303397179  0.7518418474918701
  0.3775059881908554  0.0099346907639099  0.4966588834356752
  0.3732390339805256  0.4956027773629839  0.0039632095792830
  0.8747979014294747  0.0088358383978084  0.5090153439662550
  0.8750762907324348  0.4984124329662285  0.9972976966248852
  0.3767035658441787  1.0005322152767071  0.2560451327608742
  0.3743125360020704  0.4975161197868946  0.7457536915336478
  0.8752071653756663  0.0021915856197629  0.2468610379607730
  0.8746328852387698  0.9935779280259626  0.7419216840285631
  0.3782835268460777  0.2372376265746801  0.4964060639825894
  0.3760784825153181  0.7571758878553891  1.0007197498953220
  0.3753786471514971  0.7367598595722418  0.5079849197856998
  0.8740568521805097  0.2481862990443082  0.5042382858996300
  0.8734366619357038  0.7538262634075953  0.9995778214332016
  0.8730831262260056  0.7413299073586554  0.5075900005784075
  0.3775776194897121  0.2544102730078013  0.2480622897784496
  0.3758133802396876  0.2497847128416184  0.7529757278407667
  0.3738920453741548  0.7436196720575010  0.2453053022485107
  0.3743478366602568  0.7546187300498196  0.7471318531486012
  0.8744542490487854  0.2540149586729623  0.2453196293896755
  0.8744052719440997  0.2545152510800990  0.7475055555798835
  0.8762274894998134  0.7458663863750616  0.2480737367207816
  0.0040864857212444  0.1271017428034896  0.0010413330598219
  1.0003120041015008  0.1258072622943711  0.5090948944798410
  0.9945067965993308  0.6254399759652410  0.9949735072357242
  0.0046852853925754  0.6261827673312459  0.4929221451023057
  0.5045359135557158  0.1252967403672435  0.9969930949893032
  0.4904611249480849  0.6268120433734808  0.9987961080181269
  0.5112413037765754  0.6253720768841304  0.5015851894084963
  0.9946649212250410  0.1279672251718759  0.2467081804857743
  0.0023354030887823  0.6232621282438321  0.2571011743315939
  0.0102058144287595  0.6244118702475840  0.7552835400216429
  0.5058228296817118  0.6209118496023631  0.2550178077458167
  0.0003138336250104  0.3740023769528126  0.4980844391323394
  0.4856703156573954  0.3719967495834136  0.5057260025536559
  0.4851696413414826  0.8784088422212198  0.4961553538825802
  0.9966533764354464  0.3744779272201982  0.7508633441964591
  0.9950916428911591  0.8762947231345449  0.2515919780997877
  0.0008353877218330  0.8758671861294559  0.7473152334015832
  0.4995825068834541  0.3715798950547770  0.2411679615144317
  0.4969141875630704  0.3730474101135379  0.7459928952660041
  0.4940128140664551  0.8820054071965290  0.2479224801721502
  0.5024121444305127  0.8756637734169016  0.7555641040379560
  0.2460844604877533  0.1247257211519134  0.9966226558008232
  0.2468274526328303  0.1241271169715600  0.4992106152652947
  0.2463577277646280  0.6252010140312513  0.5041662948978035
  0.7440225604729648  0.1263509422910169  1.0013893445190454
  0.7607853059143245  0.6254616615320747  1.0014224189306604
  0.7407789221046239  0.6250089025200756  0.5015550507011199
  0.2570453137335820  0.1266256060933530  0.2508286272155924
  0.2521213428048519  0.1242097611246226  0.7541299258433006
  0.2482793263120049  0.6234028354515638  0.2377877588171471
  0.7576182198834308  0.1265718264078959  0.2488201026450981
  0.7464569348364639  0.6246208810623958  0.2475699665357330
  0.7401653996900844  0.6245973734563752  0.7478636368990478
  0.2487178141616526  0.3760696208573898  0.9946339236678268
  0.2453643685186636  0.8734881097936941  0.0006419763715453
  0.7487675247188020  0.3752019345133610  0.9884525864825245
  0.7561547947589049  0.3725460679360758  0.4898307310019244
  0.7465915833295595  0.8753062591863010  0.0079120197872331
  0.7631762261670387  0.8769738571280290  0.5043646965830795
  0.2529467382787425  0.3756770371740085  0.7585144605321339
  0.2564687687298980  0.8748204445426684  0.2580852528709852
  0.2463960791397941  0.8729883665347660  0.7477962501758523
  0.7508794356356341  0.3745306173061240  0.2637695992670875
  0.7538850177649803  0.3737649176392143  0.7570668579553422
  0.7601689120048093  0.8766258889768499  0.2430186922372021
  0.7508562180062354  0.8754810706154003  0.7434391256678411
 
  0.00000000E+00  0.00000000E+00  0.00000000E+00
  0.00000000E+00  0.00000000E+00  0.00000000E+00
  0.00000000E+00  0.00000000E+00  0.00000000E+00
  0.00000000E+00  0.00000000E+00  0.00000000E+00
  0.00000000E+00  0.00000000E+00  0.00000000E+00
  0.00000000E+00  0.00000000E+00  0.00000000E+00
  0.00000000E+00  0.00000000E+00  0.00000000E+00
  0.00000000E+00  0.00000000E+00  0.00000000E+00
  0.00000000E+00  0.00000000E+00  0.00000000E+00
  0.00000000E+00  0.00000000E+00  0.00000000E+00
  0.00000000E+00  0.00000000E+00  0.00000000E+00
  0.00000000E+00  0.00000000E+00  0.00000000E+00
  0.00000000E+00  0.00000000E+00  0.00000000E+00
  0.00000000E+00  0.00000000E+00  0.00000000E+00
  0.00000000E+00  0.00000000E+00  0.00000000E+00
  0.00000000E+00  0.00000000E+00  0.00000000E+00
  0.00000000E+00  0.00000000E+00  0.00000000E+00
  0.00000000E+00  0.00000000E+00  0.00000000E+00
  0.00000000E+00  0.00000000E+00  0.00000000E+00
  0.00000000E+00  0.00000000E+00  0.00000000E+00
  0.00000000E+00  0.00000000E+00  0.00000000E+00
  0.00000000E+00  0.00000000E+00  0.00000000E+00
  0.00000000E+00  0.00000000E+00  0.00000000E+00
  0.00000000E+00  0.00000000E+00  0.00000000E+00
  0.00000000E+00  0.00000000E+00  0.00000000E+00
  0.00000000E+00  0.00000000E+00  0.00000000E+00
  0.00000000E+00  0.00000000E+00  0.00000000E+00
  0.00000000E+00  0.00000000E+00  0.00000000E+00
  0.00000000E+00  0.00000000E+00  0.00000000E+00
  0.00000000E+00  0.00000000E+00  0.00000000E+00
  0.00000000E+00  0.00000000E+00  0.00000000E+00
  0.00000000E+00  0.00000000E+00  0.00000000E+00
  0.00000000E+00  0.00000000E+00  0.00000000E+00
  0.00000000E+00  0.00000000E+00  0.00000000E+00
  0.00000000E+00  0.00000000E+00  0.00000000E+00
  0.00000000E+00  0.00000000E+00  0.00000000E+00
  0.00000000E+00  0.00000000E+00  0.00000000E+00
  0.00000000E+00  0.00000000E+00  0.00000000E+00
  0.00000000E+00  0.00000000E+00  0.00000000E+00
  0.00000000E+00  0.00000000E+00  0.00000000E+00
  0.00000000E+00  0.00000000E+00  0.00000000E+00
  0.00000000E+00  0.00000000E+00  0.00000000E+00
  0.00000000E+00  0.00000000E+00  0.00000000E+00
  0.00000000E+00  0.00000000E+00  0.00000000E+00
  0.00000000E+00  0.00000000E+00  0.00000000E+00
  0.00000000E+00  0.00000000E+00  0.00000000E+00
  0.00000000E+00  0.00000000E+00  0.00000000E+00
  0.00000000E+00  0.00000000E+00  0.00000000E+00
  0.00000000E+00  0.00000000E+00  0.00000000E+00
  0.00000000E+00  0.00000000E+00  0.00000000E+00
  0.00000000E+00  0.00000000E+00  0.00000000E+00
  0.00000000E+00  0.00000000E+00  0.00000000E+00
  0.00000000E+00  0.00000000E+00  0.00000000E+00
  0.00000000E+00  0.00000000E+00  0.00000000E+00
  0.00000000E+00  0.00000000E+00  0.00000000E+00
  0.00000000E+00  0.00000000E+00  0.00000000E+00
  0.00000000E+00  0.00000000E+00  0.00000000E+00
  0.00000000E+00  0.00000000E+00  0.00000000E+00
  0.00000000E+00  0.00000000E+00  0.00000000E+00
  0.00000000E+00  0.00000000E+00  0.00000000E+00
  0.00000000E+00  0.00000000E+00  0.00000000E+00
  0.00000000E+00  0.00000000E+00  0.00000000E+00
  0.00000000E+00  0.00000000E+00  0.00000000E+00
  0.00000000E+00  0.00000000E+00  0.00000000E+00
  0.00000000E+00  0.00000000E+00  0.00000000E+00
  0.00000000E+00  0.00000000E+00  0.00000000E+00
  0.00000000E+00  0.00000000E+00  0.00000000E+00
  0.00000000E+00  0.00000000E+00  0.00000000E+00
  0.00000000E+00  0.00000000E+00  0.00000000E+00
  0.00000000E+00  0.00000000E+00  0.00000000E+00
  0.00000000E+00  0.00000000E+00  0.00000000E+00
  0.00000000E+00  0.00000000E+00  0.00000000E+00
  0.00000000E+00  0.00000000E+00  0.00000000E+00
  0.00000000E+00  0.00000000E+00  0.00000000E+00
  0.00000000E+00  0.00000000E+00  0.00000000E+00
  0.00000000E+00  0.00000000E+00  0.00000000E+00
  0.00000000E+00  0.00000000E+00  0.00000000E+00
  0.00000000E+00  0.00000000E+00  0.00000000E+00
  0.00000000E+00  0.00000000E+00  0.00000000E+00
  0.00000000E+00  0.00000000E+00  0.00000000E+00
  0.00000000E+00  0.00000000E+00  0.00000000E+00
  0.00000000E+00  0.00000000E+00  0.00000000E+00
  0.00000000E+00  0.00000000E+00  0.00000000E+00
  0.00000000E+00  0.00000000E+00  0.00000000E+00
  0.00000000E+00  0.00000000E+00  0.00000000E+00
  0.00000000E+00  0.00000000E+00  0.00000000E+00
  0.00000000E+00  0.00000000E+00  0.00000000E+00
  0.00000000E+00  0.00000000E+00  0.00000000E+00
  0.00000000E+00  0.00000000E+00  0.00000000E+00
  0.00000000E+00  0.00000000E+00  0.00000000E+00
  0.00000000E+00  0.00000000E+00  0.00000000E+00
  0.00000000E+00  0.00000000E+00  0.00000000E+00
  0.00000000E+00  0.00000000E+00  0.00000000E+00
  0.00000000E+00  0.00000000E+00  0.00000000E+00
  0.00000000E+00  0.00000000E+00  0.00000000E+00
  0.00000000E+00  0.00000000E+00  0.00000000E+00
  0.00000000E+00  0.00000000E+00  0.00000000E+00
  0.00000000E+00  0.00000000E+00  0.00000000E+00
  0.00000000E+00  0.00000000E+00  0.00000000E+00
  0.00000000E+00  0.00000000E+00  0.00000000E+00
  0.00000000E+00  0.00000000E+00  0.00000000E+00
  0.00000000E+00  0.00000000E+00  0.00000000E+00
  0.00000000E+00  0.00000000E+00  0.00000000E+00
  0.00000000E+00  0.00000000E+00  0.00000000E+00
  0.00000000E+00  0.00000000E+00  0.00000000E+00
  0.00000000E+00  0.00000000E+00  0.00000000E+00
  0.00000000E+00  0.00000000E+00  0.00000000E+00
  0.00000000E+00  0.00000000E+00  0.00000000E+00
  0.00000000E+00  0.00000000E+00  0.00000000E+00
  0.00000000E+00  0.00000000E+00  0.00000000E+00
  0.00000000E+00  0.00000000E+00  0.00000000E+00
  0.00000000E+00  0.00000000E+00  0.00000000E+00
  0.00000000E+00  0.00000000E+00  0.00000000E+00
  0.00000000E+00  0.00000000E+00  0.00000000E+00
  0.00000000E+00  0.00000000E+00  0.00000000E+00
  0.00000000E+00  0.00000000E+00  0.00000000E+00
  0.00000000E+00  0.00000000E+00  0.00000000E+00
  0.00000000E+00  0.00000000E+00  0.00000000E+00
  0.00000000E+00  0.00000000E+00  0.00000000E+00
  0.00000000E+00  0.00000000E+00  0.00000000E+00
  0.00000000E+00  0.00000000E+00  0.00000000E+00
  0.00000000E+00  0.00000000E+00  0.00000000E+00
  0.00000000E+00  0.00000000E+00  0.00000000E+00
  0.00000000E+00  0.00000000E+00  0.00000000E+00
  0.00000000E+00  0.00000000E+00  0.00000000E+00
  0.00000000E+00  0.00000000E+00  0.00000000E+00
  0.00000000E+00  0.00000000E+00  0.00000000E+00
  0.00000000E+00  0.00000000E+00  0.00000000E+00
  0.00000000E+00  0.00000000E+00  0.00000000E+00
  0.00000000E+00  0.00000000E+00  0.00000000E+00
  0.00000000E+00  0.00000000E+00  0.00000000E+00
  0.00000000E+00  0.00000000E+00  0.00000000E+00
  0.00000000E+00  0.00000000E+00  0.00000000E+00
  0.00000000E+00  0.00000000E+00  0.00000000E+00
  0.00000000E+00  0.00000000E+00  0.00000000E+00
  0.00000000E+00  0.00000000E+00  0.00000000E+00
  0.00000000E+00  0.00000000E+00  0.00000000E+00
  0.00000000E+00  0.00000000E+00  0.00000000E+00
  0.00000000E+00  0.00000000E+00  0.00000000E+00
  0.00000000E+00  0.00000000E+00  0.00000000E+00
  0.00000000E+00  0.00000000E+00  0.00000000E+00
  0.00000000E+00  0.00000000E+00  0.00000000E+00
  0.00000000E+00  0.00000000E+00  0.00000000E+00
  0.00000000E+00  0.00000000E+00  0.00000000E+00
  0.00000000E+00  0.00000000E+00  0.00000000E+00
  0.00000000E+00  0.00000000E+00  0.00000000E+00
  0.00000000E+00  0.00000000E+00  0.00000000E+00
  0.00000000E+00  0.00000000E+00  0.00000000E+00
  0.00000000E+00  0.00000000E+00  0.00000000E+00
  0.00000000E+00  0.00000000E+00  0.00000000E+00
  0.00000000E+00  0.00000000E+00  0.00000000E+00
  0.00000000E+00  0.00000000E+00  0.00000000E+00
  0.00000000E+00  0.00000000E+00  0.00000000E+00
  0.00000000E+00  0.00000000E+00  0.00000000E+00
  0.00000000E+00  0.00000000E+00  0.00000000E+00
  0.00000000E+00  0.00000000E+00  0.00000000E+00
  0.00000000E+00  0.00000000E+00  0.00000000E+00
  0.00000000E+00  0.00000000E+00  0.00000000E+00
  0.00000000E+00  0.00000000E+00  0.00000000E+00
  0.00000000E+00  0.00000000E+00  0.00000000E+00
  0.00000000E+00  0.00000000E+00  0.00000000E+00
  0.00000000E+00  0.00000000E+00  0.00000000E+00
  0.00000000E+00  0.00000000E+00  0.00000000E+00
  0.00000000E+00  0.00000000E+00  0.00000000E+00
  0.00000000E+00  0.00000000E+00  0.00000000E+00
  0.00000000E+00  0.00000000E+00  0.00000000E+00
  0.00000000E+00  0.00000000E+00  0.00000000E+00
  0.00000000E+00  0.00000000E+00  0.00000000E+00
  0.00000000E+00  0.00000000E+00  0.00000000E+00
  0.00000000E+00  0.00000000E+00  0.00000000E+00
  0.00000000E+00  0.00000000E+00  0.00000000E+00
  0.00000000E+00  0.00000000E+00  0.00000000E+00
  0.00000000E+00  0.00000000E+00  0.00000000E+00
  0.00000000E+00  0.00000000E+00  0.00000000E+00
  0.00000000E+00  0.00000000E+00  0.00000000E+00
  0.00000000E+00  0.00000000E+00  0.00000000E+00
  0.00000000E+00  0.00000000E+00  0.00000000E+00
  0.00000000E+00  0.00000000E+00  0.00000000E+00
  0.00000000E+00  0.00000000E+00  0.00000000E+00
  0.00000000E+00  0.00000000E+00  0.00000000E+00
  0.00000000E+00  0.00000000E+00  0.00000000E+00
  0.00000000E+00  0.00000000E+00  0.00000000E+00
  0.00000000E+00  0.00000000E+00  0.00000000E+00
  0.00000000E+00  0.00000000E+00  0.00000000E+00
  0.00000000E+00  0.00000000E+00  0.00000000E+00
  0.00000000E+00  0.00000000E+00  0.00000000E+00
  0.00000000E+00  0.00000000E+00  0.00000000E+00
  0.00000000E+00  0.00000000E+00  0.00000000E+00
  0.00000000E+00  0.00000000E+00  0.00000000E+00
  0.00000000E+00  0.00000000E+00  0.00000000E+00
  0.00000000E+00  0.00000000E+00  0.00000000E+00
  0.00000000E+00  0.00000000E+00  0.00000000E+00
  0.00000000E+00  0.00000000E+00  0.00000000E+00
  0.00000000E+00  0.00000000E+00  0.00000000E+00
  0.00000000E+00  0.00000000E+00  0.00000000E+00
  0.00000000E+00  0.00000000E+00  0.00000000E+00
  0.00000000E+00  0.00000000E+00  0.00000000E+00
  0.00000000E+00  0.00000000E+00  0.00000000E+00
  0.00000000E+00  0.00000000E+00  0.00000000E+00
  0.00000000E+00  0.00000000E+00  0.00000000E+00
  0.00000000E+00  0.00000000E+00  0.00000000E+00
  0.00000000E+00  0.00000000E+00  0.00000000E+00
  0.00000000E+00  0.00000000E+00  0.00000000E+00
  0.00000000E+00  0.00000000E+00  0.00000000E+00
  0.00000000E+00  0.00000000E+00  0.00000000E+00
  0.00000000E+00  0.00000000E+00  0.00000000E+00
  0.00000000E+00  0.00000000E+00  0.00000000E+00
  0.00000000E+00  0.00000000E+00  0.00000000E+00
  0.00000000E+00  0.00000000E+00  0.00000000E+00
  0.00000000E+00  0.00000000E+00  0.00000000E+00
  0.00000000E+00  0.00000000E+00  0.00000000E+00
  0.00000000E+00  0.00000000E+00  0.00000000E+00
  0.00000000E+00  0.00000000E+00  0.00000000E+00
  0.00000000E+00  0.00000000E+00  0.00000000E+00
  0.00000000E+00  0.00000000E+00  0.00000000E+00
  0.00000000E+00  0.00000000E+00  0.00000000E+00
  0.00000000E+00  0.00000000E+00  0.00000000E+00
  0.00000000E+00  0.00000000E+00  0.00000000E+00
  0.00000000E+00  0.00000000E+00  0.00000000E+00
  0.00000000E+00  0.00000000E+00  0.00000000E+00
  0.00000000E+00  0.00000000E+00  0.00000000E+00
  0.00000000E+00  0.00000000E+00  0.00000000E+00
  0.00000000E+00  0.00000000E+00  0.00000000E+00
  0.00000000E+00  0.00000000E+00  0.00000000E+00
  0.00000000E+00  0.00000000E+00  0.00000000E+00
  0.00000000E+00  0.00000000E+00  0.00000000E+00
  0.00000000E+00  0.00000000E+00  0.00000000E+00
  0.00000000E+00  0.00000000E+00  0.00000000E+00
  0.00000000E+00  0.00000000E+00  0.00000000E+00
  0.00000000E+00  0.00000000E+00  0.00000000E+00
  0.00000000E+00  0.00000000E+00  0.00000000E+00
  0.00000000E+00  0.00000000E+00  0.00000000E+00
  0.00000000E+00  0.00000000E+00  0.00000000E+00
  0.00000000E+00  0.00000000E+00  0.00000000E+00
  0.00000000E+00  0.00000000E+00  0.00000000E+00
  0.00000000E+00  0.00000000E+00  0.00000000E+00
  0.00000000E+00  0.00000000E+00  0.00000000E+00
  0.00000000E+00  0.00000000E+00  0.00000000E+00
  0.00000000E+00  0.00000000E+00  0.00000000E+00
  0.00000000E+00  0.00000000E+00  0.00000000E+00
  0.00000000E+00  0.00000000E+00  0.00000000E+00
  0.00000000E+00  0.00000000E+00  0.00000000E+00
  0.00000000E+00  0.00000000E+00  0.00000000E+00
  0.00000000E+00  0.00000000E+00  0.00000000E+00
  0.00000000E+00  0.00000000E+00  0.00000000E+00
  0.00000000E+00  0.00000000E+00  0.00000000E+00
  0.00000000E+00  0.00000000E+00  0.00000000E+00
  0.00000000E+00  0.00000000E+00  0.00000000E+00
  0.00000000E+00  0.00000000E+00  0.00000000E+00
  0.00000000E+00  0.00000000E+00  0.00000000E+00
  0.00000000E+00  0.00000000E+00  0.00000000E+00
  0.00000000E+00  0.00000000E+00  0.00000000E+00
  0.00000000E+00  0.00000000E+00  0.00000000E+00
  0.00000000E+00  0.00000000E+00  0.00000000E+00
  0.00000000E+00  0.00000000E+00  0.00000000E+00
  0.00000000E+00  0.00000000E+00  0.00000000E+00
  0.00000000E+00  0.00000000E+00  0.00000000E+00
