TiOF2 2x2x2 config 1016                 
   1.00000000000000     
     7.8209948614557536   -0.0008102245163530    0.0013135770144255
    -0.0008012407432687    7.7178648155886451    0.0042832090206041
     0.0013593478061512    0.0043269897488907    7.6695946804364237
   Ti   O    F 
     8     8    16
Direct
  1.0000297791074155  0.9831590206409877  0.9945445118128411
  0.0008441592888623  0.0013737105144449  0.5189770220408287
  0.0008503280473525  0.5084654369459995  0.0152811061025307
  0.9807637579991912  0.5000641345003933  0.4900030983368561
  0.5001065653522060  0.0153685252806917  0.0130640305531087
  0.5001159795401022  0.9838975389708577  0.4875353426441941
  0.5000970842288894  0.4886762335629046  0.9842917388025006
  0.5069998387288053  0.5093333435179689  0.5094939060920702
  0.7525476602798811  0.4992116656876481  0.4997183106276984
  0.9999926208092597  0.7514439510188681  0.9999753683369234
  0.5004791475643298  0.2498599422094302  0.9994370665335481
  0.4991030363434104  0.7518931140244766  0.5002137054021820
  0.9996674704192404  0.0019678645676144  0.7482021303066473
  0.0013460860611136  0.4984149724154151  0.2488152435805743
  0.5004150872251401  0.9998523529200870  0.2495981237735907
  0.4985949565582579  0.5003178244709052  0.7506186019827853
  0.2480699562190542  0.0008462404312369  0.9998350161836361
  0.2465243014770073  0.0032428792702093  0.4989487285363979
  0.2490134724698057  0.5003378917353050  0.9987951798696642
  0.2466225575942007  0.4980282031002282  0.5000377727799011
  0.7521007748854087  0.0007875211878304  0.9998856806027018
  0.7547072546718695  0.0036883460869279  0.4986798790706538
  0.7518365669256406  0.5002509137820771  0.9985373635485599
  0.9999519013552838  0.2480759018558150  0.9992244575853166
  0.0048609404890365  0.2476505994038111  0.4977379793380528
  0.0049122010454873  0.7538785551815039  0.4979382603227308
  0.4978631170201283  0.2469076790521455  0.5008115803869125
  0.5004928760317837  0.7515217837846013  0.9990411414532741
  0.9997092357158399  0.0043062203674764  0.2533064636510289
  0.0042296964632495  0.4961766705467874  0.7503324908231691
  0.5005262614095826  0.9999419475212119  0.7499434099516344
  0.4966253286731712  0.5010590154441542  0.2471752889674787
 
  0.00000000E+00  0.00000000E+00  0.00000000E+00
  0.00000000E+00  0.00000000E+00  0.00000000E+00
  0.00000000E+00  0.00000000E+00  0.00000000E+00
  0.00000000E+00  0.00000000E+00  0.00000000E+00
  0.00000000E+00  0.00000000E+00  0.00000000E+00
  0.00000000E+00  0.00000000E+00  0.00000000E+00
  0.00000000E+00  0.00000000E+00  0.00000000E+00
  0.00000000E+00  0.00000000E+00  0.00000000E+00
  0.00000000E+00  0.00000000E+00  0.00000000E+00
  0.00000000E+00  0.00000000E+00  0.00000000E+00
  0.00000000E+00  0.00000000E+00  0.00000000E+00
  0.00000000E+00  0.00000000E+00  0.00000000E+00
  0.00000000E+00  0.00000000E+00  0.00000000E+00
  0.00000000E+00  0.00000000E+00  0.00000000E+00
  0.00000000E+00  0.00000000E+00  0.00000000E+00
  0.00000000E+00  0.00000000E+00  0.00000000E+00
  0.00000000E+00  0.00000000E+00  0.00000000E+00
  0.00000000E+00  0.00000000E+00  0.00000000E+00
  0.00000000E+00  0.00000000E+00  0.00000000E+00
  0.00000000E+00  0.00000000E+00  0.00000000E+00
  0.00000000E+00  0.00000000E+00  0.00000000E+00
  0.00000000E+00  0.00000000E+00  0.00000000E+00
  0.00000000E+00  0.00000000E+00  0.00000000E+00
  0.00000000E+00  0.00000000E+00  0.00000000E+00
  0.00000000E+00  0.00000000E+00  0.00000000E+00
  0.00000000E+00  0.00000000E+00  0.00000000E+00
  0.00000000E+00  0.00000000E+00  0.00000000E+00
  0.00000000E+00  0.00000000E+00  0.00000000E+00
  0.00000000E+00  0.00000000E+00  0.00000000E+00
  0.00000000E+00  0.00000000E+00  0.00000000E+00
  0.00000000E+00  0.00000000E+00  0.00000000E+00
  0.00000000E+00  0.00000000E+00  0.00000000E+00
