config 35                               
   1.00000000000000     
    15.4263309999999993    0.0000000000000000    0.0000000000000000
     0.0000000000000000   15.4263309999999993    0.0000000000000000
     0.0000000000000000    0.0000000000000000   15.4263309999999993
   Li   Ti   O    F 
     1    64    64   128
Direct
  0.6225961891059084  0.1263314823330312  0.6562983135401883
  0.9963150268153733  0.9950910925543650  0.9944682542883149
  0.9984712560150162  0.9916276972323806  0.4937012603196312
  0.0060376240716663  0.4958003153976958  0.9971583651508954
  0.9943753203645812  0.5036321648434057  0.5070131955811215
  0.4949786749525324  0.9939798680041202  0.9976955097844603
  0.5010789446126630  0.0063001817437354  0.5030601260669310
  0.5040572082535379  0.4964231545050647  0.9945962291780854
  0.4919726969584893  0.4984802593906468  0.4957662502596155
  0.0070515219533715  0.0033210180434054  0.2558936019272239
  0.0025831923042463  0.0075626756312274  0.7567014845695698
  0.9936025785571330  0.4930715489586213  0.2509739592278947
  0.9923467682538393  0.4994248264750005  0.7414263573385033
  0.5059808375396092  0.0082286726596656  0.2492065532545664
  0.4898019936111153  0.0041484777934033  0.7514751931534411
  0.4925678878629910  0.4970128254210675  0.2579025315636823
  0.5009937712725047  0.5059610381211110  0.7574066839334131
  0.9953862219798542  0.2578036875299344  0.0006298181991201
  0.9993953323876010  0.2478825725427715  0.4915855870020125
  0.9983236403331632  0.7577657749856105  0.0061364433593218
  0.9966187149313870  0.7574264122356196  0.5057048204079070
  0.4951809553289116  0.2582060624957562  0.9983734535587717
  0.5090403902655386  0.2411925871455543  0.5043964658603072
  0.5076884979926126  0.7563459268905369  0.9975544102949925
  0.5074567266435007  0.7541116300317646  0.5087712905104109
  0.0007474887547357  0.2582613407387868  0.2553344825543746
  0.0072270528142490  0.2431831302050656  0.7464034048305205
  0.0069292566811923  0.7479709071228299  0.2431734688930907
  0.9927384072389188  0.7501712368893154  0.7429071594666443
  0.5076047149569881  0.2407638964333891  0.2501604541583078
  0.5048541241920369  0.2431850276335548  0.7480536447197086
  0.5069889707590719  0.7508590470420541  0.2519390897054808
  0.5023987918104058  0.7429681287999070  0.7418663741766113
  0.2572099086816685  0.9982936357455199  0.0053099765917549
  0.2523067852341438  0.9943590783507275  0.5061073359477531
  0.2440848628583486  0.5081128765656121  0.9975619172255902
  0.2553711006144273  0.4943963653477251  0.5068986682347604
  0.7571723640119337  0.0011568413071110  0.9945419783003062
  0.7490664016590860  0.0090183051570197  0.4949081186589974
  0.7417339536321350  0.4999450952203243  0.0045872205640607
  0.7559833366113635  0.4980098850560553  0.5048992971871437
  0.2454516379464268  0.0027235067279851  0.2431836265736439
  0.2566245065388366  0.9987513812245429  0.7443445518364469
  0.2547340077884024  0.4915302405670119  0.2518575022083291
  0.2461862688339673  0.5056831729930585  0.7409713647254794
  0.7445368605889200  0.0022655670334301  0.2557724537263296
  0.7483148751958528  0.0062582093923760  0.7559482181797262
  0.7552010673200431  0.4970967225616810  0.2417574407689349
  0.7570178133256523  0.4978602124390862  0.7417123526576566
  0.2577575966226177  0.2517029331790836  0.0050789665627899
  0.2547750127075717  0.2563457614823949  0.5054572481061058
  0.2524994021773761  0.7424493185186033  0.9941072283818159
  0.2530631788706477  0.7561129386883346  0.4935149700375993
  0.7572049013830368  0.2523494099518923  0.0065191994251474
  0.7408009558401898  0.2434550144792628  0.4992230814234409
  0.7417793250211375  0.7479998039044877  0.9941512449820120
  0.7420276025851896  0.7530405487023533  0.4938684701416751
  0.2517578247309876  0.2578100013626281  0.2439710962769204
  0.2437334114541465  0.2520537812855620  0.7430773867342393
  0.2441895640238171  0.7475437237706190  0.2563875241270318
  0.2474859286114171  0.7416527690724036  0.7568920513372775
  0.7428980861170575  0.2513711325052756  0.2407812871697422
  0.7434818725968392  0.2426831948695703  0.7485860966163504
  0.7458431747328100  0.7490084053484503  0.2569510923566285
  0.7575747265086263  0.7487237459393918  0.7568581695570302
  0.0100700515284266  0.5021330797846836  0.6245598801098406
  0.9983843766937485  0.0054056295059708  0.3762054059054173
  0.0032911690312525  0.0020655039805906  0.8727731963700613
  0.4977355564093510  0.5057333877539973  0.3755703722333834
  0.4921242958389382  0.5090789862916413  0.8738082985166776
  0.9991408676955440  0.7447696118298790  0.1254684961520462
  0.0027289849404937  0.7458239270062887  0.6241735594174866
  0.5016848536204598  0.7663900248776936  0.6247590705927079
  0.0025496103074835  0.2474575461200578  0.3765138563642180
  0.2583023396393785  0.0031764445973859  0.1247806107890088
  0.2580892641054763  0.0041800385061538  0.6264086883035069
  0.2368188021439988  0.4938968835675531  0.6258404840599756
  0.7484843804810737  0.4833526651983727  0.1249171187961666
  0.7455857623523465  0.4864402762654780  0.6239537476613914
  0.7486916594214438  0.0118604537790434  0.3759691911456788
  0.7426233804182211  0.0102662576878319  0.8723368422564327
  0.2535190989122680  0.2509718856583203  0.1254754598275585
  0.2596166442445612  0.2490012635371444  0.6257088205389493
  0.7506166859575872  0.2686305270198588  0.1252585856414276
  0.2554993697189014  0.7458652749142958  0.3751172443255133
  0.2517638952332482  0.7515494334995902  0.8754281629696866
  0.7521634037427669  0.7427645232088360  0.3742399044865488
  0.7482264125980661  0.7417881629357486  0.8752322765988542
  0.1245111595538190  0.5070253634873334  0.9924971739774533
  0.6256983842337643  0.5101323802222045  0.9968363494469364
  0.1255106004207338  0.0067683396396744  0.2483006320425693
  0.6257674930182557  0.0056368112693933  0.2450231208363040
  0.6258945578989370  0.2684634052181785  0.5072250645397518
  0.6247486118134064  0.7381559263144052  0.0038983800674598
  0.6250244475762867  0.7686200777367856  0.4953796948481235
  0.1243594608557423  0.2592380440820558  0.7418034838556908
  0.1254220865402824  0.7477583363958766  0.2526088104802137
  0.6258765727815158  0.2390690018563380  0.2510872540451162
  0.6245878675887070  0.2532971466224154  0.7301892630893070
  0.6231977638038544  0.7498409330428525  0.2505698685368678
  0.3765565226144579  0.9974779890358690  0.9879204744232435
  0.3756548629767234  0.5117773750951248  0.5076158408075827
  0.8727770819328324 -0.0005082498461362  0.9959537011834385
  0.8754151846197156  0.5118129283649312  0.5017334502862061
  0.3749860775166126  0.0075231538468884  0.7652621192884723
  0.3735802612968644  0.4912016968986972  0.2475614530007790
  0.8752578118346805  0.4923752506851563  0.2502526041158481
  0.8747853566528182  0.5118226938043601  0.7438277780965034
  0.3760806109802069  0.2503259027112005  0.9944133384793087
  0.8737585555245865  0.2510999360222831  0.9961769463489207
  0.8747172546737076  0.7387844826377169  0.7484860375864745
  0.5258634071119647  0.1268906939261018  0.5280156401874915
  0.0048520125426934  0.1262116273308554  0.7438606088951422
  0.4894504847499998  0.1250200756654157  0.2412101872054799
  0.5111168862646737  0.1237615715814564  0.7284864358220905
  0.5066651966997799  0.6259003612542927  0.7381441320035288
  0.0028213597563615  0.3754133352579617  0.0048180547257166
  0.0046114022225511  0.8749383077556249  0.0018015071630800
  0.9821545900959706  0.8750479542596505  0.4990425897062404
  0.5051592612641226  0.3742967091793576  0.9924423923039796
  0.5085703560764965  0.8751592000284979  0.9896020364771801
  0.0115320595218998  0.3737846042224172  0.2461104593584250
  0.2595899079891414  0.6250885472286234  0.0032070810927501
  0.7283206447558145  0.1256365734362927  0.5182679021131088
  0.2422197385965613  0.6243693641036694  0.7494033711999548
  0.7375358740836430  0.1247044172881445  0.7289230357087110
  0.2622028348197940  0.3727390543240280  0.4939861234193508
  0.2643699842729462  0.8760623287851793  0.5000402468013720
  0.2372784939947236  0.3741546745390884  0.2574605839270079
  0.9970132874622235  0.0031504084869103  0.1262965391185613
 -0.0000309996564226  0.9974131339137284  0.6239702874200052
  0.0016914738094406  0.5100895869905017  0.1248236206324154
  0.4911408453430294  0.9889025018662818  0.1251471765703974
  0.4863961746456870  0.9770157371377272  0.6296024219454602
  0.5036480872700236  0.4959207928149715  0.1268485190255674
  0.5094640164741385  0.4877334097233161  0.6250768859122268
  0.0010762867743353  0.4947816136755573  0.3759438255118324
  0.9929414989842460  0.4964088494740320  0.8724884580322342
  0.5088026753890751  0.0105550980515697  0.3737839452127658
  0.5196941828823548  0.0158037916096259  0.8737569882884977
 -0.0009752810826668  0.2449833912976538  0.1269457800349245
  0.9897047775553247  0.2575076112167229  0.6216342350538940
  0.4988937151402712  0.2573533819771290  0.1260453517990738
  0.4819843099002852  0.2676382005034229  0.6251893154280582
  0.4967255688968027  0.7590593806471493  0.1263499104979167
  0.0029408363093762  0.2513971363703419  0.8735367229820280
  0.9935408383041269  0.7508869566837314  0.3752437247311163
  0.0011748238627673  0.7513938369657885  0.8736779185394148
  0.5034053165128825  0.2376706445934021  0.3779959299230957
  0.5121694705804211  0.2351352845986014  0.8727603496251793
  0.4936857092243505  0.7411763789570450  0.3756923683616963
  0.4988140393057005  0.7392019277492323  0.8733375957392050
  0.2421523912976739  0.4927896453695209  0.1246947264555021
  0.7526459969677176  0.9925479260878109  0.1254140153432091
  0.7538502682307020  0.9868770868364682  0.6235080140681093
  0.2474156395975495  0.0017585612004381  0.3753249484443280
  0.2382803706904689  0.9937805565132699  0.8747387758882238
  0.2498058257147192  0.5119439710040932  0.3755294436624291
  0.2616311939416143  0.4990110329313456  0.8735340582143123
  0.7481098728652708  0.5120675042085399  0.3744431179145573
  0.7540426576348971  0.5125906053362733  0.8736546207212702
  0.2516021153300349  0.7548874650052372  0.1251987144805802
  0.2476122625987325  0.7515860101493600  0.6253614750151417
  0.7629943254047781  0.2680399655379546  0.6231941524542919
  0.7525305752326441  0.7582588778944176  0.1255650262850246
  0.7478082412474468  0.7573611965204836  0.6244054773995716
  0.2468589698412315  0.2425761427197413  0.3750427238165413
  0.2446498840386735  0.2516019617613413  0.8747106974303644
  0.7513786754716181  0.2332859524201159  0.3746231776221759
  0.7408758703266028  0.2346259906417177  0.8735215472696278
  0.1261235007984119  0.0045522485013942  0.0054904948223745
  0.1246255346194368  0.9868919618886177  0.5024217031689194
  0.1233578876404861  0.4889422782812871  0.4905912723056091
  0.6254713672999641  0.0045927951656016  0.0096653378194359
  0.6290825767471961  0.9750441063599192  0.5068203357925445
  0.6261040690411536  0.4857366729799987  0.4956801884558339
  0.1266416680678331  0.9914989014118497  0.7434328931008675
  0.1237673477928107  0.5112191157018855  0.2510372579976014
  0.1231038379300876  0.4868549813194715  0.7642717038053267
  0.6237777649080241  0.9941862429492524  0.7317816623794893
  0.6250652085108908  0.5032743207442980  0.2509269775884251
  0.6264168293545698  0.4895622428205818  0.7576929647151155
  0.1250012204444463  0.2476384879622618  1.0008833727099953
  0.1234084283178367  0.2614874134949789  0.5066848097916770
  0.1251670122808024  0.7409041727005866  0.0003619231962566
  0.1241761571238497  0.7638886287271244  0.4949662278324341
  0.6261917535485911  0.2464301990730686  0.0017103985191008
  0.1250040768384110  0.2325554098392114  0.2490801761496323
  0.1234164514182600  0.7609282990750279  0.7518419384850640
  0.6265022501516203  0.7597053500541774  0.7502806838388545
  0.3730852214253534  0.0235674193780859  0.4916347510561533
  0.3734651823750271  0.4918852758119666  0.0092914159072513
  0.8748256321271728  0.0221236437223221  0.5050911854280590
  0.8743032604193938  0.4945566443214477  1.0003913372675681
  0.3769519728566504  0.9921083298000012  0.2589067736867041
  0.3748508274046764  0.5032397876483661  0.7374236080754042
  0.8740466285779631  0.9958671327264875  0.2488527029124696
  0.8740381485165514  0.0038900039620143  0.7472005366553877
  0.3788839876716087  0.2297524393315164  0.4923339716899071
  0.3768351958582303  0.7612901535972183  0.0016260009234071
  0.3777271760251589  0.7342003917309904  0.5043345612348351
  0.8745743368439195  0.2336750814673924  0.4969583209899334
  0.8721532869822202  0.7581652002240595  0.9983596938810956
  0.8725788699129525  0.7323373185908372  0.5043114677619316
  0.3782710050278305  0.2629893451903299  0.2565034550052814
  0.3767123892847571  0.2404240709806596  0.7609680673230462
  0.3771676467366631  0.7515844844998527  0.2470838836157742
  0.3753839067728087  0.7490487082502705  0.7482413648559497
  0.8741723923328955  0.2605704940681851  0.2532992318794603
  0.8723873958981329  0.2443999189865459  0.7549106487270296
  0.8737178020997777  0.7506746761423982  0.2485344373744238
  0.0011386744163279  0.1270504671758116  0.0003874958950799
  0.0139968752140046  0.1257348247390449  0.5091694339346517
  0.9899805637914626  0.6253047957310524  0.9928586530242959
  0.0134422948496899  0.6266977090468556  0.4921513275378768
  0.5016368039445297  0.1243656444392807  0.0096143244926051
  0.4865990236260544  0.6275473081139614  0.0087473504891168
  0.5162488173012552  0.6264687019934512  0.5097688931861564
  0.9875629936470437  0.1277922488487548  0.2472328299846440
  0.9943115544239607  0.6230950659895598  0.2583960841755932
  0.0153857711915284  0.6243019167546786  0.7559809985676293
  0.4970784638845541  0.6257486565096345  0.2429529652320753
  0.9874868550583841  0.3736998046607158  0.4989281706678169
  0.4846041097651532  0.3713021987546135  0.4918223801034812
  0.4811376823930673  0.8767375812331690  0.4851987602299782
  0.9875625875772072  0.3742032336400868  0.7496199652020666
  0.9993093816908343  0.8758367687354084  0.2503824354326162
  0.9918709444809578  0.8757443381925638  0.7473436362546111
  0.5095389632499737  0.3713378970795563  0.2567047181784354
  0.4939401185882877  0.3722009360215190  0.7599080956787028
  0.5006032932096044  0.8756737242538758  0.2594839183129081
  0.4985224755451925  0.8763165678612472  0.7682062974500119
  0.2487379895309758  0.1248847404149224  0.9928472156965278
  0.2333297610983612  0.1249386447401775  0.4989225758769831
  0.2370346800369625  0.6266900364695160  0.5057342088103097
  0.7476110575363919  0.1265393917005986  0.0137315347881944
  0.7639285642501227  0.6249353539988084  0.0133464976080628
  0.7344219637516050  0.6255909689154454  0.5092128199471532
  0.2646315226289432  0.1266390938882934  0.2527959527301114
  0.2410678584275435  0.1247417193260837  0.7580280211602320
  0.2551035243197056  0.6233466214829977  0.2400918735960279
  0.7640023375974250  0.1266902225810597  0.2353952020259137
  0.7513196489440349  0.6243122862174977  0.2370921495962292
  0.7347591942038209  0.6243945738308189  0.7383206801963378
  0.2456745839420376  0.3761676297168763  0.9963806406243594
  0.2422410489312636  0.8738159442590330  0.0033072587590876
  0.7439734662122027  0.3747999152374583  0.9781505272991472
  0.7667011728285875  0.3723199431953665  0.4832710369918630
  0.7411220803591322  0.8749963174756497  0.9945037776083949
  0.7711870852919979  0.8766463149607416  0.4927744113046262
  0.2616170718099696  0.3755772516282192  0.7561645581567086
  0.2503330556437506  0.8755218753922552  0.2515279445101461
  0.2556831532082579  0.8737748013893468  0.7464295801781201
  0.7416871256855452  0.3735452138508730  0.2719230398144966
  0.7570149246005536  0.3729064027587779  0.7646981983681242
  0.7502521527744279  0.8756855490004674  0.2561769422005385
  0.7554666892691028  0.8756185814537172  0.7553684225135739
 
  0.00000000E+00  0.00000000E+00  0.00000000E+00
  0.00000000E+00  0.00000000E+00  0.00000000E+00
  0.00000000E+00  0.00000000E+00  0.00000000E+00
  0.00000000E+00  0.00000000E+00  0.00000000E+00
  0.00000000E+00  0.00000000E+00  0.00000000E+00
  0.00000000E+00  0.00000000E+00  0.00000000E+00
  0.00000000E+00  0.00000000E+00  0.00000000E+00
  0.00000000E+00  0.00000000E+00  0.00000000E+00
  0.00000000E+00  0.00000000E+00  0.00000000E+00
  0.00000000E+00  0.00000000E+00  0.00000000E+00
  0.00000000E+00  0.00000000E+00  0.00000000E+00
  0.00000000E+00  0.00000000E+00  0.00000000E+00
  0.00000000E+00  0.00000000E+00  0.00000000E+00
  0.00000000E+00  0.00000000E+00  0.00000000E+00
  0.00000000E+00  0.00000000E+00  0.00000000E+00
  0.00000000E+00  0.00000000E+00  0.00000000E+00
  0.00000000E+00  0.00000000E+00  0.00000000E+00
  0.00000000E+00  0.00000000E+00  0.00000000E+00
  0.00000000E+00  0.00000000E+00  0.00000000E+00
  0.00000000E+00  0.00000000E+00  0.00000000E+00
  0.00000000E+00  0.00000000E+00  0.00000000E+00
  0.00000000E+00  0.00000000E+00  0.00000000E+00
  0.00000000E+00  0.00000000E+00  0.00000000E+00
  0.00000000E+00  0.00000000E+00  0.00000000E+00
  0.00000000E+00  0.00000000E+00  0.00000000E+00
  0.00000000E+00  0.00000000E+00  0.00000000E+00
  0.00000000E+00  0.00000000E+00  0.00000000E+00
  0.00000000E+00  0.00000000E+00  0.00000000E+00
  0.00000000E+00  0.00000000E+00  0.00000000E+00
  0.00000000E+00  0.00000000E+00  0.00000000E+00
  0.00000000E+00  0.00000000E+00  0.00000000E+00
  0.00000000E+00  0.00000000E+00  0.00000000E+00
  0.00000000E+00  0.00000000E+00  0.00000000E+00
  0.00000000E+00  0.00000000E+00  0.00000000E+00
  0.00000000E+00  0.00000000E+00  0.00000000E+00
  0.00000000E+00  0.00000000E+00  0.00000000E+00
  0.00000000E+00  0.00000000E+00  0.00000000E+00
  0.00000000E+00  0.00000000E+00  0.00000000E+00
  0.00000000E+00  0.00000000E+00  0.00000000E+00
  0.00000000E+00  0.00000000E+00  0.00000000E+00
  0.00000000E+00  0.00000000E+00  0.00000000E+00
  0.00000000E+00  0.00000000E+00  0.00000000E+00
  0.00000000E+00  0.00000000E+00  0.00000000E+00
  0.00000000E+00  0.00000000E+00  0.00000000E+00
  0.00000000E+00  0.00000000E+00  0.00000000E+00
  0.00000000E+00  0.00000000E+00  0.00000000E+00
  0.00000000E+00  0.00000000E+00  0.00000000E+00
  0.00000000E+00  0.00000000E+00  0.00000000E+00
  0.00000000E+00  0.00000000E+00  0.00000000E+00
  0.00000000E+00  0.00000000E+00  0.00000000E+00
  0.00000000E+00  0.00000000E+00  0.00000000E+00
  0.00000000E+00  0.00000000E+00  0.00000000E+00
  0.00000000E+00  0.00000000E+00  0.00000000E+00
  0.00000000E+00  0.00000000E+00  0.00000000E+00
  0.00000000E+00  0.00000000E+00  0.00000000E+00
  0.00000000E+00  0.00000000E+00  0.00000000E+00
  0.00000000E+00  0.00000000E+00  0.00000000E+00
  0.00000000E+00  0.00000000E+00  0.00000000E+00
  0.00000000E+00  0.00000000E+00  0.00000000E+00
  0.00000000E+00  0.00000000E+00  0.00000000E+00
  0.00000000E+00  0.00000000E+00  0.00000000E+00
  0.00000000E+00  0.00000000E+00  0.00000000E+00
  0.00000000E+00  0.00000000E+00  0.00000000E+00
  0.00000000E+00  0.00000000E+00  0.00000000E+00
  0.00000000E+00  0.00000000E+00  0.00000000E+00
  0.00000000E+00  0.00000000E+00  0.00000000E+00
  0.00000000E+00  0.00000000E+00  0.00000000E+00
  0.00000000E+00  0.00000000E+00  0.00000000E+00
  0.00000000E+00  0.00000000E+00  0.00000000E+00
  0.00000000E+00  0.00000000E+00  0.00000000E+00
  0.00000000E+00  0.00000000E+00  0.00000000E+00
  0.00000000E+00  0.00000000E+00  0.00000000E+00
  0.00000000E+00  0.00000000E+00  0.00000000E+00
  0.00000000E+00  0.00000000E+00  0.00000000E+00
  0.00000000E+00  0.00000000E+00  0.00000000E+00
  0.00000000E+00  0.00000000E+00  0.00000000E+00
  0.00000000E+00  0.00000000E+00  0.00000000E+00
  0.00000000E+00  0.00000000E+00  0.00000000E+00
  0.00000000E+00  0.00000000E+00  0.00000000E+00
  0.00000000E+00  0.00000000E+00  0.00000000E+00
  0.00000000E+00  0.00000000E+00  0.00000000E+00
  0.00000000E+00  0.00000000E+00  0.00000000E+00
  0.00000000E+00  0.00000000E+00  0.00000000E+00
  0.00000000E+00  0.00000000E+00  0.00000000E+00
  0.00000000E+00  0.00000000E+00  0.00000000E+00
  0.00000000E+00  0.00000000E+00  0.00000000E+00
  0.00000000E+00  0.00000000E+00  0.00000000E+00
  0.00000000E+00  0.00000000E+00  0.00000000E+00
  0.00000000E+00  0.00000000E+00  0.00000000E+00
  0.00000000E+00  0.00000000E+00  0.00000000E+00
  0.00000000E+00  0.00000000E+00  0.00000000E+00
  0.00000000E+00  0.00000000E+00  0.00000000E+00
  0.00000000E+00  0.00000000E+00  0.00000000E+00
  0.00000000E+00  0.00000000E+00  0.00000000E+00
  0.00000000E+00  0.00000000E+00  0.00000000E+00
  0.00000000E+00  0.00000000E+00  0.00000000E+00
  0.00000000E+00  0.00000000E+00  0.00000000E+00
  0.00000000E+00  0.00000000E+00  0.00000000E+00
  0.00000000E+00  0.00000000E+00  0.00000000E+00
  0.00000000E+00  0.00000000E+00  0.00000000E+00
  0.00000000E+00  0.00000000E+00  0.00000000E+00
  0.00000000E+00  0.00000000E+00  0.00000000E+00
  0.00000000E+00  0.00000000E+00  0.00000000E+00
  0.00000000E+00  0.00000000E+00  0.00000000E+00
  0.00000000E+00  0.00000000E+00  0.00000000E+00
  0.00000000E+00  0.00000000E+00  0.00000000E+00
  0.00000000E+00  0.00000000E+00  0.00000000E+00
  0.00000000E+00  0.00000000E+00  0.00000000E+00
  0.00000000E+00  0.00000000E+00  0.00000000E+00
  0.00000000E+00  0.00000000E+00  0.00000000E+00
  0.00000000E+00  0.00000000E+00  0.00000000E+00
  0.00000000E+00  0.00000000E+00  0.00000000E+00
  0.00000000E+00  0.00000000E+00  0.00000000E+00
  0.00000000E+00  0.00000000E+00  0.00000000E+00
  0.00000000E+00  0.00000000E+00  0.00000000E+00
  0.00000000E+00  0.00000000E+00  0.00000000E+00
  0.00000000E+00  0.00000000E+00  0.00000000E+00
  0.00000000E+00  0.00000000E+00  0.00000000E+00
  0.00000000E+00  0.00000000E+00  0.00000000E+00
  0.00000000E+00  0.00000000E+00  0.00000000E+00
  0.00000000E+00  0.00000000E+00  0.00000000E+00
  0.00000000E+00  0.00000000E+00  0.00000000E+00
  0.00000000E+00  0.00000000E+00  0.00000000E+00
  0.00000000E+00  0.00000000E+00  0.00000000E+00
  0.00000000E+00  0.00000000E+00  0.00000000E+00
  0.00000000E+00  0.00000000E+00  0.00000000E+00
  0.00000000E+00  0.00000000E+00  0.00000000E+00
  0.00000000E+00  0.00000000E+00  0.00000000E+00
  0.00000000E+00  0.00000000E+00  0.00000000E+00
  0.00000000E+00  0.00000000E+00  0.00000000E+00
  0.00000000E+00  0.00000000E+00  0.00000000E+00
  0.00000000E+00  0.00000000E+00  0.00000000E+00
  0.00000000E+00  0.00000000E+00  0.00000000E+00
  0.00000000E+00  0.00000000E+00  0.00000000E+00
  0.00000000E+00  0.00000000E+00  0.00000000E+00
  0.00000000E+00  0.00000000E+00  0.00000000E+00
  0.00000000E+00  0.00000000E+00  0.00000000E+00
  0.00000000E+00  0.00000000E+00  0.00000000E+00
  0.00000000E+00  0.00000000E+00  0.00000000E+00
  0.00000000E+00  0.00000000E+00  0.00000000E+00
  0.00000000E+00  0.00000000E+00  0.00000000E+00
  0.00000000E+00  0.00000000E+00  0.00000000E+00
  0.00000000E+00  0.00000000E+00  0.00000000E+00
  0.00000000E+00  0.00000000E+00  0.00000000E+00
  0.00000000E+00  0.00000000E+00  0.00000000E+00
  0.00000000E+00  0.00000000E+00  0.00000000E+00
  0.00000000E+00  0.00000000E+00  0.00000000E+00
  0.00000000E+00  0.00000000E+00  0.00000000E+00
  0.00000000E+00  0.00000000E+00  0.00000000E+00
  0.00000000E+00  0.00000000E+00  0.00000000E+00
  0.00000000E+00  0.00000000E+00  0.00000000E+00
  0.00000000E+00  0.00000000E+00  0.00000000E+00
  0.00000000E+00  0.00000000E+00  0.00000000E+00
  0.00000000E+00  0.00000000E+00  0.00000000E+00
  0.00000000E+00  0.00000000E+00  0.00000000E+00
  0.00000000E+00  0.00000000E+00  0.00000000E+00
  0.00000000E+00  0.00000000E+00  0.00000000E+00
  0.00000000E+00  0.00000000E+00  0.00000000E+00
  0.00000000E+00  0.00000000E+00  0.00000000E+00
  0.00000000E+00  0.00000000E+00  0.00000000E+00
  0.00000000E+00  0.00000000E+00  0.00000000E+00
  0.00000000E+00  0.00000000E+00  0.00000000E+00
  0.00000000E+00  0.00000000E+00  0.00000000E+00
  0.00000000E+00  0.00000000E+00  0.00000000E+00
  0.00000000E+00  0.00000000E+00  0.00000000E+00
  0.00000000E+00  0.00000000E+00  0.00000000E+00
  0.00000000E+00  0.00000000E+00  0.00000000E+00
  0.00000000E+00  0.00000000E+00  0.00000000E+00
  0.00000000E+00  0.00000000E+00  0.00000000E+00
  0.00000000E+00  0.00000000E+00  0.00000000E+00
  0.00000000E+00  0.00000000E+00  0.00000000E+00
  0.00000000E+00  0.00000000E+00  0.00000000E+00
  0.00000000E+00  0.00000000E+00  0.00000000E+00
  0.00000000E+00  0.00000000E+00  0.00000000E+00
  0.00000000E+00  0.00000000E+00  0.00000000E+00
  0.00000000E+00  0.00000000E+00  0.00000000E+00
  0.00000000E+00  0.00000000E+00  0.00000000E+00
  0.00000000E+00  0.00000000E+00  0.00000000E+00
  0.00000000E+00  0.00000000E+00  0.00000000E+00
  0.00000000E+00  0.00000000E+00  0.00000000E+00
  0.00000000E+00  0.00000000E+00  0.00000000E+00
  0.00000000E+00  0.00000000E+00  0.00000000E+00
  0.00000000E+00  0.00000000E+00  0.00000000E+00
  0.00000000E+00  0.00000000E+00  0.00000000E+00
  0.00000000E+00  0.00000000E+00  0.00000000E+00
  0.00000000E+00  0.00000000E+00  0.00000000E+00
  0.00000000E+00  0.00000000E+00  0.00000000E+00
  0.00000000E+00  0.00000000E+00  0.00000000E+00
  0.00000000E+00  0.00000000E+00  0.00000000E+00
  0.00000000E+00  0.00000000E+00  0.00000000E+00
  0.00000000E+00  0.00000000E+00  0.00000000E+00
  0.00000000E+00  0.00000000E+00  0.00000000E+00
  0.00000000E+00  0.00000000E+00  0.00000000E+00
  0.00000000E+00  0.00000000E+00  0.00000000E+00
  0.00000000E+00  0.00000000E+00  0.00000000E+00
  0.00000000E+00  0.00000000E+00  0.00000000E+00
  0.00000000E+00  0.00000000E+00  0.00000000E+00
  0.00000000E+00  0.00000000E+00  0.00000000E+00
  0.00000000E+00  0.00000000E+00  0.00000000E+00
  0.00000000E+00  0.00000000E+00  0.00000000E+00
  0.00000000E+00  0.00000000E+00  0.00000000E+00
  0.00000000E+00  0.00000000E+00  0.00000000E+00
  0.00000000E+00  0.00000000E+00  0.00000000E+00
  0.00000000E+00  0.00000000E+00  0.00000000E+00
  0.00000000E+00  0.00000000E+00  0.00000000E+00
  0.00000000E+00  0.00000000E+00  0.00000000E+00
  0.00000000E+00  0.00000000E+00  0.00000000E+00
  0.00000000E+00  0.00000000E+00  0.00000000E+00
  0.00000000E+00  0.00000000E+00  0.00000000E+00
  0.00000000E+00  0.00000000E+00  0.00000000E+00
  0.00000000E+00  0.00000000E+00  0.00000000E+00
  0.00000000E+00  0.00000000E+00  0.00000000E+00
  0.00000000E+00  0.00000000E+00  0.00000000E+00
  0.00000000E+00  0.00000000E+00  0.00000000E+00
  0.00000000E+00  0.00000000E+00  0.00000000E+00
  0.00000000E+00  0.00000000E+00  0.00000000E+00
  0.00000000E+00  0.00000000E+00  0.00000000E+00
  0.00000000E+00  0.00000000E+00  0.00000000E+00
  0.00000000E+00  0.00000000E+00  0.00000000E+00
  0.00000000E+00  0.00000000E+00  0.00000000E+00
  0.00000000E+00  0.00000000E+00  0.00000000E+00
  0.00000000E+00  0.00000000E+00  0.00000000E+00
  0.00000000E+00  0.00000000E+00  0.00000000E+00
  0.00000000E+00  0.00000000E+00  0.00000000E+00
  0.00000000E+00  0.00000000E+00  0.00000000E+00
  0.00000000E+00  0.00000000E+00  0.00000000E+00
  0.00000000E+00  0.00000000E+00  0.00000000E+00
  0.00000000E+00  0.00000000E+00  0.00000000E+00
  0.00000000E+00  0.00000000E+00  0.00000000E+00
  0.00000000E+00  0.00000000E+00  0.00000000E+00
  0.00000000E+00  0.00000000E+00  0.00000000E+00
  0.00000000E+00  0.00000000E+00  0.00000000E+00
  0.00000000E+00  0.00000000E+00  0.00000000E+00
  0.00000000E+00  0.00000000E+00  0.00000000E+00
  0.00000000E+00  0.00000000E+00  0.00000000E+00
  0.00000000E+00  0.00000000E+00  0.00000000E+00
  0.00000000E+00  0.00000000E+00  0.00000000E+00
  0.00000000E+00  0.00000000E+00  0.00000000E+00
  0.00000000E+00  0.00000000E+00  0.00000000E+00
  0.00000000E+00  0.00000000E+00  0.00000000E+00
  0.00000000E+00  0.00000000E+00  0.00000000E+00
  0.00000000E+00  0.00000000E+00  0.00000000E+00
  0.00000000E+00  0.00000000E+00  0.00000000E+00
  0.00000000E+00  0.00000000E+00  0.00000000E+00
  0.00000000E+00  0.00000000E+00  0.00000000E+00
  0.00000000E+00  0.00000000E+00  0.00000000E+00
  0.00000000E+00  0.00000000E+00  0.00000000E+00
  0.00000000E+00  0.00000000E+00  0.00000000E+00
  0.00000000E+00  0.00000000E+00  0.00000000E+00
  0.00000000E+00  0.00000000E+00  0.00000000E+00
  0.00000000E+00  0.00000000E+00  0.00000000E+00
  0.00000000E+00  0.00000000E+00  0.00000000E+00
  0.00000000E+00  0.00000000E+00  0.00000000E+00
  0.00000000E+00  0.00000000E+00  0.00000000E+00
  0.00000000E+00  0.00000000E+00  0.00000000E+00
  0.00000000E+00  0.00000000E+00  0.00000000E+00
  0.00000000E+00  0.00000000E+00  0.00000000E+00
