config 41                               
   1.00000000000000     
    15.4263309999999993    0.0000000000000000    0.0000000000000000
     0.0000000000000000   15.4263309999999993    0.0000000000000000
     0.0000000000000000    0.0000000000000000   15.4263309999999993
   Li   Ti   O    F 
     1    64    64   128
Direct
  0.5900914463283999  0.6178851693502734  0.0918433781101669
  0.9957447620286183  0.9940301585861309  0.9947971438595790
  0.9985162253810583  0.9916378081035485  0.4937940522364421
  0.0065319631493164  0.4960112708684989  0.9975122625177839
  0.9947610329918392  0.5038412788471048  0.5070483673177015
  0.4948812271117071  0.9947307661737850  0.0007721564122250
  0.5020024111490926  0.0089303989993327  0.4985326484138550
  0.5034631221405125  0.4913695732370063  0.9928317855014331
  0.4927135177655110  0.4986405331907524  0.4953316581263806
  0.0067224231606632  0.0037921693473878  0.2560247614676445
  0.0020667099638101  0.0074718279235415  0.7570071757828010
  0.9953599228218973  0.4923141760781581  0.2513015772599596
  0.9931487145293987  0.4997782702074829  0.7418340290770500
  0.5059314594994447  0.0092394371428163  0.2503749812144234
  0.4934199867820679  0.0057496943884023  0.7534607681141117
  0.4932922212116214  0.4952166367161870  0.2590580482408286
  0.5019686861630467  0.5040227445222345  0.7566229056081869
  0.9956497452839010  0.2581976831250339  0.0018727935079849
  0.9984839468142516  0.2482049335171203  0.4912078780622247
  0.9973478598603148  0.7575982003315415  0.0060716519340832
  0.9955467119516622  0.7568601655419683  0.5061683322093994
  0.4957391058860399  0.2574056431013335  0.0025589232377008
  0.5094182697030240  0.2458228095965841  0.4977449808413603
  0.5076746427532755  0.7585633181628508  0.9995981730915753
  0.5067931904007046  0.7534568139193204  0.5084907662887129
  0.9997508770158944  0.2583057651265820  0.2550127206447773
  0.0070248674235469  0.2428348812842160  0.7476119324610330
  0.0031103049100802  0.7477887177817960  0.2425845717898610
  0.9915385023473938  0.7500692766253015  0.7441745242010867
  0.5072818800135788  0.2405992190448497  0.2525799431644998
  0.5074271581576016  0.2437533227940792  0.7514316722655272
  0.5025237900990513  0.7519824545695728  0.2516312352092248
  0.5011964079902379  0.7416862752375750  0.7422996132810133
  0.2566272477856344  0.9975674889659585  0.0060457423873877
  0.2516812487534861  0.9934406252856722  0.5063416321226322
  0.2440191784653019  0.5089676671162414  0.9977813173104877
  0.2555691053979839  0.4943609125200657  0.5065016452672143
  0.7568004665444175  0.9990365904486102  0.9943872211221753
  0.7496715642795712  0.0074198546584141  0.4947016861598492
  0.7422940248576003  0.5010581642620787  0.0052903974456238
  0.7561967600552407  0.4986084171025527  0.5056571486299554
  0.2449268423713525  0.0031551779921662  0.2438224669709812
  0.2586458436037507  0.9979983718661433  0.7444930561935992
  0.2557857675037836  0.4914113672810204  0.2516568481484434
  0.2471647711537453  0.5056631901823438  0.7408814893561017
  0.7443887040193318  0.0018182599058470  0.2556934451141062
  0.7477433871400013  0.0066627825855502  0.7562983079842149
  0.7579108878124489  0.4980879042163662  0.2439685314038964
  0.7579711554895229  0.4982810464533003  0.7426012127772788
  0.2570383542819564  0.2523674524184981  0.0063736853348078
  0.2541851616091399  0.2566955364477915  0.5051475596951257
  0.2513463714588511  0.7421507443871608  0.9940490031664767
  0.2518388944022993  0.7550037661024311  0.4930044688278366
  0.7567171332309830  0.2519186348130653  0.0081990967415474
  0.7422155910439721  0.2430417498423991  0.4975613113347780
  0.7403996387146926  0.7488053532268253  0.9942656267087800
  0.7408694135378094  0.7532462072937863  0.4934350406725914
  0.2503699454348719  0.2581767958514377  0.2439182244428610
  0.2443629752876586  0.2519205955801438  0.7439697330719116
  0.2407978972346809  0.7472415909031511  0.2553813112395922
  0.2469442497958697  0.7415077135473973  0.7569197503002558
  0.7410760657311779  0.2501534556642524  0.2431825970344461
  0.7446151985803509  0.2426167139337511  0.7512180155041832
  0.7412218294531525  0.7495202288840763  0.2545925065673859
  0.7562730149831801  0.7501184059076591  0.7568433852359795
  0.0092363493986715  0.5031631164480882  0.6246710965927417
  0.9969902192055580  0.0059647626547115  0.3763127233472862
  0.0023997509283950  0.0017923367407171  0.8731835592804972
  0.4994734475579097  0.4821370790104532  0.3762951835264561
  0.4957471895305253  0.4864238845607959  0.8738886879209985
  0.9897855788786450  0.7443935272797736  0.1250961697632666
  0.9924315652530206  0.7444677522974417  0.6249819800840657
  0.4897035550880298  0.7432710304204400  0.6253091027624843
  0.9903261965497056  0.2476075044155187  0.3763105103502320
  0.2571115452135805  0.0018724810323565  0.1251362461555637
  0.2588816389492770  0.0034646819386916  0.6254015733581990
  0.2388522133808037  0.4926244663041656  0.6257003230476345
  0.7506335661273383  0.4935237554583524  0.1255171061639209
  0.7468981262839803  0.4917861575844985  0.6243852190884747
  0.7492896017968093  1.0006693664619595  0.3763947102531131
  0.7430964569303551  0.9992497255106453  0.8739271920341593
  0.2420270249843390  0.2513944280713779  0.1255062109124848
  0.2501340247897877  0.2510848822540035  0.6249879771087102
  0.7377541498392671  0.2587667826019721  0.1265629002433243
  0.2459138118043591  0.7446220410693571  0.3750993174387235
  0.2422152675334173  0.7504968904692708  0.8759743752885690
  0.7415534299999815  0.7524209495451842  0.3753708907129354
  0.7363205440458818  0.7512040329767015  0.8759411204918111
  0.1248422052905985  0.5128994939253090  0.9935173509882186
  0.6254349460318275  0.5213285414296041  0.0040855952192629
  0.1253662844988722  0.0108389337167972  0.2500576972490795
  0.6252259603106985  0.0132953746886807  0.2487458589944587
  0.6247812114077921  0.2643629556358512  0.4901964654655379
  0.6243509659973383  0.7265716801990960  0.0175310908678767
  0.6240364215231532  0.7684909032716004  0.5096056832060557
  0.1251179947225393  0.2538992357003840  0.7528642961072072
  0.1230852271183388  0.7441058416871115  0.2447130635155321
  0.6255360680997312  0.2366741520833584  0.2653862327494307
  0.6260874104573791  0.2554992499780033  0.7517454859017363
  0.6267014364231197  0.7394676928446573  0.2361164731081081
  0.3770837081491418  0.9907443727893597  0.9910182423581779
  0.3764084466553351  0.5106115647865727  0.5049760638389051
  0.8726164928634565  0.9903886416587726  0.9980452468436039
  0.8758547839547969  0.5098896403175494  0.4999729926821984
  0.3767609904079244  0.9984917428179291  0.7611981139411674
  0.3744348623737099  0.4872059281963891  0.2461959418195724
  0.8766680221145690  0.4864723470703683  0.2524746129477146
  0.8756462555626269  0.5118310752476646  0.7462320387592761
  0.3766324949875636  0.2566864870799420  0.0081670207415545
  0.8739625974556492  0.2594691141659316  0.0093771694977762
  0.8739146334663779  0.7411298493441140  0.7599247632872602
  0.5173593772485686  0.1229285558019861  0.4867883700968346
  0.9989093525894833  0.1261540904485601  0.7442698777594483
  0.4870677870070168  0.1262027875483208  0.2705557103110700
  0.5040231439372762  0.1243377757117802  0.7588381024981220
  0.5046737019566869  0.6239320093483812  0.7579665490090102
  0.0092264988081166  0.3757725077522998  0.0053948287682869
  0.0105704333423783  0.8742708610982228  0.0027746930344933
  0.9854463643393587  0.8750008802250896  0.4991522203155083
  0.5133308999077246  0.3732532748903273  0.0160316358552598
  0.5138836924633327  0.8753695281745411  0.0135093455750767
  0.0155162001708173  0.3734661175951132  0.2463882956146816
  0.2652340186797081  0.6250633075169642  0.0039698523113681
  0.7337904800061110  0.1255609327723680  0.5047770357924473
  0.2451947314543141  0.6242368644640938  0.7485581766040386
  0.7491270103406912  0.1250047184292718  0.7438895056635514
  0.2597049506167313  0.3731273753829475  0.4920740076205617
  0.2607555795572787  0.8757495234006473  0.4987531944940186
  0.2352795392179268  0.3743537735994236  0.2587884619471938
  0.9983445977922479  0.0037189589592780  0.1264869778728213
  0.0019359408629155  0.9973322648505304  0.6238939990977367
  0.9999279943505390  0.5102545597040367  0.1249946700830095
  0.4907300483367935  0.0210982964069708  0.1256944592919554
  0.4937983419843779  0.0081265712499251  0.6232951996284548
  0.5077985107177740  0.5226719627265264  0.1268644343593814
  0.5102480128879677  0.5063605406514814  0.6245405310477544
  0.0037474551347665  0.4947740664135292  0.3759657410521260
  0.9944453988387986  0.4957750048730052  0.8730607753111774
  0.5066528966155780  0.9815153652514936  0.3767701208205249
  0.5187814803821099  0.9893164916741936  0.8759367706717162
  0.0115586308374130  0.2440289778075042  0.1271940836355559
  0.0041022895306467  0.2583625443734607  0.6213744345176831
  0.5115347882897057  0.2288559379579163  0.1269455404516213
  0.5025288783111894  0.2367318995063612  0.6226840425035909
  0.4880726974805852  0.7289160970598193  0.1211511210476656
  0.9916930875467795  0.2516265917918012  0.8744614475529080
  0.0015013980033083  0.7512462895711403  0.3759103999603801
  0.0089402178571341  0.7511881980270553  0.8742660117868120
  0.4885736483985592  0.2710609508649787  0.3755747277063607
  0.4966799584905641  0.2642318683675390  0.8752302430151787
  0.5014346278359714  0.7673241956812171  0.3813096691638380
  0.5124993237291302  0.7596898878198547  0.8746018921046912
  0.2430818153565887  0.4917507357894049  0.1244284954000377
  0.7509389258820570  0.0030912081892466  0.1262366696260412
  0.7492288000020436  0.9948598160151509  0.6233696343735232
  0.2501769900386880  0.0031147209002166  0.3755755994562245
  0.2409949754228851  0.9947514980628810  0.8748512000701424
  0.2504580250014648  0.5136224967606482  0.3748284552110935
  0.2622221645061857  0.4999154272108733  0.8741578670538087
  0.7465251793985770  0.5072327504672429  0.3747171987958163
  0.7508355615623201  0.5059338092915119  0.8749002671181181
  0.2566408188647711  0.7562909234556646  0.1245538478350297
  0.2565652636781094  0.7518633856259428  0.6259370346973367
  0.7474632700642031  0.2627519904714181  0.6230378703711513
  0.7642700750392124  0.7483780090755847  0.1239663331002543
  0.7577712729715301  0.7486551106484139  0.6254302127960564
  0.2576087514562017  0.2419922615210437  0.3739729963484372
  0.2559221207059983  0.2506150278817118  0.8756679206306003
  0.7665561949217751  0.2424774130337489  0.3743609904137152
  0.7568102352922079  0.2446443306958208  0.8764450907504115
  0.1264936551829719  0.0100592626599044  0.0043294927735781
  0.1249824571983418  0.9927827559512422  0.5010958622849421
  0.1242108529463920  0.4922766177590344  0.4912167963168801
  0.6246882428028682  0.0122126684686890  0.0103656889213845
  0.6239246548211574  0.9783354743729151  0.5054744433023766
  0.6261306042094632  0.4859123196198730  0.4976090894079056
  0.1273434185106232  0.9982429809999506  0.7445048442431569
  0.1243920295767745  0.5136801289910409  0.2495856716685073
  0.1238761432323199  0.4900400418179586  0.7641345211793179
  0.6236539623134815  0.9933443124724327  0.7378347541463748
  0.6261469057682922  0.5094377587716920  0.2482428263584787
  0.6270124400682897  0.4887095616918004  0.7551740383826686
  0.1249891238187758  0.2421224546836093  0.9911334543168292
  0.1239246933854944  0.2554173048720701  0.4932913121689131
  0.1244132830255690  0.7342995833629853  0.0086272245736530
  0.1236151075860758  0.7602517824224738  0.5054198897428261
  0.6260289294491885  0.2389019639394559  0.9907513417873537
  0.1244101647026686  0.2308535472629293  0.2605524678339655
  0.1230393735214710  0.7564573225471848  0.7426111970339804
  0.6260344751145331  0.7562071739582440  0.7379177311557323
  0.3781826322454866  0.0166276405800454  0.4909184459483594
  0.3752528488191123  0.4874006146954085  0.0098353549796947
  0.8744750167858449  0.0183991770836075  0.5070586470282802
  0.8739520034778124  0.4884079180372211  0.9990364229812353
  0.3767177254956545  0.9910314867311570  0.2582748496166336
  0.3755393526266210  0.5013015238395085  0.7391936940199112
  0.8737735998423581  0.9923961900448873  0.2482104945336833
  0.8742446628964720  0.9959636214765638  0.7459147326739515
  0.3795831095260764  0.2339184636630617  0.5007248478755556
  0.3772189232328635  0.7648806645706505  0.9914165398551070
  0.3764301972172034  0.7358592344766334  0.4947720770203901
  0.8744886388485676  0.2395935329201916  0.5099224965609284
  0.8712523191772701  0.7648043703784784  0.9884408529575557
  0.8720398164083469  0.7339089697729042  0.4951105732907237
  0.3779602180046329  0.2650296644333576  0.2415852337300196
  0.3768728621035482  0.2473015673382259  0.7488934409183654
  0.3732200035419852  0.7566193034713817  0.2527634791608790
  0.3751737778462625  0.7517553461207154  0.7613429137812888
  0.8742791841756659  0.2653873003905813  0.2402167131044761
  0.8746416300078660  0.2518003131197217  0.7429969129361802
  0.8741282369734753  0.7570618436221263  0.2578974836081745
  0.9939179232988068  0.1270518594064524  0.0004889164459201
  0.0087999295859207  0.1259231142404463  0.5089300674175974
  0.9844698494685986  0.6247768525042505  0.9925218078751921
  0.0116850834918017  0.6267502711385182  0.4918610715224012
  0.4956239262061349  0.1247836763192045  0.9862851557506161
  0.4876700895529506  0.6252750508123651  0.9918626044297645
  0.5154453308732753  0.6259780881474452  0.4896458151933112
  0.9840425806329013  0.1280323004806594  0.2466844558674934
  0.9897995238646187  0.6225872172153424  0.2585142245154732
  0.0142674453440379  0.6244686792197038  0.7571241683751098
  0.4927273591581772  0.6206520641565505  0.2677539794568726
  0.9924946438895053  0.3741266017065848  0.4991307882186803
  0.4865026562506394  0.3709283492396862  0.5164197278235000
  0.4813276682013763  0.8797553034189809  0.5108951844004389
  0.9926051178604706  0.3749426926014716  0.7494394759494858
  0.0035528123849388  0.8764841645569950  0.2498762748661024
  0.9970742160715749  0.8751953706900729  0.7475494233793055
  0.5135691614235220  0.3717509155856814  0.2318223548623038
  0.4945673671390730  0.3729267536820960  0.7354216244113797
  0.5059105472299841  0.8828174924495389  0.2327233157471078
  0.5003845690894453  0.8751527421990789  0.7454715856488628
  0.2565722110894933  0.1247821754223067  0.9942866191540507
  0.2410521594719423  0.1245383858168186  0.4980151466709253
  0.2386690364889004  0.6262415675009081  0.5075095727224891
  0.7566464533747790  0.1260202757596845  0.0037889899806009
  0.7703606933277415  0.6254734576405773  0.0026838856722502
  0.7347896060196764  0.6252786014863688  0.5034453794414352
  0.2663325907091654  0.1269713108230630  0.2509256066128619
  0.2496550157439768  0.1246813695374634  0.7574901649295716
  0.2580094420605442  0.6232869703910868  0.2390283884758420
  0.7685858899446164  0.1268683714754978  0.2464360820604417
  0.7622397209807337  0.6240752976929578  0.2467859307245342
  0.7357436318029654  0.6242912411071313  0.7469822511031105
  0.2406498232621216  0.3764983873838052  0.9953430562204424
  0.2371312173675046  0.8735982773654902  0.0028386777590235
  0.7340647374238531  0.3755478166174320  0.9881699223079674
  0.7640917648531717  0.3726801929777382  0.4883590449791224
  0.7307179845280488  0.8742678206814951  0.0075592759891257
  0.7688043540592868  0.8769540880386933  0.5025031025400750
  0.2575348911979172  0.3759453368364373  0.7580704527443528
  0.2447990650224669  0.8760024300345914  0.2530593719930910
  0.2494491033897638  0.8733674214155496  0.7469589324733845
  0.7371579897222854  0.3742477884086410  0.2652889273298905
  0.7593668978005362  0.3741894285256777  0.7601583803384518
  0.7436028361229812  0.8764760155167015  0.2436285106229601
  0.7529839239619657  0.8748507147042170  0.7462780590769189
 
  0.00000000E+00  0.00000000E+00  0.00000000E+00
  0.00000000E+00  0.00000000E+00  0.00000000E+00
  0.00000000E+00  0.00000000E+00  0.00000000E+00
  0.00000000E+00  0.00000000E+00  0.00000000E+00
  0.00000000E+00  0.00000000E+00  0.00000000E+00
  0.00000000E+00  0.00000000E+00  0.00000000E+00
  0.00000000E+00  0.00000000E+00  0.00000000E+00
  0.00000000E+00  0.00000000E+00  0.00000000E+00
  0.00000000E+00  0.00000000E+00  0.00000000E+00
  0.00000000E+00  0.00000000E+00  0.00000000E+00
  0.00000000E+00  0.00000000E+00  0.00000000E+00
  0.00000000E+00  0.00000000E+00  0.00000000E+00
  0.00000000E+00  0.00000000E+00  0.00000000E+00
  0.00000000E+00  0.00000000E+00  0.00000000E+00
  0.00000000E+00  0.00000000E+00  0.00000000E+00
  0.00000000E+00  0.00000000E+00  0.00000000E+00
  0.00000000E+00  0.00000000E+00  0.00000000E+00
  0.00000000E+00  0.00000000E+00  0.00000000E+00
  0.00000000E+00  0.00000000E+00  0.00000000E+00
  0.00000000E+00  0.00000000E+00  0.00000000E+00
  0.00000000E+00  0.00000000E+00  0.00000000E+00
  0.00000000E+00  0.00000000E+00  0.00000000E+00
  0.00000000E+00  0.00000000E+00  0.00000000E+00
  0.00000000E+00  0.00000000E+00  0.00000000E+00
  0.00000000E+00  0.00000000E+00  0.00000000E+00
  0.00000000E+00  0.00000000E+00  0.00000000E+00
  0.00000000E+00  0.00000000E+00  0.00000000E+00
  0.00000000E+00  0.00000000E+00  0.00000000E+00
  0.00000000E+00  0.00000000E+00  0.00000000E+00
  0.00000000E+00  0.00000000E+00  0.00000000E+00
  0.00000000E+00  0.00000000E+00  0.00000000E+00
  0.00000000E+00  0.00000000E+00  0.00000000E+00
  0.00000000E+00  0.00000000E+00  0.00000000E+00
  0.00000000E+00  0.00000000E+00  0.00000000E+00
  0.00000000E+00  0.00000000E+00  0.00000000E+00
  0.00000000E+00  0.00000000E+00  0.00000000E+00
  0.00000000E+00  0.00000000E+00  0.00000000E+00
  0.00000000E+00  0.00000000E+00  0.00000000E+00
  0.00000000E+00  0.00000000E+00  0.00000000E+00
  0.00000000E+00  0.00000000E+00  0.00000000E+00
  0.00000000E+00  0.00000000E+00  0.00000000E+00
  0.00000000E+00  0.00000000E+00  0.00000000E+00
  0.00000000E+00  0.00000000E+00  0.00000000E+00
  0.00000000E+00  0.00000000E+00  0.00000000E+00
  0.00000000E+00  0.00000000E+00  0.00000000E+00
  0.00000000E+00  0.00000000E+00  0.00000000E+00
  0.00000000E+00  0.00000000E+00  0.00000000E+00
  0.00000000E+00  0.00000000E+00  0.00000000E+00
  0.00000000E+00  0.00000000E+00  0.00000000E+00
  0.00000000E+00  0.00000000E+00  0.00000000E+00
  0.00000000E+00  0.00000000E+00  0.00000000E+00
  0.00000000E+00  0.00000000E+00  0.00000000E+00
  0.00000000E+00  0.00000000E+00  0.00000000E+00
  0.00000000E+00  0.00000000E+00  0.00000000E+00
  0.00000000E+00  0.00000000E+00  0.00000000E+00
  0.00000000E+00  0.00000000E+00  0.00000000E+00
  0.00000000E+00  0.00000000E+00  0.00000000E+00
  0.00000000E+00  0.00000000E+00  0.00000000E+00
  0.00000000E+00  0.00000000E+00  0.00000000E+00
  0.00000000E+00  0.00000000E+00  0.00000000E+00
  0.00000000E+00  0.00000000E+00  0.00000000E+00
  0.00000000E+00  0.00000000E+00  0.00000000E+00
  0.00000000E+00  0.00000000E+00  0.00000000E+00
  0.00000000E+00  0.00000000E+00  0.00000000E+00
  0.00000000E+00  0.00000000E+00  0.00000000E+00
  0.00000000E+00  0.00000000E+00  0.00000000E+00
  0.00000000E+00  0.00000000E+00  0.00000000E+00
  0.00000000E+00  0.00000000E+00  0.00000000E+00
  0.00000000E+00  0.00000000E+00  0.00000000E+00
  0.00000000E+00  0.00000000E+00  0.00000000E+00
  0.00000000E+00  0.00000000E+00  0.00000000E+00
  0.00000000E+00  0.00000000E+00  0.00000000E+00
  0.00000000E+00  0.00000000E+00  0.00000000E+00
  0.00000000E+00  0.00000000E+00  0.00000000E+00
  0.00000000E+00  0.00000000E+00  0.00000000E+00
  0.00000000E+00  0.00000000E+00  0.00000000E+00
  0.00000000E+00  0.00000000E+00  0.00000000E+00
  0.00000000E+00  0.00000000E+00  0.00000000E+00
  0.00000000E+00  0.00000000E+00  0.00000000E+00
  0.00000000E+00  0.00000000E+00  0.00000000E+00
  0.00000000E+00  0.00000000E+00  0.00000000E+00
  0.00000000E+00  0.00000000E+00  0.00000000E+00
  0.00000000E+00  0.00000000E+00  0.00000000E+00
  0.00000000E+00  0.00000000E+00  0.00000000E+00
  0.00000000E+00  0.00000000E+00  0.00000000E+00
  0.00000000E+00  0.00000000E+00  0.00000000E+00
  0.00000000E+00  0.00000000E+00  0.00000000E+00
  0.00000000E+00  0.00000000E+00  0.00000000E+00
  0.00000000E+00  0.00000000E+00  0.00000000E+00
  0.00000000E+00  0.00000000E+00  0.00000000E+00
  0.00000000E+00  0.00000000E+00  0.00000000E+00
  0.00000000E+00  0.00000000E+00  0.00000000E+00
  0.00000000E+00  0.00000000E+00  0.00000000E+00
  0.00000000E+00  0.00000000E+00  0.00000000E+00
  0.00000000E+00  0.00000000E+00  0.00000000E+00
  0.00000000E+00  0.00000000E+00  0.00000000E+00
  0.00000000E+00  0.00000000E+00  0.00000000E+00
  0.00000000E+00  0.00000000E+00  0.00000000E+00
  0.00000000E+00  0.00000000E+00  0.00000000E+00
  0.00000000E+00  0.00000000E+00  0.00000000E+00
  0.00000000E+00  0.00000000E+00  0.00000000E+00
  0.00000000E+00  0.00000000E+00  0.00000000E+00
  0.00000000E+00  0.00000000E+00  0.00000000E+00
  0.00000000E+00  0.00000000E+00  0.00000000E+00
  0.00000000E+00  0.00000000E+00  0.00000000E+00
  0.00000000E+00  0.00000000E+00  0.00000000E+00
  0.00000000E+00  0.00000000E+00  0.00000000E+00
  0.00000000E+00  0.00000000E+00  0.00000000E+00
  0.00000000E+00  0.00000000E+00  0.00000000E+00
  0.00000000E+00  0.00000000E+00  0.00000000E+00
  0.00000000E+00  0.00000000E+00  0.00000000E+00
  0.00000000E+00  0.00000000E+00  0.00000000E+00
  0.00000000E+00  0.00000000E+00  0.00000000E+00
  0.00000000E+00  0.00000000E+00  0.00000000E+00
  0.00000000E+00  0.00000000E+00  0.00000000E+00
  0.00000000E+00  0.00000000E+00  0.00000000E+00
  0.00000000E+00  0.00000000E+00  0.00000000E+00
  0.00000000E+00  0.00000000E+00  0.00000000E+00
  0.00000000E+00  0.00000000E+00  0.00000000E+00
  0.00000000E+00  0.00000000E+00  0.00000000E+00
  0.00000000E+00  0.00000000E+00  0.00000000E+00
  0.00000000E+00  0.00000000E+00  0.00000000E+00
  0.00000000E+00  0.00000000E+00  0.00000000E+00
  0.00000000E+00  0.00000000E+00  0.00000000E+00
  0.00000000E+00  0.00000000E+00  0.00000000E+00
  0.00000000E+00  0.00000000E+00  0.00000000E+00
  0.00000000E+00  0.00000000E+00  0.00000000E+00
  0.00000000E+00  0.00000000E+00  0.00000000E+00
  0.00000000E+00  0.00000000E+00  0.00000000E+00
  0.00000000E+00  0.00000000E+00  0.00000000E+00
  0.00000000E+00  0.00000000E+00  0.00000000E+00
  0.00000000E+00  0.00000000E+00  0.00000000E+00
  0.00000000E+00  0.00000000E+00  0.00000000E+00
  0.00000000E+00  0.00000000E+00  0.00000000E+00
  0.00000000E+00  0.00000000E+00  0.00000000E+00
  0.00000000E+00  0.00000000E+00  0.00000000E+00
  0.00000000E+00  0.00000000E+00  0.00000000E+00
  0.00000000E+00  0.00000000E+00  0.00000000E+00
  0.00000000E+00  0.00000000E+00  0.00000000E+00
  0.00000000E+00  0.00000000E+00  0.00000000E+00
  0.00000000E+00  0.00000000E+00  0.00000000E+00
  0.00000000E+00  0.00000000E+00  0.00000000E+00
  0.00000000E+00  0.00000000E+00  0.00000000E+00
  0.00000000E+00  0.00000000E+00  0.00000000E+00
  0.00000000E+00  0.00000000E+00  0.00000000E+00
  0.00000000E+00  0.00000000E+00  0.00000000E+00
  0.00000000E+00  0.00000000E+00  0.00000000E+00
  0.00000000E+00  0.00000000E+00  0.00000000E+00
  0.00000000E+00  0.00000000E+00  0.00000000E+00
  0.00000000E+00  0.00000000E+00  0.00000000E+00
  0.00000000E+00  0.00000000E+00  0.00000000E+00
  0.00000000E+00  0.00000000E+00  0.00000000E+00
  0.00000000E+00  0.00000000E+00  0.00000000E+00
  0.00000000E+00  0.00000000E+00  0.00000000E+00
  0.00000000E+00  0.00000000E+00  0.00000000E+00
  0.00000000E+00  0.00000000E+00  0.00000000E+00
  0.00000000E+00  0.00000000E+00  0.00000000E+00
  0.00000000E+00  0.00000000E+00  0.00000000E+00
  0.00000000E+00  0.00000000E+00  0.00000000E+00
  0.00000000E+00  0.00000000E+00  0.00000000E+00
  0.00000000E+00  0.00000000E+00  0.00000000E+00
  0.00000000E+00  0.00000000E+00  0.00000000E+00
  0.00000000E+00  0.00000000E+00  0.00000000E+00
  0.00000000E+00  0.00000000E+00  0.00000000E+00
  0.00000000E+00  0.00000000E+00  0.00000000E+00
  0.00000000E+00  0.00000000E+00  0.00000000E+00
  0.00000000E+00  0.00000000E+00  0.00000000E+00
  0.00000000E+00  0.00000000E+00  0.00000000E+00
  0.00000000E+00  0.00000000E+00  0.00000000E+00
  0.00000000E+00  0.00000000E+00  0.00000000E+00
  0.00000000E+00  0.00000000E+00  0.00000000E+00
  0.00000000E+00  0.00000000E+00  0.00000000E+00
  0.00000000E+00  0.00000000E+00  0.00000000E+00
  0.00000000E+00  0.00000000E+00  0.00000000E+00
  0.00000000E+00  0.00000000E+00  0.00000000E+00
  0.00000000E+00  0.00000000E+00  0.00000000E+00
  0.00000000E+00  0.00000000E+00  0.00000000E+00
  0.00000000E+00  0.00000000E+00  0.00000000E+00
  0.00000000E+00  0.00000000E+00  0.00000000E+00
  0.00000000E+00  0.00000000E+00  0.00000000E+00
  0.00000000E+00  0.00000000E+00  0.00000000E+00
  0.00000000E+00  0.00000000E+00  0.00000000E+00
  0.00000000E+00  0.00000000E+00  0.00000000E+00
  0.00000000E+00  0.00000000E+00  0.00000000E+00
  0.00000000E+00  0.00000000E+00  0.00000000E+00
  0.00000000E+00  0.00000000E+00  0.00000000E+00
  0.00000000E+00  0.00000000E+00  0.00000000E+00
  0.00000000E+00  0.00000000E+00  0.00000000E+00
  0.00000000E+00  0.00000000E+00  0.00000000E+00
  0.00000000E+00  0.00000000E+00  0.00000000E+00
  0.00000000E+00  0.00000000E+00  0.00000000E+00
  0.00000000E+00  0.00000000E+00  0.00000000E+00
  0.00000000E+00  0.00000000E+00  0.00000000E+00
  0.00000000E+00  0.00000000E+00  0.00000000E+00
  0.00000000E+00  0.00000000E+00  0.00000000E+00
  0.00000000E+00  0.00000000E+00  0.00000000E+00
  0.00000000E+00  0.00000000E+00  0.00000000E+00
  0.00000000E+00  0.00000000E+00  0.00000000E+00
  0.00000000E+00  0.00000000E+00  0.00000000E+00
  0.00000000E+00  0.00000000E+00  0.00000000E+00
  0.00000000E+00  0.00000000E+00  0.00000000E+00
  0.00000000E+00  0.00000000E+00  0.00000000E+00
  0.00000000E+00  0.00000000E+00  0.00000000E+00
  0.00000000E+00  0.00000000E+00  0.00000000E+00
  0.00000000E+00  0.00000000E+00  0.00000000E+00
  0.00000000E+00  0.00000000E+00  0.00000000E+00
  0.00000000E+00  0.00000000E+00  0.00000000E+00
  0.00000000E+00  0.00000000E+00  0.00000000E+00
  0.00000000E+00  0.00000000E+00  0.00000000E+00
  0.00000000E+00  0.00000000E+00  0.00000000E+00
  0.00000000E+00  0.00000000E+00  0.00000000E+00
  0.00000000E+00  0.00000000E+00  0.00000000E+00
  0.00000000E+00  0.00000000E+00  0.00000000E+00
  0.00000000E+00  0.00000000E+00  0.00000000E+00
  0.00000000E+00  0.00000000E+00  0.00000000E+00
  0.00000000E+00  0.00000000E+00  0.00000000E+00
  0.00000000E+00  0.00000000E+00  0.00000000E+00
  0.00000000E+00  0.00000000E+00  0.00000000E+00
  0.00000000E+00  0.00000000E+00  0.00000000E+00
  0.00000000E+00  0.00000000E+00  0.00000000E+00
  0.00000000E+00  0.00000000E+00  0.00000000E+00
  0.00000000E+00  0.00000000E+00  0.00000000E+00
  0.00000000E+00  0.00000000E+00  0.00000000E+00
  0.00000000E+00  0.00000000E+00  0.00000000E+00
  0.00000000E+00  0.00000000E+00  0.00000000E+00
  0.00000000E+00  0.00000000E+00  0.00000000E+00
  0.00000000E+00  0.00000000E+00  0.00000000E+00
  0.00000000E+00  0.00000000E+00  0.00000000E+00
  0.00000000E+00  0.00000000E+00  0.00000000E+00
  0.00000000E+00  0.00000000E+00  0.00000000E+00
  0.00000000E+00  0.00000000E+00  0.00000000E+00
  0.00000000E+00  0.00000000E+00  0.00000000E+00
  0.00000000E+00  0.00000000E+00  0.00000000E+00
  0.00000000E+00  0.00000000E+00  0.00000000E+00
  0.00000000E+00  0.00000000E+00  0.00000000E+00
  0.00000000E+00  0.00000000E+00  0.00000000E+00
  0.00000000E+00  0.00000000E+00  0.00000000E+00
  0.00000000E+00  0.00000000E+00  0.00000000E+00
  0.00000000E+00  0.00000000E+00  0.00000000E+00
  0.00000000E+00  0.00000000E+00  0.00000000E+00
  0.00000000E+00  0.00000000E+00  0.00000000E+00
  0.00000000E+00  0.00000000E+00  0.00000000E+00
  0.00000000E+00  0.00000000E+00  0.00000000E+00
  0.00000000E+00  0.00000000E+00  0.00000000E+00
  0.00000000E+00  0.00000000E+00  0.00000000E+00
  0.00000000E+00  0.00000000E+00  0.00000000E+00
  0.00000000E+00  0.00000000E+00  0.00000000E+00
  0.00000000E+00  0.00000000E+00  0.00000000E+00
  0.00000000E+00  0.00000000E+00  0.00000000E+00
  0.00000000E+00  0.00000000E+00  0.00000000E+00
  0.00000000E+00  0.00000000E+00  0.00000000E+00
  0.00000000E+00  0.00000000E+00  0.00000000E+00
  0.00000000E+00  0.00000000E+00  0.00000000E+00
  0.00000000E+00  0.00000000E+00  0.00000000E+00
  0.00000000E+00  0.00000000E+00  0.00000000E+00
  0.00000000E+00  0.00000000E+00  0.00000000E+00
  0.00000000E+00  0.00000000E+00  0.00000000E+00
