TiOF2 2x2x2 config 0516                 
   1.00000000000000     
     7.8771565984067324   -0.0000047714684114   -0.0003609181856151
     0.0000010280020122    7.6538505353263782   -0.0000222003762970
    -0.0002038988884791   -0.0000224896250836    7.7210459568269929
   Ti   O    F 
     8     8    16
Direct
  0.0002606780425581  1.0000114924414780  1.0000165109481389
  0.0021387668808046  0.9999882356618484  0.5000085557797761
  0.0001474818778515  0.4999972401950962  0.0013060125532317
  0.9800333183657287  0.4999991949605593  0.5008212103389865
  0.5002504634202368  0.0000325359137589  0.0002018849375715
  0.5011748714043421  0.9999923895071064  0.4998124315171713
  0.4996232373387776  0.5000521209747361  0.9854540291722150
  0.5065042695576777  0.4999911672897872  0.5082251912363558
  0.7535522044494612  0.4999952474113490  0.4988040843449350
  0.5005371910392996  0.2414006649416898  0.0006440154247221
  0.5006568843442015  0.2405649785285459  0.4986393620538006
  0.5005408914389130  0.7585804573850888  0.0006435073470973
  0.5006578911360831  0.7594296073452853  0.4986401224580106
  0.9999545218063346  0.5000011955013425  0.2438771364859888
  0.9996712157739200  0.5000004983659011  0.7572217722476063
  0.4976461276700019  0.4999966955771251  0.7514432022258879
  0.2377640982697730  0.9999957300014630 -0.0000206879389254
  0.2391733551698038  1.0000006404382360  0.5001780870680678
  0.2475774855177436  0.5000002717600637  0.0033374255045269
  0.2446772423624697  0.4999974379035755  0.4980894260841162
  0.7627916575546930 -0.0000016344398986  0.0000146343482930
  0.7646477962612904  0.0000019047941914  0.5001585923405201
  0.7519770851884298  0.4999973811268590  0.0041092209121780
  0.0001707020993195  0.2409565050322935  0.0001537022913267
  0.0052904217590625  0.2404135451256114  0.5002966907096175
  0.0001663323313942  0.7590380569270579  0.0001548085375289
  0.0052918706104167  0.7595875397074329  0.5003008655013350
  0.0003923683023055 -0.0000007326330962  0.2498605264042000
  0.0003751930751389  1.0000003054183886  0.7502498208847754
  0.5000881325130058  0.9999912863962688  0.2494506553815549
  0.5002165713469606  0.9999937160050358  0.7504372358064222
  0.4960496730920120  0.4999943244358076  0.2474699670930280
 
  0.00000000E+00  0.00000000E+00  0.00000000E+00
  0.00000000E+00  0.00000000E+00  0.00000000E+00
  0.00000000E+00  0.00000000E+00  0.00000000E+00
  0.00000000E+00  0.00000000E+00  0.00000000E+00
  0.00000000E+00  0.00000000E+00  0.00000000E+00
  0.00000000E+00  0.00000000E+00  0.00000000E+00
  0.00000000E+00  0.00000000E+00  0.00000000E+00
  0.00000000E+00  0.00000000E+00  0.00000000E+00
  0.00000000E+00  0.00000000E+00  0.00000000E+00
  0.00000000E+00  0.00000000E+00  0.00000000E+00
  0.00000000E+00  0.00000000E+00  0.00000000E+00
  0.00000000E+00  0.00000000E+00  0.00000000E+00
  0.00000000E+00  0.00000000E+00  0.00000000E+00
  0.00000000E+00  0.00000000E+00  0.00000000E+00
  0.00000000E+00  0.00000000E+00  0.00000000E+00
  0.00000000E+00  0.00000000E+00  0.00000000E+00
  0.00000000E+00  0.00000000E+00  0.00000000E+00
  0.00000000E+00  0.00000000E+00  0.00000000E+00
  0.00000000E+00  0.00000000E+00  0.00000000E+00
  0.00000000E+00  0.00000000E+00  0.00000000E+00
  0.00000000E+00  0.00000000E+00  0.00000000E+00
  0.00000000E+00  0.00000000E+00  0.00000000E+00
  0.00000000E+00  0.00000000E+00  0.00000000E+00
  0.00000000E+00  0.00000000E+00  0.00000000E+00
  0.00000000E+00  0.00000000E+00  0.00000000E+00
  0.00000000E+00  0.00000000E+00  0.00000000E+00
  0.00000000E+00  0.00000000E+00  0.00000000E+00
  0.00000000E+00  0.00000000E+00  0.00000000E+00
  0.00000000E+00  0.00000000E+00  0.00000000E+00
  0.00000000E+00  0.00000000E+00  0.00000000E+00
  0.00000000E+00  0.00000000E+00  0.00000000E+00
  0.00000000E+00  0.00000000E+00  0.00000000E+00
