TiOF2 2x2x2 config 0002                 
   1.00000000000000     
     7.8971424694534722    0.0000000485411200   -0.0000000505695829
    -0.0000000621977169    7.8539863728247843   -0.0011127184776797
     0.0000000405717278   -0.0011795294133758    7.4594730224556880
   Ti   O    F 
     8     8    16
Direct
  0.0000000015996593  0.0001677009608479  0.0002775775146273
  0.9999999979030949  0.0001419478270587  0.4996521822720866
  0.0000000028354276  0.5002547346378529  0.0006549716688649
  0.9999999991534706  0.4996400980632941  0.5006645493147486
  0.4999999979929990  0.0024767429802234  0.9844830658621334
  0.4999999990093628  0.9781845226095709  0.5034916412959701
  0.4999999991868794  0.5012709258122344  0.9994867662220258
  0.5000000006219494  0.5044185654903018  0.4985971641479152
  0.4999999984442267  0.7526807776362531  0.4975306914580173
  0.9999999953581987  0.9999348501181069  0.2494168281953226
  0.0000000013722096  0.9998743312438310  0.7508615864708852
  0.0000000088754431  0.5002409262570662  0.2500146880266130
  0.9999999902154997  0.5002945450458688  0.7508844115784585
  0.4999999995158882  0.0039268537951370  0.7520397007608162
  0.4999999934867400  0.4993101200857726  0.2479580826308372
  0.5000000092983704  0.4996675543431803  0.7536439295535211
  0.2531270183716270  0.0002303243980854  0.0043233076878004
  0.2504600644540211  0.0010671740013545  0.4959381430373434
  0.2493641130866329  0.5010944565309792  0.0005552648395911
  0.2482483537365568  0.4970498871726646  0.5007344731213070
  0.7468729809798353  0.0002303364944420  0.0043233186204505
  0.7495399339074944  0.0010671628618895  0.4959381697752885
  0.7506358890760660  0.5010944499148141  0.0005552527244247
  0.7517516458937004  0.4970498948042657  0.5007343980908465
  0.0000000273696343  0.2490781509094444  0.0001152964286509
  0.9999999836623322  0.2488351802187209  0.5004050147199104
  0.0000000171681447  0.7513477276794358  0.0001819882158458
  0.9999999970991572  0.7508982189244970  0.5003332813715058
  0.4999999749566754  0.2473297373788636  0.0051740466520154
  0.5000000113248095  0.2455519379209662  0.4977191566236205
  0.4999999868576012  0.7566986078043658  0.0072646769502909
  0.5000000071862990  0.0088915560786184  0.2460463741682727
 
  0.00000000E+00  0.00000000E+00  0.00000000E+00
  0.00000000E+00  0.00000000E+00  0.00000000E+00
  0.00000000E+00  0.00000000E+00  0.00000000E+00
  0.00000000E+00  0.00000000E+00  0.00000000E+00
  0.00000000E+00  0.00000000E+00  0.00000000E+00
  0.00000000E+00  0.00000000E+00  0.00000000E+00
  0.00000000E+00  0.00000000E+00  0.00000000E+00
  0.00000000E+00  0.00000000E+00  0.00000000E+00
  0.00000000E+00  0.00000000E+00  0.00000000E+00
  0.00000000E+00  0.00000000E+00  0.00000000E+00
  0.00000000E+00  0.00000000E+00  0.00000000E+00
  0.00000000E+00  0.00000000E+00  0.00000000E+00
  0.00000000E+00  0.00000000E+00  0.00000000E+00
  0.00000000E+00  0.00000000E+00  0.00000000E+00
  0.00000000E+00  0.00000000E+00  0.00000000E+00
  0.00000000E+00  0.00000000E+00  0.00000000E+00
  0.00000000E+00  0.00000000E+00  0.00000000E+00
  0.00000000E+00  0.00000000E+00  0.00000000E+00
  0.00000000E+00  0.00000000E+00  0.00000000E+00
  0.00000000E+00  0.00000000E+00  0.00000000E+00
  0.00000000E+00  0.00000000E+00  0.00000000E+00
  0.00000000E+00  0.00000000E+00  0.00000000E+00
  0.00000000E+00  0.00000000E+00  0.00000000E+00
  0.00000000E+00  0.00000000E+00  0.00000000E+00
  0.00000000E+00  0.00000000E+00  0.00000000E+00
  0.00000000E+00  0.00000000E+00  0.00000000E+00
  0.00000000E+00  0.00000000E+00  0.00000000E+00
  0.00000000E+00  0.00000000E+00  0.00000000E+00
  0.00000000E+00  0.00000000E+00  0.00000000E+00
  0.00000000E+00  0.00000000E+00  0.00000000E+00
  0.00000000E+00  0.00000000E+00  0.00000000E+00
  0.00000000E+00  0.00000000E+00  0.00000000E+00
