config 38                               
   1.00000000000000     
    15.4263309999999993    0.0000000000000000    0.0000000000000000
     0.0000000000000000   15.4263309999999993    0.0000000000000000
     0.0000000000000000    0.0000000000000000   15.4263309999999993
   Li   Ti   O    F 
     1    64    64   128
Direct
  0.6133135211118985  0.3949731755353617  0.4008574275949344
  0.9957602986999859  0.9951259577714212  0.9945625069887618
  0.9975330883002608  0.9916853505783909  0.4937652318995233
  0.0066153880963764  0.4960042744474206  0.9974083150854894
  0.9955577007096545  0.5045628051229264  0.5068530329534687
  0.4948038503788391  0.9929814022977441  0.0010816703377520
  0.5027265044193365  0.0086822120934339  0.4983023620889736
  0.5049884747793122  0.4943104731333155  0.9975995086905044
  0.4889175608550201  0.5006331331662262  0.4967186688789145
  0.0065866775678689  0.0023500562696393  0.2559935813017422
  0.0017890344127568  0.0078344796590200  0.7568832934924380
  0.9938562597390950  0.4944207832650905  0.2511431495650896
  0.9932508025769978  0.4999753780235288  0.7416856792917942
  0.5063242551100539  0.0075312320803278  0.2519284979287011
  0.4930955697718272  0.0047746572719313  0.7532150063750607
  0.4925115845405614  0.4955732016474411  0.2580749639417044
  0.5017365113640554  0.5026084130709514  0.7603663988803103
  0.9955802571173392  0.2580479143496082  0.0018681756394448
  0.9960373874071865  0.2485024823042193  0.4908939817125978
  0.9985553201414268  0.7580953445369258  0.0060162420264060
  0.9961340804209171  0.7576161283939848  0.5056436594886450
  0.4956115498333291  0.2579181701238284  0.0025620429725051
  0.5067402308060948  0.2462622071937671  0.4974385235842383
  0.5076415829944255  0.7558608213139564  0.0004723371445587
  0.5070860353850035  0.7525718836787479  0.5090596574504743
  0.9977503795815069  0.2582805175939002  0.2549298484292608
  0.0059967522144281  0.2430159123046881  0.7475266814835209
  0.0068140470147513  0.7488419029085548  0.2430212217578195
  0.9930574088801380  0.7507000171091905  0.7427220534690467
  0.5076648578936671  0.2417279203517249  0.2523958531175372
  0.5068553710404243  0.2421551331953320  0.7517695863387878
  0.5066257639674053  0.7514437033394478  0.2521190410377738
  0.5023704426712415  0.7404164009503068  0.7441725099134954
  0.2567942788675496  0.9977809427148715  0.0056253308123192
  0.2517758588895012  0.9930752772560978  0.5061835811511065
  0.2447641325489338  0.5081586344766591  0.9979175820435456
  0.2534476068604115  0.4939187218493096  0.5059543923177791
  0.7568768561716678  0.0002731307550676  0.9940392739996702
  0.7479930216681355  0.0097135928373562  0.4946874778351150
  0.7424324539609516  0.5007070706608173  0.0040647255519624
  0.7593403338132624  0.5003630113594962  0.5062869316156168
  0.2447213142551699  0.0012283992868735  0.2434245660914069
  0.2583357589038420  0.9979225290255676  0.7441837239015080
  0.2551191012663528  0.4922392419629691  0.2523144955815282
  0.2477026970618370  0.5059614643568289  0.7408828355294961
  0.7439747689486977  0.9997114583544212  0.2558927415980236
  0.7476933404107204  0.0073632575758129  0.7558378342993254
  0.7570898228706802  0.4988949137127374  0.2411343386228877
  0.7580220178226689  0.4986210003317859  0.7426476640529055
  0.2573072329747980  0.2517075156329888  0.0062557658889374
  0.2523801786609537  0.2563670013617557  0.5049418514939604
  0.2526268032890619  0.7422954381653791  0.9942222659334150
  0.2525666307493754  0.7551980320438892  0.4933037590952113
  0.7568409621058788  0.2519748657526584  0.0072267054093110
  0.7382411735390209  0.2446159505590328  0.4946211624559289
  0.7418176087836410  0.7487392311446278  0.9941969972441373
  0.7413720775169137  0.7542499358093742  0.4942835876844889
  0.2506260099634265  0.2570293565880694  0.2430366223007253
  0.2432038572920077  0.2517165598810450  0.7437404015481131
  0.2437424729662105  0.7478962542873816  0.2563097694657602
  0.2482108614876464  0.7416991493103513  0.7568926833888406
  0.7405425371542826  0.2518036562988764  0.2416572296528809
  0.7435665728780454  0.2426477742644350  0.7502368603865804
  0.7453838072826244  0.7497268366802790  0.2570909907780169
  0.7577075477278942  0.7504885092543125  0.7568161403342344
  0.0087370355551161  0.5038286110829113  0.6241052960215151
  0.9973560761890311  0.0043879023245898  0.3761077899151921
  0.0027645742791927  0.0017626795071173  0.8729828288674222
  0.5078848705694833  0.4766521830694726  0.3762909295312621
  0.4951191541952354  0.4879786065193881  0.8759449527758676
  0.9995991104410977  0.7447271178039824  0.1255911602974686
  0.0025071653720174  0.7451891911411218  0.6237939452711072
  0.5040269292637901  0.7390281889797459  0.6245161273666893
  0.9858272505139472  0.2485597637804962  0.3757571371607744
  0.2568735868049993  0.0014253391009070  0.1252896034221934
  0.2575821660838911  0.0034390492454135  0.6249443107403272
  0.2410098414657810  0.4941933754803872  0.6249981273822200
  0.7516581669022542  0.4881912750355184  0.1248143171989546
  0.7471305722235132  0.4923276768781542  0.6238880277638866
  0.7484774127745631  0.0019075622328463  0.3756572063214590
  0.7435188269402703  0.0022216435888376  0.8736427524528737
  0.2383189233124161  0.2511880113783942  0.1255824131736544
  0.2451497818702267  0.2508127034755580  0.6244672331608409
  0.7344271032142956  0.2627487640861418  0.1256280924546151
  0.2545394372080433  0.7442593005696101  0.3749270870455037
  0.2532613707690990  0.7509680619784174  0.8754528816115363
  0.7523734863906570  0.7487520852824526  0.3742983177731211
  0.7496244658545252  0.7488183857520907  0.8755050118700703
  0.1252936633574388  0.5082209916003001  0.9952764647271606
  0.6264225835371425  0.5110326207127630  0.9988366748638844
  0.1250742653877558  0.9986410041735531  0.2497375771254609
  0.6244030940708105  0.9947699444327013  0.2478306298453043
  0.6274325403456362  0.2777367443044736  0.4735353856835956
  0.6247056570314633  0.7368932287762461  0.0021164345034506
  0.6246583119743664  0.7698438222198404  0.4958208151392374
  0.1242038079649781  0.2533209683891035  0.7555966679934554
  0.1252858638615426  0.7555670439467136  0.2525782212350877
  0.6249799266369896  0.2574570203646449  0.2698083253538541
  0.6258926052271624  0.2544721006013985  0.7583638796557148
  0.6227061900843266  0.7576597578690936  0.2516296178976656
  0.3762744909837752  0.9946274484729268  0.9911234041373639
  0.3744382580961304  0.5157985217894167  0.4991585806202599
  0.8729814497244724  0.9971701963529107  0.9976227420123612
  0.8767927105645138  0.5163630913056620  0.4987866469635894
  0.3759807798033394  0.9972822317680058  0.7604560911526225
  0.3747700038369711  0.5006716719835926  0.2541062708205757
  0.8758031401681220  0.5037705169128351  0.2532907212950357
  0.8757666690720584  0.5108933800197875  0.7454876327387147
  0.3759967512959231  0.2517599754264151  0.0118571392826119
  0.8740117316396082  0.2537017280326996  0.0124329571877371
  0.8750838762109306  0.7419973790061259  0.7481335141928460
  0.5222606032828943  0.1180283088456580  0.4844211296188232
  0.9976049559983906  0.1264934941730387  0.7449125880171507
  0.5025096689398356  0.1248150374041106  0.2708636641152452
  0.5028137173486578  0.1229558332887705  0.7629166741871733
  0.5036236433599687  0.6242023743015700  0.7604066438303708
  0.0045614080432868  0.3758460237920827  0.0048864074331948
  0.0066928320276212  0.8748529031604346  0.0022055508376973
  0.9803933208398834  0.8752544711143446  0.4998805206214056
  0.5076959357962929  0.3738352958010523  0.0163767365265738
  0.5084160470436830  0.8743194509160943  0.0150590024483432
  0.0016841942422784  0.3745663029224768  0.2461103892610561
  0.2609101769269738  0.6249731694860960  0.0038979649295801
  0.7266390681950874  0.1262118864788052  0.5040519573039193
  0.2458644094617106  0.6241902894432891  0.7489087527307309
  0.7492962862762198  0.1250873121636351  0.7408538365120971
  0.2624437042273752  0.3733837620806418  0.4929379286426329
  0.2645454439536979  0.8750226113910158  0.4991765949282928
  0.2470063263314178  0.3746131669023209  0.2580421660259822
  0.9975825102100294  0.0029837676561883  0.1267191864782882
  0.0001787320958010  0.9993362965171925  0.6232935391607148
  0.9995377868000836  0.5105556691162920  0.1249706979806281
  0.4914706247143596  0.0173142944391745  0.1271411923099031
  0.4941655537516040  0.0078769286581135  0.6243917505479691
  0.5029396255308651  0.5152938017904702  0.1294844048958656
  0.5090711567679219  0.5116538110933169  0.6229035277283832
  0.0044193938077595  0.4948921816210774  0.3759439189143157
  0.9959363405083843  0.4966840961208325  0.8724635020007114
  0.5038454542938666  0.9759393659522902  0.3756074882726656
  0.5170445013195438  0.9851897539774870  0.8759802041403502
  0.0148013692506594  0.2455473743803223  0.1271755051694164
  0.0067028138829587  0.2576180275809319  0.6207655840420871
  0.5170835774918312  0.2295449108263888  0.1268510422208345
  0.5096082490723242  0.2332512202410916  0.6268299236471130
  0.4974961231334051  0.7332335755626557  0.1276849483757571
  0.9876274020711242  0.2521194540467580  0.8741935507288571
  0.9932146050171431  0.7514999638309842  0.3752032342588796
  0.0003675964139666  0.7519632495404541  0.8737677717642172
  0.4818744978614450  0.2746670465175278  0.3702100358576851
  0.4907873993083872  0.2645971051386354  0.8756325774788311
  0.4917462489132935  0.7636467676696075  0.3754090707245368
  0.4979069307277406  0.7617735571670184  0.8748956988183846
  0.2470308786752299  0.4920737950684503  0.1252239324511976
  0.7512333515602554  0.9993129981789105  0.1262893570433045
  0.7505638282244644  0.9938302338121771  0.6225164810611001
  0.2495470239830699  0.0016545983012153  0.3755195688051087
  0.2403040808828354  0.9949198316226421  0.8744518370346919
  0.2440786261806529  0.5132624227638989  0.3750628484320637
  0.2607153912849783  0.4994264931140097  0.8737155338672118
  0.7422213486351941  0.5035707257432888  0.3751382365908297
  0.7530817657905678  0.5091648340940826  0.8736127898126007
  0.2511582303467141  0.7558393154898195  0.1252028959765829
  0.2484172190314416  0.7510032659534354  0.6249857238461174
  0.7393844170903889  0.2632457804065907  0.6213172971359228
  0.7516327128327999  0.7502363682760114  0.1259803966522942
  0.7471859234861692  0.7508416740727277  0.6240311846951098
  0.2596455121689686  0.2423866274599286  0.3739539771809980
  0.2583287396753521  0.2506463661413499  0.8754074469905584
  0.7703545037548740  0.2397860138174425  0.3722651262018668
  0.7616599299737924  0.2415316483200287  0.8755636501457545
  0.1260992092635138  0.0064666531776129  0.0048930381917134
  0.1243304999168677  0.9860260739074990  0.5012920514391774
  0.1233079296215948  0.4861601944481012  0.4924739386069569
  0.6247290645872043  0.0066089141141600  0.0101757390287252
  0.6249039228796071  0.9736010544117050  0.5048094365257829
  0.6279866426318009  0.4755994134919099  0.4945121023465679
  0.1268278353117564  0.9991221926349720  0.7436810861722007
  0.1243785540283721  0.5036937685368004  0.2477207894798716
  0.1240204520661506  0.4909705469254499  0.7618176408404228
  0.6237337278179376  0.9935891653694895  0.7383133833320136
  0.6263913083491210  0.4886041862856365  0.2517542525298235
  0.6271859854885982  0.4903815591518761  0.7551233665005087
  0.1246430553927231  0.2466011640661577  0.9882690963078420
  0.1220415506040219  0.2616872375548187  0.4892432468396988
  0.1252953548161117  0.7390442797808208  0.9995771006849679
  0.1237696566309588  0.7657598584365275  0.4951530764496442
  0.6261447189062901  0.2452592077262620  0.9866061456528219
  0.1237738112760965  0.2425137952467865  0.2641836548768489
  0.1236834468951200  0.7557543939895310  0.7522781666789302
  0.6264976180084413  0.7558499341861590  0.7516015118608776
  0.3772170222982387  0.0181017123355199  0.4922134607717517
  0.3744746685419066  0.4910346004372728  0.0087629374870081
  0.8736573100003785  0.0229917265872919  0.5045361592143737
  0.8749840875715322  0.4935867440898929  0.9983560944424448
  0.3771359369836377  1.0002369809866569  0.2584956033839811
  0.3756704293694746  0.5003996926547951  0.7399651381175653
  0.8732141079278211  0.0049387955966316  0.2485624101914174
  0.8742198848577305  0.9952859398746497  0.7464409798360857
  0.3771987741369344  0.2308963048969307  0.5049364945459279
  0.3767080566940154  0.7615702537734254  0.0037736378341922
  0.3773865669592673  0.7316303725862278  0.5025379636953348
  0.8733452162980286  0.2351391697991146  0.5118850764040530
  0.8722572306021368  0.7602520380935208  0.9999893466704293
  0.8722969539318489  0.7305670080152432  0.5037051277931255
  0.3776586514028593  0.2502909721977117  0.2359455931916286
  0.3760872739971698  0.2477347905556791  0.7448368676731143
  0.3771426250051124  0.7436348572076396  0.2471120813714294
  0.3754339461446474  0.7519712214514237  0.7472073397392538
  0.8733549815502176  0.2504644229286928  0.2345105811287805
  0.8739166242484632  0.2531209142183432  0.7380091935961117
  0.8732861513004436  0.7413244992151284  0.2483322855543103
 -0.0010626255500388  0.1273745046146099  0.0006370222785671
  0.0133221852419530  0.1263130195803844  0.5059501861178031
  0.9892392582522713  0.6253682692730023  0.9928169098800654
  0.0169152567835938  0.6269855534421740  0.4913262403233211
  0.4999669392218019  0.1240429772162963  0.9879817805266206
  0.4864024394183881  0.6265207152262441  0.9918158671740113
  0.5184673109340782  0.6256215718872437  0.4842324375850606
  0.9961972494385594  0.1277484485368540  0.2470865351243516
  0.0041121306392368  0.6236205780720543  0.2591235513363664
  0.0134127661328402  0.6247367186904551  0.7564760515333084
  0.5066759314499812  0.6245540772069456  0.2680656367100449
  0.9850873682413896  0.3747984079669022  0.4996934174310516
  0.4843634347536471  0.3764854032405209  0.5177422253715505
  0.4796170723475047  0.8752592380518598  0.5108751728722393
  0.9932392671776946  0.3752917471282717  0.7488466861003004
  0.9901845589041594  0.8757511380705615  0.2499895967623365
  0.9984396230966234  0.8757800472978613  0.7461569513598910
  0.4983792140704489  0.3719939184967720  0.2291848659895495
  0.4960373667095487  0.3737221650805165  0.7358270430642434
  0.4918782645230154  0.8747981673227713  0.2344760191898471
  0.5005899982523447  0.8740268667336540  0.7422608126401254
  0.2510860465165397  0.1247158611199536  0.9942857950278154
  0.2355271190861230  0.1242644092099033  0.4973078131351081
  0.2338586425879052  0.6262447452428166  0.5058003782242528
  0.7488394340159261  0.1264398027657961  0.0074605327897128
  0.7661194854352880  0.6252315203186112  0.0068582176179197
  0.7311307193784170  0.6253245253067887  0.5027711578458941
  0.2548796737911038  0.1260964720452821  0.2518799936587714
  0.2496654566166504  0.1246664457647021  0.7568673271737416
  0.2477432847347640  0.6234621732658308  0.2387565628334130
  0.7479402332381309  0.1263265869545019  0.2431447300347358
  0.7395962929342377  0.6239355218634107  0.2445763374972892
  0.7371013757239695  0.6248573988752660  0.7441569070701273
  0.2449824222724653  0.3761510204039882  0.9959521124484904
  0.2399400559245727  0.8735200804604315  0.0020461332866355
  0.7432787342367339  0.3752930657912033  0.9832419711850016
  0.7705818257903664  0.3740262301993105  0.4870733270763542
  0.7387922140150419  0.8747141964412622  0.0042809079334839
  0.7708580454684426  0.8766975856770529  0.4997408564139127
  0.2560950721551082  0.3759766237786852  0.7567241642267805
  0.2587828877475258  0.8749964367733327  0.2530960372394543
  0.2481733191569683  0.8731678593208519  0.7461560880747011
  0.7559012393362128  0.3741833486659267  0.2684583114788929
  0.7580300349445545  0.3745830426739272  0.7597508876558270
  0.7600494735160523  0.8745667029182345  0.2469802358937216
  0.7524404106420745  0.8751322689485324  0.7470889174773456
 
  0.00000000E+00  0.00000000E+00  0.00000000E+00
  0.00000000E+00  0.00000000E+00  0.00000000E+00
  0.00000000E+00  0.00000000E+00  0.00000000E+00
  0.00000000E+00  0.00000000E+00  0.00000000E+00
  0.00000000E+00  0.00000000E+00  0.00000000E+00
  0.00000000E+00  0.00000000E+00  0.00000000E+00
  0.00000000E+00  0.00000000E+00  0.00000000E+00
  0.00000000E+00  0.00000000E+00  0.00000000E+00
  0.00000000E+00  0.00000000E+00  0.00000000E+00
  0.00000000E+00  0.00000000E+00  0.00000000E+00
  0.00000000E+00  0.00000000E+00  0.00000000E+00
  0.00000000E+00  0.00000000E+00  0.00000000E+00
  0.00000000E+00  0.00000000E+00  0.00000000E+00
  0.00000000E+00  0.00000000E+00  0.00000000E+00
  0.00000000E+00  0.00000000E+00  0.00000000E+00
  0.00000000E+00  0.00000000E+00  0.00000000E+00
  0.00000000E+00  0.00000000E+00  0.00000000E+00
  0.00000000E+00  0.00000000E+00  0.00000000E+00
  0.00000000E+00  0.00000000E+00  0.00000000E+00
  0.00000000E+00  0.00000000E+00  0.00000000E+00
  0.00000000E+00  0.00000000E+00  0.00000000E+00
  0.00000000E+00  0.00000000E+00  0.00000000E+00
  0.00000000E+00  0.00000000E+00  0.00000000E+00
  0.00000000E+00  0.00000000E+00  0.00000000E+00
  0.00000000E+00  0.00000000E+00  0.00000000E+00
  0.00000000E+00  0.00000000E+00  0.00000000E+00
  0.00000000E+00  0.00000000E+00  0.00000000E+00
  0.00000000E+00  0.00000000E+00  0.00000000E+00
  0.00000000E+00  0.00000000E+00  0.00000000E+00
  0.00000000E+00  0.00000000E+00  0.00000000E+00
  0.00000000E+00  0.00000000E+00  0.00000000E+00
  0.00000000E+00  0.00000000E+00  0.00000000E+00
  0.00000000E+00  0.00000000E+00  0.00000000E+00
  0.00000000E+00  0.00000000E+00  0.00000000E+00
  0.00000000E+00  0.00000000E+00  0.00000000E+00
  0.00000000E+00  0.00000000E+00  0.00000000E+00
  0.00000000E+00  0.00000000E+00  0.00000000E+00
  0.00000000E+00  0.00000000E+00  0.00000000E+00
  0.00000000E+00  0.00000000E+00  0.00000000E+00
  0.00000000E+00  0.00000000E+00  0.00000000E+00
  0.00000000E+00  0.00000000E+00  0.00000000E+00
  0.00000000E+00  0.00000000E+00  0.00000000E+00
  0.00000000E+00  0.00000000E+00  0.00000000E+00
  0.00000000E+00  0.00000000E+00  0.00000000E+00
  0.00000000E+00  0.00000000E+00  0.00000000E+00
  0.00000000E+00  0.00000000E+00  0.00000000E+00
  0.00000000E+00  0.00000000E+00  0.00000000E+00
  0.00000000E+00  0.00000000E+00  0.00000000E+00
  0.00000000E+00  0.00000000E+00  0.00000000E+00
  0.00000000E+00  0.00000000E+00  0.00000000E+00
  0.00000000E+00  0.00000000E+00  0.00000000E+00
  0.00000000E+00  0.00000000E+00  0.00000000E+00
  0.00000000E+00  0.00000000E+00  0.00000000E+00
  0.00000000E+00  0.00000000E+00  0.00000000E+00
  0.00000000E+00  0.00000000E+00  0.00000000E+00
  0.00000000E+00  0.00000000E+00  0.00000000E+00
  0.00000000E+00  0.00000000E+00  0.00000000E+00
  0.00000000E+00  0.00000000E+00  0.00000000E+00
  0.00000000E+00  0.00000000E+00  0.00000000E+00
  0.00000000E+00  0.00000000E+00  0.00000000E+00
  0.00000000E+00  0.00000000E+00  0.00000000E+00
  0.00000000E+00  0.00000000E+00  0.00000000E+00
  0.00000000E+00  0.00000000E+00  0.00000000E+00
  0.00000000E+00  0.00000000E+00  0.00000000E+00
  0.00000000E+00  0.00000000E+00  0.00000000E+00
  0.00000000E+00  0.00000000E+00  0.00000000E+00
  0.00000000E+00  0.00000000E+00  0.00000000E+00
  0.00000000E+00  0.00000000E+00  0.00000000E+00
  0.00000000E+00  0.00000000E+00  0.00000000E+00
  0.00000000E+00  0.00000000E+00  0.00000000E+00
  0.00000000E+00  0.00000000E+00  0.00000000E+00
  0.00000000E+00  0.00000000E+00  0.00000000E+00
  0.00000000E+00  0.00000000E+00  0.00000000E+00
  0.00000000E+00  0.00000000E+00  0.00000000E+00
  0.00000000E+00  0.00000000E+00  0.00000000E+00
  0.00000000E+00  0.00000000E+00  0.00000000E+00
  0.00000000E+00  0.00000000E+00  0.00000000E+00
  0.00000000E+00  0.00000000E+00  0.00000000E+00
  0.00000000E+00  0.00000000E+00  0.00000000E+00
  0.00000000E+00  0.00000000E+00  0.00000000E+00
  0.00000000E+00  0.00000000E+00  0.00000000E+00
  0.00000000E+00  0.00000000E+00  0.00000000E+00
  0.00000000E+00  0.00000000E+00  0.00000000E+00
  0.00000000E+00  0.00000000E+00  0.00000000E+00
  0.00000000E+00  0.00000000E+00  0.00000000E+00
  0.00000000E+00  0.00000000E+00  0.00000000E+00
  0.00000000E+00  0.00000000E+00  0.00000000E+00
  0.00000000E+00  0.00000000E+00  0.00000000E+00
  0.00000000E+00  0.00000000E+00  0.00000000E+00
  0.00000000E+00  0.00000000E+00  0.00000000E+00
  0.00000000E+00  0.00000000E+00  0.00000000E+00
  0.00000000E+00  0.00000000E+00  0.00000000E+00
  0.00000000E+00  0.00000000E+00  0.00000000E+00
  0.00000000E+00  0.00000000E+00  0.00000000E+00
  0.00000000E+00  0.00000000E+00  0.00000000E+00
  0.00000000E+00  0.00000000E+00  0.00000000E+00
  0.00000000E+00  0.00000000E+00  0.00000000E+00
  0.00000000E+00  0.00000000E+00  0.00000000E+00
  0.00000000E+00  0.00000000E+00  0.00000000E+00
  0.00000000E+00  0.00000000E+00  0.00000000E+00
  0.00000000E+00  0.00000000E+00  0.00000000E+00
  0.00000000E+00  0.00000000E+00  0.00000000E+00
  0.00000000E+00  0.00000000E+00  0.00000000E+00
  0.00000000E+00  0.00000000E+00  0.00000000E+00
  0.00000000E+00  0.00000000E+00  0.00000000E+00
  0.00000000E+00  0.00000000E+00  0.00000000E+00
  0.00000000E+00  0.00000000E+00  0.00000000E+00
  0.00000000E+00  0.00000000E+00  0.00000000E+00
  0.00000000E+00  0.00000000E+00  0.00000000E+00
  0.00000000E+00  0.00000000E+00  0.00000000E+00
  0.00000000E+00  0.00000000E+00  0.00000000E+00
  0.00000000E+00  0.00000000E+00  0.00000000E+00
  0.00000000E+00  0.00000000E+00  0.00000000E+00
  0.00000000E+00  0.00000000E+00  0.00000000E+00
  0.00000000E+00  0.00000000E+00  0.00000000E+00
  0.00000000E+00  0.00000000E+00  0.00000000E+00
  0.00000000E+00  0.00000000E+00  0.00000000E+00
  0.00000000E+00  0.00000000E+00  0.00000000E+00
  0.00000000E+00  0.00000000E+00  0.00000000E+00
  0.00000000E+00  0.00000000E+00  0.00000000E+00
  0.00000000E+00  0.00000000E+00  0.00000000E+00
  0.00000000E+00  0.00000000E+00  0.00000000E+00
  0.00000000E+00  0.00000000E+00  0.00000000E+00
  0.00000000E+00  0.00000000E+00  0.00000000E+00
  0.00000000E+00  0.00000000E+00  0.00000000E+00
  0.00000000E+00  0.00000000E+00  0.00000000E+00
  0.00000000E+00  0.00000000E+00  0.00000000E+00
  0.00000000E+00  0.00000000E+00  0.00000000E+00
  0.00000000E+00  0.00000000E+00  0.00000000E+00
  0.00000000E+00  0.00000000E+00  0.00000000E+00
  0.00000000E+00  0.00000000E+00  0.00000000E+00
  0.00000000E+00  0.00000000E+00  0.00000000E+00
  0.00000000E+00  0.00000000E+00  0.00000000E+00
  0.00000000E+00  0.00000000E+00  0.00000000E+00
  0.00000000E+00  0.00000000E+00  0.00000000E+00
  0.00000000E+00  0.00000000E+00  0.00000000E+00
  0.00000000E+00  0.00000000E+00  0.00000000E+00
  0.00000000E+00  0.00000000E+00  0.00000000E+00
  0.00000000E+00  0.00000000E+00  0.00000000E+00
  0.00000000E+00  0.00000000E+00  0.00000000E+00
  0.00000000E+00  0.00000000E+00  0.00000000E+00
  0.00000000E+00  0.00000000E+00  0.00000000E+00
  0.00000000E+00  0.00000000E+00  0.00000000E+00
  0.00000000E+00  0.00000000E+00  0.00000000E+00
  0.00000000E+00  0.00000000E+00  0.00000000E+00
  0.00000000E+00  0.00000000E+00  0.00000000E+00
  0.00000000E+00  0.00000000E+00  0.00000000E+00
  0.00000000E+00  0.00000000E+00  0.00000000E+00
  0.00000000E+00  0.00000000E+00  0.00000000E+00
  0.00000000E+00  0.00000000E+00  0.00000000E+00
  0.00000000E+00  0.00000000E+00  0.00000000E+00
  0.00000000E+00  0.00000000E+00  0.00000000E+00
  0.00000000E+00  0.00000000E+00  0.00000000E+00
  0.00000000E+00  0.00000000E+00  0.00000000E+00
  0.00000000E+00  0.00000000E+00  0.00000000E+00
  0.00000000E+00  0.00000000E+00  0.00000000E+00
  0.00000000E+00  0.00000000E+00  0.00000000E+00
  0.00000000E+00  0.00000000E+00  0.00000000E+00
  0.00000000E+00  0.00000000E+00  0.00000000E+00
  0.00000000E+00  0.00000000E+00  0.00000000E+00
  0.00000000E+00  0.00000000E+00  0.00000000E+00
  0.00000000E+00  0.00000000E+00  0.00000000E+00
  0.00000000E+00  0.00000000E+00  0.00000000E+00
  0.00000000E+00  0.00000000E+00  0.00000000E+00
  0.00000000E+00  0.00000000E+00  0.00000000E+00
  0.00000000E+00  0.00000000E+00  0.00000000E+00
  0.00000000E+00  0.00000000E+00  0.00000000E+00
  0.00000000E+00  0.00000000E+00  0.00000000E+00
  0.00000000E+00  0.00000000E+00  0.00000000E+00
  0.00000000E+00  0.00000000E+00  0.00000000E+00
  0.00000000E+00  0.00000000E+00  0.00000000E+00
  0.00000000E+00  0.00000000E+00  0.00000000E+00
  0.00000000E+00  0.00000000E+00  0.00000000E+00
  0.00000000E+00  0.00000000E+00  0.00000000E+00
  0.00000000E+00  0.00000000E+00  0.00000000E+00
  0.00000000E+00  0.00000000E+00  0.00000000E+00
  0.00000000E+00  0.00000000E+00  0.00000000E+00
  0.00000000E+00  0.00000000E+00  0.00000000E+00
  0.00000000E+00  0.00000000E+00  0.00000000E+00
  0.00000000E+00  0.00000000E+00  0.00000000E+00
  0.00000000E+00  0.00000000E+00  0.00000000E+00
  0.00000000E+00  0.00000000E+00  0.00000000E+00
  0.00000000E+00  0.00000000E+00  0.00000000E+00
  0.00000000E+00  0.00000000E+00  0.00000000E+00
  0.00000000E+00  0.00000000E+00  0.00000000E+00
  0.00000000E+00  0.00000000E+00  0.00000000E+00
  0.00000000E+00  0.00000000E+00  0.00000000E+00
  0.00000000E+00  0.00000000E+00  0.00000000E+00
  0.00000000E+00  0.00000000E+00  0.00000000E+00
  0.00000000E+00  0.00000000E+00  0.00000000E+00
  0.00000000E+00  0.00000000E+00  0.00000000E+00
  0.00000000E+00  0.00000000E+00  0.00000000E+00
  0.00000000E+00  0.00000000E+00  0.00000000E+00
  0.00000000E+00  0.00000000E+00  0.00000000E+00
  0.00000000E+00  0.00000000E+00  0.00000000E+00
  0.00000000E+00  0.00000000E+00  0.00000000E+00
  0.00000000E+00  0.00000000E+00  0.00000000E+00
  0.00000000E+00  0.00000000E+00  0.00000000E+00
  0.00000000E+00  0.00000000E+00  0.00000000E+00
  0.00000000E+00  0.00000000E+00  0.00000000E+00
  0.00000000E+00  0.00000000E+00  0.00000000E+00
  0.00000000E+00  0.00000000E+00  0.00000000E+00
  0.00000000E+00  0.00000000E+00  0.00000000E+00
  0.00000000E+00  0.00000000E+00  0.00000000E+00
  0.00000000E+00  0.00000000E+00  0.00000000E+00
  0.00000000E+00  0.00000000E+00  0.00000000E+00
  0.00000000E+00  0.00000000E+00  0.00000000E+00
  0.00000000E+00  0.00000000E+00  0.00000000E+00
  0.00000000E+00  0.00000000E+00  0.00000000E+00
  0.00000000E+00  0.00000000E+00  0.00000000E+00
  0.00000000E+00  0.00000000E+00  0.00000000E+00
  0.00000000E+00  0.00000000E+00  0.00000000E+00
  0.00000000E+00  0.00000000E+00  0.00000000E+00
  0.00000000E+00  0.00000000E+00  0.00000000E+00
  0.00000000E+00  0.00000000E+00  0.00000000E+00
  0.00000000E+00  0.00000000E+00  0.00000000E+00
  0.00000000E+00  0.00000000E+00  0.00000000E+00
  0.00000000E+00  0.00000000E+00  0.00000000E+00
  0.00000000E+00  0.00000000E+00  0.00000000E+00
  0.00000000E+00  0.00000000E+00  0.00000000E+00
  0.00000000E+00  0.00000000E+00  0.00000000E+00
  0.00000000E+00  0.00000000E+00  0.00000000E+00
  0.00000000E+00  0.00000000E+00  0.00000000E+00
  0.00000000E+00  0.00000000E+00  0.00000000E+00
  0.00000000E+00  0.00000000E+00  0.00000000E+00
  0.00000000E+00  0.00000000E+00  0.00000000E+00
  0.00000000E+00  0.00000000E+00  0.00000000E+00
  0.00000000E+00  0.00000000E+00  0.00000000E+00
  0.00000000E+00  0.00000000E+00  0.00000000E+00
  0.00000000E+00  0.00000000E+00  0.00000000E+00
  0.00000000E+00  0.00000000E+00  0.00000000E+00
  0.00000000E+00  0.00000000E+00  0.00000000E+00
  0.00000000E+00  0.00000000E+00  0.00000000E+00
  0.00000000E+00  0.00000000E+00  0.00000000E+00
  0.00000000E+00  0.00000000E+00  0.00000000E+00
  0.00000000E+00  0.00000000E+00  0.00000000E+00
  0.00000000E+00  0.00000000E+00  0.00000000E+00
  0.00000000E+00  0.00000000E+00  0.00000000E+00
  0.00000000E+00  0.00000000E+00  0.00000000E+00
  0.00000000E+00  0.00000000E+00  0.00000000E+00
  0.00000000E+00  0.00000000E+00  0.00000000E+00
  0.00000000E+00  0.00000000E+00  0.00000000E+00
  0.00000000E+00  0.00000000E+00  0.00000000E+00
  0.00000000E+00  0.00000000E+00  0.00000000E+00
  0.00000000E+00  0.00000000E+00  0.00000000E+00
  0.00000000E+00  0.00000000E+00  0.00000000E+00
  0.00000000E+00  0.00000000E+00  0.00000000E+00
  0.00000000E+00  0.00000000E+00  0.00000000E+00
  0.00000000E+00  0.00000000E+00  0.00000000E+00
  0.00000000E+00  0.00000000E+00  0.00000000E+00
  0.00000000E+00  0.00000000E+00  0.00000000E+00
  0.00000000E+00  0.00000000E+00  0.00000000E+00
  0.00000000E+00  0.00000000E+00  0.00000000E+00
  0.00000000E+00  0.00000000E+00  0.00000000E+00
  0.00000000E+00  0.00000000E+00  0.00000000E+00
  0.00000000E+00  0.00000000E+00  0.00000000E+00
  0.00000000E+00  0.00000000E+00  0.00000000E+00
