Ti27 O27 F54                            
   1.00000000000000     
    11.5942012950039892   -0.0071753640206233    0.0078572845165909
    -0.0071585053333589   11.5825515629568709   -0.0019980473375635
     0.0078540917346685   -0.0020035053119854   11.5838765143773923
   Ti   O    F 
    27    27    54
Direct
  0.0120061827035229  0.9997169816565830  0.9909720796273547
  0.9995382923974532  0.0135699546541375  0.3336468805517185
  0.9905011658964753  0.0001127335864979  0.6770313369287706
  0.0011917431994206  0.3453761903397350  0.0091468185780386
  0.9910634896375612  0.3283254140729568  0.3240599234817694
  0.9896941865691460  0.3438391197061677  0.6660633200614683
  0.0097984484038776  0.6601704086160538  0.9890976865921530
  0.9868488903700197  0.6683298384492744  0.3335880057804488
  0.0092955474633456  0.6589525332016493  0.6780176294776652
  0.3244633959687420  0.9878032827259489  0.9930092217848170
  0.3428234112312438  0.9928242241594774  0.3332081260959612
  0.3337464449908367  0.0062276732012663  0.6783068230651068
  0.3463551164234815  0.3332064462251765  0.0020441126622401
  0.3339202346985459  0.3342582972224832  0.3459067900567376
  0.3344014421290709  0.3217827239935147  0.6604248949351401
  0.3227434924255235  0.6774546343414727  0.9911554982120592
  0.3323292936652749  0.6785737460960419  0.3328556324815821
  0.3217930408602641  0.6662081146107042  0.6778727049638036
  0.6666849446129959  0.9988724309273280  0.0115891195981987
  0.6564741578366053  0.9994598424009524  0.3265376708645817
  0.6755746481023266  0.0117685914824861  0.6675366994626657
  0.6616166723839143  0.3398359204955455  0.9888014499996913
  0.6777440879842089  0.3433585646456905  0.3325725826085559
  0.6762466598990144  0.3236998886149394  0.6741319638832692
  0.6670946498341834  0.6533394203791190  0.9999152445428550
  0.6729141586460585  0.6559745591369506  0.3386420657545415
  0.6660579613945927  0.6675557796062321  0.6528248663785874
  0.0001215249649178  0.1648885722924547  0.3357126886063142
  0.9946103671409858  0.4991886792601150  0.9950498457608887
  0.9970885368897910  0.4991874722518759  0.6702133505788481
  0.3378868976631182  0.1667405182120163  0.6675990663261970
  0.3426464273138023  0.8339773984118040  0.0120599470028182
  0.3299472673006321  0.8328496674679613  0.3303980201814909
  0.6555994543389190  0.1651520473531463  0.6635600154835330
  0.6737187024074203  0.5014557682314305  0.0082632579703912
  0.6590740446399579  0.5001429778606266  0.3240207817745571
  0.1656448452540573  0.9976858388839887  0.0080247931768938
  0.1663890793681304  0.6695122248732446  0.0030557363841552
  0.1677983063053219  0.6684849529149091  0.6614877366626999
  0.4994752916274265  0.0025187235735871  0.3354917184075461
  0.4988893999736987  0.3326072948001197  0.0046969927136260
  0.8330054216397826  0.0047586809864626  0.6671066525846570
  0.8328718977196274  0.3382445867444730  0.3408933601014965
  0.8336199566702049  0.3266133203871817  0.6576878667771737
  0.8341842882483519  0.6667164379660804  0.3303461075706409
  0.0037674343840379  0.9968254728726862  0.8329711885724009
  0.0017962845000952  0.3357756525254345  0.1677988348844437
  0.9950155030941659  0.6777887377170586  0.8332474986388263
  0.3333509454075312  0.9940423112156225  0.8319203404985061
  0.3362018011950383  0.3347528677500478  0.4982966518614660
  0.3369546733014275  0.6706620482312360  0.8324009453374615
  0.6699789180419273  0.0000431550636151  0.1667264243995774
  0.6679406633195200  0.3359453479320393  0.8337892704003593
  0.6639896107914112  0.6678679815157622  0.4995559805411958
  0.9977154313297802  0.1659357924007949  0.0031449759391435
  0.0115142768201579  0.1657177813245809  0.6600605355074123
  0.0067527458296865  0.5026101331606014  0.3387914099348777
  0.9915792871477862  0.8343674042674394  0.0118865444975143
  0.0057772284002269  0.8340665702477352  0.3313000277921034
  0.9972135193489748  0.8339672394546085  0.6565606125732515
  0.3319205714353473  0.1678029158361127  0.9984890297851123
  0.3252291367625162  0.1669679311800536  0.3334712396929760
  0.3327356433257194  0.4989486559339511  0.0035636361673070
  0.3395190874693839  0.5004989238251838  0.3303495147278426
  0.3338398299097776  0.4982369565168270  0.6666321294193196
  0.3376863095121152  0.8333431556397315  0.6520810054412678
  0.6698428941461074  0.1644287698411162  0.9972497827495630
  0.6706870282926332  0.1654359645264876  0.3416578481281007
  0.6688641224323746  0.5019684655558692  0.6661398319918419
  0.6596865074437801  0.8337067934893412  0.9951363999322211
  0.6650632701328689  0.8330432919917996  0.3326971305154700
  0.6646196032949803  0.8328093707130719  0.6725730119695541
  0.1665060795406461  0.9995454785010125  0.3260930765422927
  0.1671596793035945  0.9943028219948431  0.6601222677478873
  0.1693101523522174  0.3319331774948964  0.9959580672477202
  0.1688177414027408  0.3387813874971499  0.3332600132438372
  0.1685431441204770  0.3337890315413574  0.6715424331729452
  0.1671712885886478  0.6626144452931513  0.3359430906240561
  0.5014137823306584  0.0093801111735843  0.0026647567045401
  0.5004356677581541  0.9903412486315162  0.6599564474624628
  0.4984380397328465  0.3234799329532763  0.3240289522018927
  0.4993617456533315  0.3434628454364272  0.6699520660250684
  0.5018029138762330  0.6602269411475277  0.0025694568346850
  0.4989074603504804  0.6718652047335709  0.3294006282223521
  0.5009948386314775  0.6650560974982369  0.6663504984150919
  0.8309719622095315  0.9983290769738815  0.9951006101687838
  0.8326843599665708  0.9943231082654123  0.3401571004969313
  0.8330960004465666  0.3245184709403190  0.0017711971200072
  0.8306937258956140  0.6765818650534143  0.0073459877267155
  0.8310904639105274  0.6713569442801699  0.6634505583933006
  0.9881037656288001  0.9997368403062978  0.1680263453850301
  0.0044668439161626  0.9955632422893075  0.4984510786100529
  0.0131891336488863  0.3347446556558538  0.4987630277864383
  0.9992430095133145  0.3212491231042875  0.8338329886407294
  0.0021568698157495  0.6650034992409175  0.1693837440909505
  0.9974051860404032  0.6699241971844572  0.4983525377556859
  0.3375163140829258  0.0119213611127194  0.1681114140225475
  0.3275793229662085  0.0031786988672735  0.4977246852297128
  0.3267701993871555  0.3316824386991897  0.1685188569367355
  0.3340030194625214  0.3376902352652920  0.8344644983272360
  0.3356670067518195  0.6572359897974778  0.1694584950108364
  0.3405913727748242  0.6601872109505678  0.4967677945966216
  0.6678313016985840  0.9913158870416225  0.4987932710729268
  0.6607930475114259  0.9988032518441443  0.8360214196513667
  0.6702626011995463  0.3196969925548743  0.1666544289187613
  0.6521093762575632  0.3384927565134319  0.4989174567100534
  0.6622317653829981  0.6799760504012582  0.1659359100212399
  0.6679450216276024  0.6648272120126180  0.8330359504896805
 
  0.00000000E+00  0.00000000E+00  0.00000000E+00
  0.00000000E+00  0.00000000E+00  0.00000000E+00
  0.00000000E+00  0.00000000E+00  0.00000000E+00
  0.00000000E+00  0.00000000E+00  0.00000000E+00
  0.00000000E+00  0.00000000E+00  0.00000000E+00
  0.00000000E+00  0.00000000E+00  0.00000000E+00
  0.00000000E+00  0.00000000E+00  0.00000000E+00
  0.00000000E+00  0.00000000E+00  0.00000000E+00
  0.00000000E+00  0.00000000E+00  0.00000000E+00
  0.00000000E+00  0.00000000E+00  0.00000000E+00
  0.00000000E+00  0.00000000E+00  0.00000000E+00
  0.00000000E+00  0.00000000E+00  0.00000000E+00
  0.00000000E+00  0.00000000E+00  0.00000000E+00
  0.00000000E+00  0.00000000E+00  0.00000000E+00
  0.00000000E+00  0.00000000E+00  0.00000000E+00
  0.00000000E+00  0.00000000E+00  0.00000000E+00
  0.00000000E+00  0.00000000E+00  0.00000000E+00
  0.00000000E+00  0.00000000E+00  0.00000000E+00
  0.00000000E+00  0.00000000E+00  0.00000000E+00
  0.00000000E+00  0.00000000E+00  0.00000000E+00
  0.00000000E+00  0.00000000E+00  0.00000000E+00
  0.00000000E+00  0.00000000E+00  0.00000000E+00
  0.00000000E+00  0.00000000E+00  0.00000000E+00
  0.00000000E+00  0.00000000E+00  0.00000000E+00
  0.00000000E+00  0.00000000E+00  0.00000000E+00
  0.00000000E+00  0.00000000E+00  0.00000000E+00
  0.00000000E+00  0.00000000E+00  0.00000000E+00
  0.00000000E+00  0.00000000E+00  0.00000000E+00
  0.00000000E+00  0.00000000E+00  0.00000000E+00
  0.00000000E+00  0.00000000E+00  0.00000000E+00
  0.00000000E+00  0.00000000E+00  0.00000000E+00
  0.00000000E+00  0.00000000E+00  0.00000000E+00
  0.00000000E+00  0.00000000E+00  0.00000000E+00
  0.00000000E+00  0.00000000E+00  0.00000000E+00
  0.00000000E+00  0.00000000E+00  0.00000000E+00
  0.00000000E+00  0.00000000E+00  0.00000000E+00
  0.00000000E+00  0.00000000E+00  0.00000000E+00
  0.00000000E+00  0.00000000E+00  0.00000000E+00
  0.00000000E+00  0.00000000E+00  0.00000000E+00
  0.00000000E+00  0.00000000E+00  0.00000000E+00
  0.00000000E+00  0.00000000E+00  0.00000000E+00
  0.00000000E+00  0.00000000E+00  0.00000000E+00
  0.00000000E+00  0.00000000E+00  0.00000000E+00
  0.00000000E+00  0.00000000E+00  0.00000000E+00
  0.00000000E+00  0.00000000E+00  0.00000000E+00
  0.00000000E+00  0.00000000E+00  0.00000000E+00
  0.00000000E+00  0.00000000E+00  0.00000000E+00
  0.00000000E+00  0.00000000E+00  0.00000000E+00
  0.00000000E+00  0.00000000E+00  0.00000000E+00
  0.00000000E+00  0.00000000E+00  0.00000000E+00
  0.00000000E+00  0.00000000E+00  0.00000000E+00
  0.00000000E+00  0.00000000E+00  0.00000000E+00
  0.00000000E+00  0.00000000E+00  0.00000000E+00
  0.00000000E+00  0.00000000E+00  0.00000000E+00
  0.00000000E+00  0.00000000E+00  0.00000000E+00
  0.00000000E+00  0.00000000E+00  0.00000000E+00
  0.00000000E+00  0.00000000E+00  0.00000000E+00
  0.00000000E+00  0.00000000E+00  0.00000000E+00
  0.00000000E+00  0.00000000E+00  0.00000000E+00
  0.00000000E+00  0.00000000E+00  0.00000000E+00
  0.00000000E+00  0.00000000E+00  0.00000000E+00
  0.00000000E+00  0.00000000E+00  0.00000000E+00
  0.00000000E+00  0.00000000E+00  0.00000000E+00
  0.00000000E+00  0.00000000E+00  0.00000000E+00
  0.00000000E+00  0.00000000E+00  0.00000000E+00
  0.00000000E+00  0.00000000E+00  0.00000000E+00
  0.00000000E+00  0.00000000E+00  0.00000000E+00
  0.00000000E+00  0.00000000E+00  0.00000000E+00
  0.00000000E+00  0.00000000E+00  0.00000000E+00
  0.00000000E+00  0.00000000E+00  0.00000000E+00
  0.00000000E+00  0.00000000E+00  0.00000000E+00
  0.00000000E+00  0.00000000E+00  0.00000000E+00
  0.00000000E+00  0.00000000E+00  0.00000000E+00
  0.00000000E+00  0.00000000E+00  0.00000000E+00
  0.00000000E+00  0.00000000E+00  0.00000000E+00
  0.00000000E+00  0.00000000E+00  0.00000000E+00
  0.00000000E+00  0.00000000E+00  0.00000000E+00
  0.00000000E+00  0.00000000E+00  0.00000000E+00
  0.00000000E+00  0.00000000E+00  0.00000000E+00
  0.00000000E+00  0.00000000E+00  0.00000000E+00
  0.00000000E+00  0.00000000E+00  0.00000000E+00
  0.00000000E+00  0.00000000E+00  0.00000000E+00
  0.00000000E+00  0.00000000E+00  0.00000000E+00
  0.00000000E+00  0.00000000E+00  0.00000000E+00
  0.00000000E+00  0.00000000E+00  0.00000000E+00
  0.00000000E+00  0.00000000E+00  0.00000000E+00
  0.00000000E+00  0.00000000E+00  0.00000000E+00
  0.00000000E+00  0.00000000E+00  0.00000000E+00
  0.00000000E+00  0.00000000E+00  0.00000000E+00
  0.00000000E+00  0.00000000E+00  0.00000000E+00
  0.00000000E+00  0.00000000E+00  0.00000000E+00
  0.00000000E+00  0.00000000E+00  0.00000000E+00
  0.00000000E+00  0.00000000E+00  0.00000000E+00
  0.00000000E+00  0.00000000E+00  0.00000000E+00
  0.00000000E+00  0.00000000E+00  0.00000000E+00
  0.00000000E+00  0.00000000E+00  0.00000000E+00
  0.00000000E+00  0.00000000E+00  0.00000000E+00
  0.00000000E+00  0.00000000E+00  0.00000000E+00
  0.00000000E+00  0.00000000E+00  0.00000000E+00
  0.00000000E+00  0.00000000E+00  0.00000000E+00
  0.00000000E+00  0.00000000E+00  0.00000000E+00
  0.00000000E+00  0.00000000E+00  0.00000000E+00
  0.00000000E+00  0.00000000E+00  0.00000000E+00
  0.00000000E+00  0.00000000E+00  0.00000000E+00
  0.00000000E+00  0.00000000E+00  0.00000000E+00
  0.00000000E+00  0.00000000E+00  0.00000000E+00
  0.00000000E+00  0.00000000E+00  0.00000000E+00
  0.00000000E+00  0.00000000E+00  0.00000000E+00
