config 01                               
   1.00000000000000     
    15.4263309999999993    0.0000000000000000    0.0000000000000000
     0.0000000000000000   15.4263309999999993    0.0000000000000000
     0.0000000000000000    0.0000000000000000   15.4263309999999993
   Li   Ti   O    F 
     1    64    64   128
Direct
  0.1232987962479371  0.0510068226172021  0.1218159794864266
  0.9912667039104266  0.9951073105608081  0.9903738151958091
  0.9996324958232282  0.9925112515862281  0.4942073051511142
  0.0057968633461609  0.4960941845589931  0.9977431417252214
  0.9942766606854117  0.5030096683148593  0.5072057691192244
  0.4957228276566605  0.9941446152756541  0.9995435683846382
  0.5011996211580174  0.0077127343772644  0.5000286999203709
  0.5040198891340385  0.4955018794454396  0.9961613277142980
  0.4919478157654172  0.4990614073206336  0.4954413455665128
  0.0057932222145632  0.0051998341011232  0.2580991394221160
  0.0007852920324352  0.0086460644301004  0.7541365544526366
  0.9940671632666204  0.4938388492045700  0.2514986582638885
  0.9926647351747842  0.4997392274836866  0.7421068531395647
  0.5076837079829107  0.0091708989960084  0.2504310923225856
  0.4923349242671510  0.0048535810214672  0.7523666645979105
  0.4929983515760076  0.4961321502383291  0.2572379572809885
  0.5006289261041447  0.5042145027600153  0.7582265567942781
  0.9948383372642025  0.2580695338250010  0.0013607108376931
  0.9983422534716287  0.2486187517514796  0.4915110012174673
  0.9981256414239197  0.7581791467319677  0.0066669665803344
  0.9977375305893080  0.7570352883642544  0.5061693258388298
  0.4950141983428372  0.2578951809020435  0.0014355525368427
  0.5082598152571977  0.2455070167243353  0.4984283604072683
  0.5075118256779798  0.7559837199098418  0.9994666916164786
  0.5069397633431406  0.7532001868012979  0.5091642908612831
  0.9994121407624317  0.2588537518040883  0.2551224047247685
  0.0061654375704435  0.2432172054746068  0.7471573581523704
  0.0072669758279918  0.7488860990730872  0.2437169251429682
  0.9928745186581901  0.7510491408465118  0.7436233712995560
  0.5082121322980296  0.2420000812884071  0.2513345527881119
  0.5064266077659709  0.2427993206038789  0.7501405171502042
  0.5073673762941316  0.7509596745714096  0.2520932331696610
  0.5016871775833750  0.7422530557411926  0.7436259628136801
  0.2590899902846104  0.9994394169915303  0.0047885077466010
  0.2501389129992918  0.9943131142167961  0.5084813665634442
  0.2439577032557744  0.5081082332096115  0.9973425563345736
  0.2541789455660930  0.4949921945579773  0.5074857450478011
  0.7549905635124956  0.0005744597163957  0.9932747009661854
  0.7507272894410435  0.0066557297320979  0.4939400280328227
  0.7420505753647628  0.5006251489657907  0.0050246553570266
  0.7554173903939408  0.4977977213395641  0.5052565997774202
  0.2505912907205054  0.0035485970834829  0.2478354720252395
  0.2574776972113113  0.9983714948145455  0.7454373924353774
  0.2549831524937742  0.4912619998098826  0.2515720595686008
  0.2467465115756392  0.5068286141316884  0.7420269507754653
  0.7459826557004270  0.0011957219135460  0.2549171810945534
  0.7476806020771884  0.0063614129375252  0.7550216395303837
  0.7558564245378360  0.4984920006685691  0.2428643859266454
  0.7570397886025607  0.4982564417571335  0.7426060972891335
  0.2571901954011123  0.2511174646622745  0.0057360402178600
  0.2527670854326428  0.2565861795897336  0.5059025345832239
  0.2521033612410917  0.7434121431454216  0.9935341698899366
  0.2518659521713354  0.7555703656965980  0.4934795344473651
  0.7566674879680844  0.2510052139013380  0.0076400076353389
  0.7428599417408959  0.2427561701225589  0.4972174714504257
  0.7418711852989254  0.7495560247123408  0.9941428928150752
  0.7417392823434702  0.7524921044690254  0.4940376360795783
  0.2512778536601847  0.2565073885028405  0.2428866133964576
  0.2439648521931121  0.2512025759249598  0.7440536003088961
  0.2443012349664368  0.7479089049490678  0.2560416278005530
  0.2479319176696817  0.7426116181317769  0.7574557140819664
  0.7419012546743152  0.2508451855223388  0.2427403880164936
  0.7441655682089239  0.2422610750781224  0.7508284736782916
  0.7461475118674535  0.7500933399268496  0.2565379558544053
  0.7572239050912384  0.7506844426479592  0.7567006584999466
  0.0085382870123706  0.5022411912328137  0.6248001462360702
  0.9947219178691592  0.0080570519907581  0.3780774238387809
  0.9983584459705012  0.0034647068784293  0.8706960591004393
  0.4993051785353434  0.4926750466325627  0.3755803957565429
  0.4933625096363909  0.4975436816141627  0.8746905062398873
  0.9983570135394138  0.7462540123004410  0.1255865562884326
  0.0013128606306213  0.7463370733465877  0.6244782960383191
  0.5010850451025153  0.7557433241096607  0.6250377656200594
  0.9928267404080247  0.2473195365383714  0.3766027338458126
  0.2477691572608227  0.0152646441588487  0.1210292895754718
  0.2562107199968924  0.0081314479616738  0.6267513378741049
  0.2376348856092171  0.4997913037079976  0.6265285372869651
  0.7506153274042878  0.4913297365127904  0.1255504852383219
  0.7457665004707810  0.4932430406302573  0.6241630773521588
  0.7528427297469048  0.9992329012424178  0.3756988083926952
  0.7448975260555258  0.9974713185430207  0.8730511491072568
  0.2415558830378573  0.2429012002172103  0.1248152574171618
  0.2513357703968461  0.2457506953547005  0.6256929646350132
  0.7388600348977497  0.2582830704731878  0.1262732411770161
  0.2550161993530558  0.7495753928177973  0.3754907889294893
  0.2506559141156107  0.7582493883574136  0.8755903674065677
  0.7521801496790234  0.7525478640326428  0.3741830390721984
  0.7469175711673166  0.7535164303749935  0.8754754006179203
  0.1243578198538558  0.5041464864777018  0.9941009673992538
  0.6257338555157835  0.5074201935423354  0.9980866216593165
  0.1198468450776490  0.0166482550271768  0.2451418384704302
  0.6267494210075190  0.0063652698157901  0.2497917165118139
  0.6243079230403890  0.2566802506204008  0.4917369472302092
  0.6246568684081780  0.7406317625484041  0.0047318640071632
  0.6245931052772246  0.7634046940184549  0.4965337510098392
  0.1242417623226127  0.2499596899688955  0.7512760399501911
  0.1251934533250866  0.7461376091997668  0.2522193145226260
  0.6258785216423339  0.2405690611928363  0.2648607073917901
  0.6252810848935936  0.2518184466829715  0.7491147639229059
  0.6236211355900344  0.7498635039057322  0.2503672894396355
  0.3775432508323375  0.9996601125095583  0.9914991134943354
  0.3753208814733515  0.5053589875729374  0.5053000018916001
  0.8711792748404483  0.0028344204885319  0.9995564125627220
  0.8754165235969652  0.5011514213917440  0.4999875248220882
  0.3757590722362852  0.9956885252733990  0.7603828663660478
  0.3743200740647965  0.4913509616030414  0.2486274164281055
  0.8757352624233923  0.4935370980837873  0.2525524861401858
  0.8750765354853646  0.5087318730111965  0.7456041107095357
  0.3758630636300984  0.2474057583271767  0.0067700614926778
  0.8739741996899845  0.2470751258012429  0.0085934208059785
  0.8747608237105151  0.7436985101361825  0.7503002774677469
  0.5103869783523964  0.1222966688570359  0.4966536046452689
  0.9943501118776940  0.1265698047011287  0.7410859931987791
  0.4912211125339218  0.1256497041734375  0.2622843315625368
  0.5002437652956185  0.1234028133758948  0.7463779435753665
  0.5014478394698240  0.6253380325121931  0.7485108746679993
  0.9995368774250211  0.3754930045727635  0.0048789724654319
  0.0018515964487004  0.8759034899610320  0.0012236028591067
  0.9978197928522061  0.8752342231788129  0.4981769964089291
  0.5023374954675436  0.3741171756534168  0.0077311921410507
  0.5058737585391548  0.8753361607011139  0.0030845921617638
  0.0112183366903581  0.3742666590090675  0.2466708536826298
  0.2563754362202013  0.6255614944448201  0.9962699709277852
  0.7424427089892621  0.1250935049059791  0.5035867207951201
  0.2482216353614239  0.6251007349828469  0.7554298106016498
  0.7516994399768864  0.1245782168757641  0.7444861848170713
  0.2512742909872970  0.3733682988031118  0.4985312157529525
  0.2518590126702113  0.8761069044439371  0.5047167543255281
  0.2377162918569284  0.3742158290327129  0.2519302945307560
  0.0040217215554996  0.0089306682753862  0.1235476713470761
  0.0051769799711410  0.9961471011245008  0.6239650183117521
  0.0001992815419940  0.5101457912921064  0.1251780819759585
  0.4950133176014378  0.0076608696927470  0.1261184356879423
  0.4948650862319350  0.9925337099732707  0.6233000925188515
  0.5023672636941942  0.5086727506536650  0.1273289327246620
  0.5085763763298988  0.4993022915283280  0.6247662463339928
  0.0035742574473368  0.4953491292106000  0.3761581178464866
  0.9939704283701318  0.4974320192979795  0.8731754682167546
  0.5066563372806253  0.9905442480914136  0.3770355449070614
  0.5178629936626948  0.0019470748591653  0.8751862932208000
  0.0119026694886355  0.2441241836153326  0.1269805668698535
  0.0010512543690149  0.2610040787785291  0.6215461529117408
  0.5134977897500039  0.2376911961354353  0.1264788418938365
  0.4973798230565636  0.2478489942397701  0.6226098382616122
  0.4953163693864184  0.7455756501356920  0.1269991002169946
  0.9923213288269079  0.2495037428340728  0.8741701655188400
  0.9936180888491281  0.7518065756085121  0.3751366859004040
  0.0022744964647085  0.7519153574948456  0.8741494800548226
  0.4889462953610613  0.2632516250933470  0.3753799571406941
  0.4978324740332882  0.2512240384049120  0.8746803729716158
  0.4936494674461144  0.7537237009415927  0.3758772209699882
  0.5000694460122900  0.7504404837994876  0.8743658918567923
  0.2442791631948379  0.4990767581348905  0.1246247623262749
  0.7488680529376752  0.0054268128433934  0.1256254238168547
  0.7452351755030169  0.9962041625158532  0.6228434109100909
  0.2498207988657030  0.9975380717721659  0.3778910537426299
  0.2398605494980326  0.9890047726239940  0.8746403903571807
  0.2483655679089827  0.5076496287642934  0.3756399837726776
  0.2605678258247445  0.4927651854527852  0.8739477876469813
  0.7465840900376640  0.5076157114372347  0.3748821247622176
  0.7529737800551293  0.5057461141328615  0.8740857488708413
  0.2528606997034626  0.7488981406666172  0.1247704096122933
  0.2489743701167519  0.7475193274620373  0.6258561872615357
  0.7487523126336583  0.2612309178552507  0.6226879872760811
  0.7539464322658357  0.7475227967413780  0.1256136858212766
  0.7477391539103829  0.7478900726459045  0.6244023454620652
  0.2529617931247369  0.2496413864585653  0.3750579523022141
  0.2537751653535430  0.2573478284279466  0.8752998319545435
  0.7655461578031122  0.2426641767084876  0.3740187439449331
  0.7548590812890654  0.2446965022651208  0.8758447310314619
  0.1239433913784873  0.0064859628890116  0.0054308728194935
  0.1248547644171299  0.0068054256009899  0.5003413994326635
  0.1235109133223463  0.5016283095966950  0.4920604417977208
  0.6252775351465832  0.0019457308015936  0.0090988929079084
  0.6241648330106800  0.9827939444087027  0.5026416759238546
  0.6253482270747220  0.4923705986126412  0.4975951679735352
  0.1265351600714675  0.0033110723843209  0.7467534833017030
  0.1240014176726251  0.5110545430287653  0.2495621748165455
  0.1230801842134336  0.4934920343678480  0.7643080654281630
  0.6232180211245363  0.9954726030734474  0.7397848459528018
  0.6254248469690177  0.5027541168507825  0.2500270010222296
  0.6262912369380622  0.4924615953663471  0.7562560415005548
  0.1244459087437600  0.2500127122112552  0.9919906918703593
  0.1233323641004957  0.2443350912481452  0.4977977256060853
  0.1251418591935907  0.7450434725852013  0.0016851578084074
  0.1241337283275868  0.7491558910385588  0.4957024779053248
  0.6262102781028503  0.2506479433546593  0.9909867825403464
  0.1237778715148255  0.2316637896828586  0.2577960552603355
  0.1232962388846390  0.7540285083106696  0.7509290450425018
  0.6262368475017488  0.7544411614099293  0.7493134527160181
  0.3775251142431164  0.0077843261753902  0.4939459386522103
  0.3733157926766416  0.4951611967575082  0.0086184449685940
  0.8746600519120780  0.0064703587041524  0.5115834976790810
  0.8747737068496058  0.4983415582302897  0.9997715054906495
  0.3826609593942581  0.9892439558675477  0.2566404411770850
  0.3744985715899135  0.4985851835669030  0.7393568974720089
  0.8735061071622841  0.9938453600596117  0.2432890407134020
  0.8737163501123928  0.9931629478984083  0.7410252101039252
  0.3786908771356584  0.2415900232751395  0.4987854327171247
  0.3767065284504226  0.7591868842670777  0.0010130681086564
  0.3772477910582346  0.7423654833351859  0.5031203377521762
  0.8740432876616768  0.2513424404708474  0.5074815329073414
  0.8722867941808995  0.7559965587414950  0.9975122329516668
  0.8724519943761954  0.7433133719874648  0.5036241038219679
  0.3790592689913045  0.2646904222303248  0.2413681097230226
  0.3760458524611460  0.2496422898892848  0.7512835163517431
  0.3778986448004640  0.7511602743786238  0.2482002954915477
  0.3751239798069317  0.7556775477354098  0.7500005541389868
  0.8737586531505755  0.2637942880367267  0.2409035696554404
  0.8737828981026253  0.2547001056054627  0.7446172118611024
  0.8739733234478579  0.7514224603748217  0.2492798726518226
  0.0051964130267509  0.1269019229310606  0.0014454135621983
  0.9961787026870212  0.1264351505356395  0.5117646436123365
  0.9931871003035827  0.6260789678524039  0.9934995298369119
  0.0010839949856819  0.6267739617702149  0.4918091896933806
  0.5053302713563090  0.1245516399007445  0.9968517955523536
  0.4883193926303986  0.6273793316365952  0.9992527174590107
  0.5097391321392145  0.6266297741461343  0.4983096520418445
  0.9803482537125224  0.1298273491610585  0.2461103802604593
  0.9945112123519571  0.6237017407050920  0.2582880707949684
  0.0110916107538629  0.6248972307053324  0.7561385872110754
  0.4985211749025913  0.6255229044272328  0.2565116435395984
  0.0036854552151895  0.3742462925094886  0.4977802546807050
  0.4923751086557243  0.3716236100860911  0.5076683926194877
  0.4862455255730272  0.8779355283795581  0.4967619743530625
  0.9954703896201303  0.3748783468181338  0.7517213145795277
  0.0013680464693496  0.8769914762279560  0.2502711416261999
  0.0001026521758784  0.8761168698705598  0.7477638860544656
  0.5105774412173665  0.3718471650223123  0.2389793804276279
  0.4963004203765039  0.3729530857763715  0.7450341294177827
  0.5035405404185701  0.8758295475024577  0.2455455041729883
  0.5030068541409281  0.8752908616160651  0.7560502226185212
  0.2457983004954392  0.1254416651279822  0.9836254647179443
  0.2503086380509918  0.1246068215849021  0.4940628430343409
  0.2458194792111491  0.6266927570983853  0.5030782741549934
  0.7416840240665076  0.1262572864498609  0.0010388390068263
  0.7619535550419975  0.6256025551734027  0.0025330087072762
  0.7423161742914537  0.6255790862987474  0.5017481054319194
  0.2695949600223202  0.1320399287633812  0.2596406471163890
  0.2525655929860960  0.1246713158290668  0.7635420198909185
  0.2558359663481613  0.6230241171643607  0.2449345692007011
  0.7648499200194421  0.1266959397567617  0.2477925925145209
  0.7511425167418655  0.6249671275595245  0.2468392770849208
  0.7383210657309822  0.6248439099926425  0.7477058175013065
  0.2484605855175930  0.3760509420768857  0.0032289581025532
  0.2444690787757058  0.8749040142502261  0.0093064165291119
  0.7492854501309575  0.3750137825147503  0.9875262122215942
  0.7546178058185997  0.3724689214985246  0.4877455363170624
  0.7441745459258795  0.8751877864437014  0.0092691486364418
  0.7626488521779509  0.8764311309993897  0.5038907608360641
  0.2531050315466482  0.3759287773867720  0.7513487916011821
  0.2481486235301208  0.8721637438588118  0.2455226526752144
  0.2453765468633958  0.8741059241131878  0.7412255632375500
  0.7422934414645056  0.3742796565768060  0.2658482595003674
  0.7546974823251478  0.3738567677391205  0.7585299831598731
  0.7498340996437494  0.8755487677090055  0.2420295343787562
  0.7508482595386913  0.8750418921065286  0.7430305350166111
 
  0.00000000E+00  0.00000000E+00  0.00000000E+00
  0.00000000E+00  0.00000000E+00  0.00000000E+00
  0.00000000E+00  0.00000000E+00  0.00000000E+00
  0.00000000E+00  0.00000000E+00  0.00000000E+00
  0.00000000E+00  0.00000000E+00  0.00000000E+00
  0.00000000E+00  0.00000000E+00  0.00000000E+00
  0.00000000E+00  0.00000000E+00  0.00000000E+00
  0.00000000E+00  0.00000000E+00  0.00000000E+00
  0.00000000E+00  0.00000000E+00  0.00000000E+00
  0.00000000E+00  0.00000000E+00  0.00000000E+00
  0.00000000E+00  0.00000000E+00  0.00000000E+00
  0.00000000E+00  0.00000000E+00  0.00000000E+00
  0.00000000E+00  0.00000000E+00  0.00000000E+00
  0.00000000E+00  0.00000000E+00  0.00000000E+00
  0.00000000E+00  0.00000000E+00  0.00000000E+00
  0.00000000E+00  0.00000000E+00  0.00000000E+00
  0.00000000E+00  0.00000000E+00  0.00000000E+00
  0.00000000E+00  0.00000000E+00  0.00000000E+00
  0.00000000E+00  0.00000000E+00  0.00000000E+00
  0.00000000E+00  0.00000000E+00  0.00000000E+00
  0.00000000E+00  0.00000000E+00  0.00000000E+00
  0.00000000E+00  0.00000000E+00  0.00000000E+00
  0.00000000E+00  0.00000000E+00  0.00000000E+00
  0.00000000E+00  0.00000000E+00  0.00000000E+00
  0.00000000E+00  0.00000000E+00  0.00000000E+00
  0.00000000E+00  0.00000000E+00  0.00000000E+00
  0.00000000E+00  0.00000000E+00  0.00000000E+00
  0.00000000E+00  0.00000000E+00  0.00000000E+00
  0.00000000E+00  0.00000000E+00  0.00000000E+00
  0.00000000E+00  0.00000000E+00  0.00000000E+00
  0.00000000E+00  0.00000000E+00  0.00000000E+00
  0.00000000E+00  0.00000000E+00  0.00000000E+00
  0.00000000E+00  0.00000000E+00  0.00000000E+00
  0.00000000E+00  0.00000000E+00  0.00000000E+00
  0.00000000E+00  0.00000000E+00  0.00000000E+00
  0.00000000E+00  0.00000000E+00  0.00000000E+00
  0.00000000E+00  0.00000000E+00  0.00000000E+00
  0.00000000E+00  0.00000000E+00  0.00000000E+00
  0.00000000E+00  0.00000000E+00  0.00000000E+00
  0.00000000E+00  0.00000000E+00  0.00000000E+00
  0.00000000E+00  0.00000000E+00  0.00000000E+00
  0.00000000E+00  0.00000000E+00  0.00000000E+00
  0.00000000E+00  0.00000000E+00  0.00000000E+00
  0.00000000E+00  0.00000000E+00  0.00000000E+00
  0.00000000E+00  0.00000000E+00  0.00000000E+00
  0.00000000E+00  0.00000000E+00  0.00000000E+00
  0.00000000E+00  0.00000000E+00  0.00000000E+00
  0.00000000E+00  0.00000000E+00  0.00000000E+00
  0.00000000E+00  0.00000000E+00  0.00000000E+00
  0.00000000E+00  0.00000000E+00  0.00000000E+00
  0.00000000E+00  0.00000000E+00  0.00000000E+00
  0.00000000E+00  0.00000000E+00  0.00000000E+00
  0.00000000E+00  0.00000000E+00  0.00000000E+00
  0.00000000E+00  0.00000000E+00  0.00000000E+00
  0.00000000E+00  0.00000000E+00  0.00000000E+00
  0.00000000E+00  0.00000000E+00  0.00000000E+00
  0.00000000E+00  0.00000000E+00  0.00000000E+00
  0.00000000E+00  0.00000000E+00  0.00000000E+00
  0.00000000E+00  0.00000000E+00  0.00000000E+00
  0.00000000E+00  0.00000000E+00  0.00000000E+00
  0.00000000E+00  0.00000000E+00  0.00000000E+00
  0.00000000E+00  0.00000000E+00  0.00000000E+00
  0.00000000E+00  0.00000000E+00  0.00000000E+00
  0.00000000E+00  0.00000000E+00  0.00000000E+00
  0.00000000E+00  0.00000000E+00  0.00000000E+00
  0.00000000E+00  0.00000000E+00  0.00000000E+00
  0.00000000E+00  0.00000000E+00  0.00000000E+00
  0.00000000E+00  0.00000000E+00  0.00000000E+00
  0.00000000E+00  0.00000000E+00  0.00000000E+00
  0.00000000E+00  0.00000000E+00  0.00000000E+00
  0.00000000E+00  0.00000000E+00  0.00000000E+00
  0.00000000E+00  0.00000000E+00  0.00000000E+00
  0.00000000E+00  0.00000000E+00  0.00000000E+00
  0.00000000E+00  0.00000000E+00  0.00000000E+00
  0.00000000E+00  0.00000000E+00  0.00000000E+00
  0.00000000E+00  0.00000000E+00  0.00000000E+00
  0.00000000E+00  0.00000000E+00  0.00000000E+00
  0.00000000E+00  0.00000000E+00  0.00000000E+00
  0.00000000E+00  0.00000000E+00  0.00000000E+00
  0.00000000E+00  0.00000000E+00  0.00000000E+00
  0.00000000E+00  0.00000000E+00  0.00000000E+00
  0.00000000E+00  0.00000000E+00  0.00000000E+00
  0.00000000E+00  0.00000000E+00  0.00000000E+00
  0.00000000E+00  0.00000000E+00  0.00000000E+00
  0.00000000E+00  0.00000000E+00  0.00000000E+00
  0.00000000E+00  0.00000000E+00  0.00000000E+00
  0.00000000E+00  0.00000000E+00  0.00000000E+00
  0.00000000E+00  0.00000000E+00  0.00000000E+00
  0.00000000E+00  0.00000000E+00  0.00000000E+00
  0.00000000E+00  0.00000000E+00  0.00000000E+00
  0.00000000E+00  0.00000000E+00  0.00000000E+00
  0.00000000E+00  0.00000000E+00  0.00000000E+00
  0.00000000E+00  0.00000000E+00  0.00000000E+00
  0.00000000E+00  0.00000000E+00  0.00000000E+00
  0.00000000E+00  0.00000000E+00  0.00000000E+00
  0.00000000E+00  0.00000000E+00  0.00000000E+00
  0.00000000E+00  0.00000000E+00  0.00000000E+00
  0.00000000E+00  0.00000000E+00  0.00000000E+00
  0.00000000E+00  0.00000000E+00  0.00000000E+00
  0.00000000E+00  0.00000000E+00  0.00000000E+00
  0.00000000E+00  0.00000000E+00  0.00000000E+00
  0.00000000E+00  0.00000000E+00  0.00000000E+00
  0.00000000E+00  0.00000000E+00  0.00000000E+00
  0.00000000E+00  0.00000000E+00  0.00000000E+00
  0.00000000E+00  0.00000000E+00  0.00000000E+00
  0.00000000E+00  0.00000000E+00  0.00000000E+00
  0.00000000E+00  0.00000000E+00  0.00000000E+00
  0.00000000E+00  0.00000000E+00  0.00000000E+00
  0.00000000E+00  0.00000000E+00  0.00000000E+00
  0.00000000E+00  0.00000000E+00  0.00000000E+00
  0.00000000E+00  0.00000000E+00  0.00000000E+00
  0.00000000E+00  0.00000000E+00  0.00000000E+00
  0.00000000E+00  0.00000000E+00  0.00000000E+00
  0.00000000E+00  0.00000000E+00  0.00000000E+00
  0.00000000E+00  0.00000000E+00  0.00000000E+00
  0.00000000E+00  0.00000000E+00  0.00000000E+00
  0.00000000E+00  0.00000000E+00  0.00000000E+00
  0.00000000E+00  0.00000000E+00  0.00000000E+00
  0.00000000E+00  0.00000000E+00  0.00000000E+00
  0.00000000E+00  0.00000000E+00  0.00000000E+00
  0.00000000E+00  0.00000000E+00  0.00000000E+00
  0.00000000E+00  0.00000000E+00  0.00000000E+00
  0.00000000E+00  0.00000000E+00  0.00000000E+00
  0.00000000E+00  0.00000000E+00  0.00000000E+00
  0.00000000E+00  0.00000000E+00  0.00000000E+00
  0.00000000E+00  0.00000000E+00  0.00000000E+00
  0.00000000E+00  0.00000000E+00  0.00000000E+00
  0.00000000E+00  0.00000000E+00  0.00000000E+00
  0.00000000E+00  0.00000000E+00  0.00000000E+00
  0.00000000E+00  0.00000000E+00  0.00000000E+00
  0.00000000E+00  0.00000000E+00  0.00000000E+00
  0.00000000E+00  0.00000000E+00  0.00000000E+00
  0.00000000E+00  0.00000000E+00  0.00000000E+00
  0.00000000E+00  0.00000000E+00  0.00000000E+00
  0.00000000E+00  0.00000000E+00  0.00000000E+00
  0.00000000E+00  0.00000000E+00  0.00000000E+00
  0.00000000E+00  0.00000000E+00  0.00000000E+00
  0.00000000E+00  0.00000000E+00  0.00000000E+00
  0.00000000E+00  0.00000000E+00  0.00000000E+00
  0.00000000E+00  0.00000000E+00  0.00000000E+00
  0.00000000E+00  0.00000000E+00  0.00000000E+00
  0.00000000E+00  0.00000000E+00  0.00000000E+00
  0.00000000E+00  0.00000000E+00  0.00000000E+00
  0.00000000E+00  0.00000000E+00  0.00000000E+00
  0.00000000E+00  0.00000000E+00  0.00000000E+00
  0.00000000E+00  0.00000000E+00  0.00000000E+00
  0.00000000E+00  0.00000000E+00  0.00000000E+00
  0.00000000E+00  0.00000000E+00  0.00000000E+00
  0.00000000E+00  0.00000000E+00  0.00000000E+00
  0.00000000E+00  0.00000000E+00  0.00000000E+00
  0.00000000E+00  0.00000000E+00  0.00000000E+00
  0.00000000E+00  0.00000000E+00  0.00000000E+00
  0.00000000E+00  0.00000000E+00  0.00000000E+00
  0.00000000E+00  0.00000000E+00  0.00000000E+00
  0.00000000E+00  0.00000000E+00  0.00000000E+00
  0.00000000E+00  0.00000000E+00  0.00000000E+00
  0.00000000E+00  0.00000000E+00  0.00000000E+00
  0.00000000E+00  0.00000000E+00  0.00000000E+00
  0.00000000E+00  0.00000000E+00  0.00000000E+00
  0.00000000E+00  0.00000000E+00  0.00000000E+00
  0.00000000E+00  0.00000000E+00  0.00000000E+00
  0.00000000E+00  0.00000000E+00  0.00000000E+00
  0.00000000E+00  0.00000000E+00  0.00000000E+00
  0.00000000E+00  0.00000000E+00  0.00000000E+00
  0.00000000E+00  0.00000000E+00  0.00000000E+00
  0.00000000E+00  0.00000000E+00  0.00000000E+00
  0.00000000E+00  0.00000000E+00  0.00000000E+00
  0.00000000E+00  0.00000000E+00  0.00000000E+00
  0.00000000E+00  0.00000000E+00  0.00000000E+00
  0.00000000E+00  0.00000000E+00  0.00000000E+00
  0.00000000E+00  0.00000000E+00  0.00000000E+00
  0.00000000E+00  0.00000000E+00  0.00000000E+00
  0.00000000E+00  0.00000000E+00  0.00000000E+00
  0.00000000E+00  0.00000000E+00  0.00000000E+00
  0.00000000E+00  0.00000000E+00  0.00000000E+00
  0.00000000E+00  0.00000000E+00  0.00000000E+00
  0.00000000E+00  0.00000000E+00  0.00000000E+00
  0.00000000E+00  0.00000000E+00  0.00000000E+00
  0.00000000E+00  0.00000000E+00  0.00000000E+00
  0.00000000E+00  0.00000000E+00  0.00000000E+00
  0.00000000E+00  0.00000000E+00  0.00000000E+00
  0.00000000E+00  0.00000000E+00  0.00000000E+00
  0.00000000E+00  0.00000000E+00  0.00000000E+00
  0.00000000E+00  0.00000000E+00  0.00000000E+00
  0.00000000E+00  0.00000000E+00  0.00000000E+00
  0.00000000E+00  0.00000000E+00  0.00000000E+00
  0.00000000E+00  0.00000000E+00  0.00000000E+00
  0.00000000E+00  0.00000000E+00  0.00000000E+00
  0.00000000E+00  0.00000000E+00  0.00000000E+00
  0.00000000E+00  0.00000000E+00  0.00000000E+00
  0.00000000E+00  0.00000000E+00  0.00000000E+00
  0.00000000E+00  0.00000000E+00  0.00000000E+00
  0.00000000E+00  0.00000000E+00  0.00000000E+00
  0.00000000E+00  0.00000000E+00  0.00000000E+00
  0.00000000E+00  0.00000000E+00  0.00000000E+00
  0.00000000E+00  0.00000000E+00  0.00000000E+00
  0.00000000E+00  0.00000000E+00  0.00000000E+00
  0.00000000E+00  0.00000000E+00  0.00000000E+00
  0.00000000E+00  0.00000000E+00  0.00000000E+00
  0.00000000E+00  0.00000000E+00  0.00000000E+00
  0.00000000E+00  0.00000000E+00  0.00000000E+00
  0.00000000E+00  0.00000000E+00  0.00000000E+00
  0.00000000E+00  0.00000000E+00  0.00000000E+00
  0.00000000E+00  0.00000000E+00  0.00000000E+00
  0.00000000E+00  0.00000000E+00  0.00000000E+00
  0.00000000E+00  0.00000000E+00  0.00000000E+00
  0.00000000E+00  0.00000000E+00  0.00000000E+00
  0.00000000E+00  0.00000000E+00  0.00000000E+00
  0.00000000E+00  0.00000000E+00  0.00000000E+00
  0.00000000E+00  0.00000000E+00  0.00000000E+00
  0.00000000E+00  0.00000000E+00  0.00000000E+00
  0.00000000E+00  0.00000000E+00  0.00000000E+00
  0.00000000E+00  0.00000000E+00  0.00000000E+00
  0.00000000E+00  0.00000000E+00  0.00000000E+00
  0.00000000E+00  0.00000000E+00  0.00000000E+00
  0.00000000E+00  0.00000000E+00  0.00000000E+00
  0.00000000E+00  0.00000000E+00  0.00000000E+00
  0.00000000E+00  0.00000000E+00  0.00000000E+00
  0.00000000E+00  0.00000000E+00  0.00000000E+00
  0.00000000E+00  0.00000000E+00  0.00000000E+00
  0.00000000E+00  0.00000000E+00  0.00000000E+00
  0.00000000E+00  0.00000000E+00  0.00000000E+00
  0.00000000E+00  0.00000000E+00  0.00000000E+00
  0.00000000E+00  0.00000000E+00  0.00000000E+00
  0.00000000E+00  0.00000000E+00  0.00000000E+00
  0.00000000E+00  0.00000000E+00  0.00000000E+00
  0.00000000E+00  0.00000000E+00  0.00000000E+00
  0.00000000E+00  0.00000000E+00  0.00000000E+00
  0.00000000E+00  0.00000000E+00  0.00000000E+00
  0.00000000E+00  0.00000000E+00  0.00000000E+00
  0.00000000E+00  0.00000000E+00  0.00000000E+00
  0.00000000E+00  0.00000000E+00  0.00000000E+00
  0.00000000E+00  0.00000000E+00  0.00000000E+00
  0.00000000E+00  0.00000000E+00  0.00000000E+00
  0.00000000E+00  0.00000000E+00  0.00000000E+00
  0.00000000E+00  0.00000000E+00  0.00000000E+00
  0.00000000E+00  0.00000000E+00  0.00000000E+00
  0.00000000E+00  0.00000000E+00  0.00000000E+00
  0.00000000E+00  0.00000000E+00  0.00000000E+00
  0.00000000E+00  0.00000000E+00  0.00000000E+00
  0.00000000E+00  0.00000000E+00  0.00000000E+00
  0.00000000E+00  0.00000000E+00  0.00000000E+00
  0.00000000E+00  0.00000000E+00  0.00000000E+00
  0.00000000E+00  0.00000000E+00  0.00000000E+00
  0.00000000E+00  0.00000000E+00  0.00000000E+00
  0.00000000E+00  0.00000000E+00  0.00000000E+00
  0.00000000E+00  0.00000000E+00  0.00000000E+00
  0.00000000E+00  0.00000000E+00  0.00000000E+00
  0.00000000E+00  0.00000000E+00  0.00000000E+00
  0.00000000E+00  0.00000000E+00  0.00000000E+00
  0.00000000E+00  0.00000000E+00  0.00000000E+00
  0.00000000E+00  0.00000000E+00  0.00000000E+00
  0.00000000E+00  0.00000000E+00  0.00000000E+00
  0.00000000E+00  0.00000000E+00  0.00000000E+00
  0.00000000E+00  0.00000000E+00  0.00000000E+00
  0.00000000E+00  0.00000000E+00  0.00000000E+00
  0.00000000E+00  0.00000000E+00  0.00000000E+00
