config 60                               
   1.00000000000000     
    15.4263309999999993    0.0000000000000000    0.0000000000000000
     0.0000000000000000   15.4263309999999993    0.0000000000000000
     0.0000000000000000    0.0000000000000000   15.4263309999999993
   Li   Ti   O    F 
     1    64    64   128
Direct
  0.8491471839181914  0.6258718200319621  0.8512761931360789
  0.9954413461713105  0.9947808814260963  0.9946376211615041
  0.9981305370870533  0.9909276180105377  0.4938360320999728
  0.0073903863544311  0.4956736534032335  0.9989361645926393
  0.9943418815147611  0.5039288947759351  0.5059833395406175
  0.4944056903434751  0.9930657534267961  0.0002554913777486
  0.5017565139848631  0.0090311499962104  0.4985795886014220
  0.5049456776764409  0.4948787671078276  0.9970122735157111
  0.4932585330240812  0.4993314279542582  0.4955169347961660
  0.0063335378598316  0.0031073596734203  0.2559764666922403
  0.0026510640376576  0.0067298488878916  0.7568785775849732
  0.9938665984828696  0.4930491971313458  0.2514510638656431
  0.9922224167624423  0.5005622757093741  0.7420396955738531
  0.5050977073471754  0.0090450505532082  0.2505764480429128
  0.4932375801097575  0.0072204501960946  0.7528477621362234
  0.4931630601531120  0.4955230304220159  0.2581145115377145
  0.5028535086036624  0.5047490082224504  0.7591964068425426
  0.9954250766904604  0.2579654030605760  0.0018517330061750
  0.9983740861330384  0.2484375945788497  0.4910719930895494
  0.9996978360884735  0.7580840558898101  0.0079973758202289
  0.9962600122501090  0.7563395468946510  0.5075780917954467
  0.4951170398596372  0.2580467463224611  0.0022242102557296
  0.5093476800862411  0.2460801402523744  0.4977561832190610
  0.5078616290785364  0.7556549592306077  0.0003831080277531
  0.5073897142089785  0.7534855698332877  0.5096893846223574
  0.9992772826206521  0.2583698765059402  0.2547308158042355
  0.0083524230514296  0.2432056746504700  0.7479372118510851
  0.0064068000409027  0.7475258907514560  0.2442376889419169
  0.9905818218969981  0.7485719469580651  0.7454596652917648
  0.5075549888254572  0.2410919572624699  0.2521368017094155
  0.5084014872239628  0.2446080081457840  0.7512235576822927
  0.5063050602607005  0.7510967982525025  0.2518201191128649
  0.5014996531325834  0.7421872294120843  0.7450528774877000
  0.2564528077100892  0.9978071734982202  0.0057497755770724
  0.2511068040124235  0.9935144107170497  0.5063845969443874
  0.2449925680682868  0.5087358257223796  0.9987492439230887
  0.2562005090747722  0.4944485833033831  0.5066566094335675
  0.7564490574649311  0.9998992012173511  0.9931963552863738
  0.7493409723639676  0.0084701110183306  0.4944268476836352
  0.7421692375198693  0.4994085718635145  0.0072971854842426
  0.7571679575098041  0.4979279825323206  0.5029051246663403
  0.2445721975868419  0.0023963966072319  0.2435375248792254
  0.2582496773880500  0.9989578162165612  0.7445392421145748
  0.2549097146975726  0.4914172566263635  0.2527478319913544
  0.2465777050349933  0.5063505280071426  0.7414232040279723
  0.7438982833232920  0.0015496422243820  0.2550499236167519
  0.7469726584790052  0.0073761693944054  0.7556195377956051
  0.7558459732400216  0.4968471136665433  0.2427944716112830
  0.7580268704781765  0.4971586505412924  0.7396628452713873
  0.2568057210850528  0.2521101067732059  0.0062991962411252
  0.2540328254363654  0.2568707047779505  0.5052437007155625
  0.2526616836514247  0.7423939170237182  0.9941605488967019
  0.2524413507342098  0.7552791643851324  0.4933624040844053
  0.7565607415450119  0.2520043011828401  0.0074605225381816
  0.7422382860004485  0.2429593710520714  0.4973414475674333
  0.7421011691608468  0.7460500157826642  0.9925635404892276
  0.7417578995240347  0.7523861413861688  0.4919651970742333
  0.2503683786392896  0.2576271953185475  0.2437129544830079
  0.2440829963393631  0.2532486911549011  0.7439496511735988
  0.2436352084428502  0.7472654621805593  0.2561117707550544
  0.2454294899928747  0.7416398065149187  0.7566525960010151
  0.7411887531773390  0.2513766937591479  0.2415925875651043
  0.7437314174057013  0.2419446084041724  0.7502252876178401
  0.7449995533875651  0.7485740185221608  0.2549504704022540
  0.7534801839317727  0.7504383799580598  0.7530103297071571
  0.0001369109700739  0.5051040761367047  0.6243545722147535
  0.9965083606636937  0.0036562478439747  0.3758012623098097
  0.0023173578154146  0.9989004059551762  0.8729490954835170
  0.5030123081004618  0.4880036465673151  0.3759509813382895
  0.4970263720618857  0.4927429614249607  0.8754143771145000
  0.9968929028441583  0.7407613273214304  0.1265703551010803
  0.9972136427916081  0.7434293435781811  0.6239145285623402
  0.5016497393508873  0.7476319823643371  0.6253904873345887
  0.9899606262005591  0.2502839810743748  0.3760813393863846
  0.2568685436380908  0.0016900245495334  0.1253151147535909
  0.2571827483821706  0.0033350243734863  0.6251942440346058
  0.2439808832832567  0.4933595281301507  0.6258933297815005
  0.7524427328274101  0.4803030811798975  0.1262254798148559
  0.7556905399223581  0.4841079217727133  0.6230386486813345
  0.7481668865272978  0.0085344891715963  0.3754797252142368
  0.7429467065377582  0.0108818784505345  0.8735119236681368
  0.2410779522160853  0.2512031937966442  0.1257533201562308
  0.2491376118459377  0.2515575277355050  0.6248064301856155
  0.7375502891913783  0.2673920573122346  0.1259256562017977
  0.2528365836109408  0.7444920060369099  0.3751923719411836
  0.2483139649119997  0.7505496714850112  0.8757915910110428
  0.7486697928377593  0.7415612329283647  0.3728335201591777
  0.7532376446214726  0.7253377459261648  0.8781959879874198
  0.1248798448393808  0.5112980929622609  0.9985578202622755
  0.6265969383155641  0.5112737357772872  1.0004724172657249
  0.1250386085428816  0.0067916725378732  0.2500350097073794
  0.6241342316735169  0.0064651625362875  0.2473366659365389
  0.6246812286738118  0.2638992793407879  0.4890685929733065
  0.6240374001472664  0.7362066715421827  0.0034032376369334
  0.6249645701228077  0.7684316506754050  0.4977836540149019
  0.1251461916827549  0.2650979184602577  0.7529370905935764
  0.1252126667212995  0.7474023847190588  0.2505171644955522
  0.6251367965657413  0.2402089438124244  0.2645710781824508
  0.6259570100920417  0.2641675124641510  0.7526003798380448
  0.6223562615309237  0.7491128526675676  0.2480779370098047
  0.3758167912708010  0.9938535230485572  0.9904024413476481
  0.3768496405448457  0.5109264654644504  0.5019088557900856
  0.8726380385766390  0.9955609899533827  0.9973908838515271
  0.8755786232419658  0.5101956214595400  0.4932411311847092
  0.3760027020225479  0.0120208416640419  0.7598172766718755
  0.3740104997016477  0.4913030351246647  0.2523533642667594
  0.8753533800395904  0.4928876454293549  0.2554386816280408
  0.8755638788994217  0.5247208850463169  0.7568034593276242
  0.3756488956052703  0.2537262756099843  0.0087948517844279
  0.8738552126277637  0.2550195557914718  0.0092201251684642
  0.8801142388412601  0.7214455690676134  0.7610864382151638
  0.5168514863580249  0.1229736961300480  0.4885143319537077
  0.0126900708384389  0.1263249902052009  0.7476464091814750
  0.4901434568265428  0.1251032765647733  0.2684960155999716
  0.5132074328164925  0.1249151192440360  0.7542890063509572
  0.5142591649051836  0.6254762354323148  0.7553130211719770
  0.0058939403602797  0.3758422137018312  0.0079025107373741
  0.0082646343339697  0.8747408896354428  0.0058001247966451
  0.9851046991470026  0.8751413279438233  0.5008242875546366
  0.5084841135315028  0.3738505857780288  0.0127849495882096
  0.5093499701666345  0.8749949232346507  0.0108121921477955
  0.0105066942956854  0.3738463857782879  0.2435888293580473
  0.2635870894125463  0.6249038641118115  0.0042080277651634
  0.7336221957526678  0.1258723560850778  0.5100985784144045
  0.2338052364718463  0.6243277560543173  0.7489252692790722
  0.7374730859736225  0.1259161512388641  0.7354951245275704
  0.2597972231352828  0.3733457692071964  0.4919959029068416
  0.2612208193272675  0.8756831764255785  0.4989340743655227
  0.2378705851122753  0.3741850709065239  0.2590260492758011
  0.9975903717389863  0.0058300167071931  0.1264831115105510
  0.0017644640154045  0.9998989283543668  0.6236991452120155
  0.9958794589154233  0.5134713024599561  0.1253771292347121
  0.4898601187243809  0.0146502751396383  0.1265052014969858
  0.4945505602493558  0.0044431080087861  0.6227132042981970
  0.4997597691290468  0.5118963216352831  0.1280989051702808
  0.5080908819153243  0.5046489638851618  0.6250556786792373
  0.0078737730626912  0.4912618196845204  0.3758323575804929
  0.9993824871221614  0.4948616595464723  0.8733128514634141
  0.5060603611222112  0.9827309121550323  0.3764838900211840
  0.5173796818075383  0.9923509287620131  0.8753002749243527
  0.0114426239229463  0.2421607839276187  0.1271064620132127
  0.0038981925681910  0.2559761789614561  0.6213292250524486
  0.5124025095767853  0.2318781764627838  0.1270832707948849
  0.5037202314279183  0.2414139203769483  0.6224876187255014
  0.4931749551910449  0.7385242303581514  0.1272567586971752
  0.9911287370475085  0.2547810289739993  0.8742868053664069
  0.9961031464137911  0.7536047874072003  0.3750433773587241
  0.0079929615839710  0.7525695327025067  0.8761411214275513
  0.4871527833176956  0.2678742341206565  0.3753770264639075
  0.4948044232602307  0.2596241966464264  0.8750747126060128
  0.4951331499999261  0.7612614984646217  0.3756571066537477
  0.4969383685949029  0.7578166331470593  0.8751374480266132
  0.2472926192324415  0.4913273313653968  0.1253535756698386
  0.7503502262905881  0.9906233964164796  0.1257890267933409
  0.7489658337960696  0.9888468107787195  0.6219835362211059
  0.2502802462985147  0.0026951369800202  0.3756029917022659
  0.2406327435253891  0.9950235144823947  0.8742830925445590
  0.2444454224210086  0.5134586764417578  0.3756664389608449
  0.2564350556345024  0.4998944963882404  0.8740833099944982
  0.7429310028720566  0.5132137404943733  0.3741414446641341
  0.7567236082358333  0.5241322676628497  0.8763332702184758
  0.2537710009054315  0.7557723063601363  0.1256476814460638
  0.2511532764174137  0.7517117333110840  0.6252829814072068
  0.7475141417908190  0.2683618117443021  0.6222792350799977
  0.7534305388981443  0.7594686273800382  0.1256305988662472
  0.7523600596324036  0.7579350201126439  0.6223159264608437
  0.2581141302486841  0.2419325538204034  0.3741209798886571
  0.2560614872191824  0.2503162662219868  0.8751936529403561
  0.7648932333327207  0.2351940559731631  0.3736798830648966
  0.7565130777674978  0.2358880941112509  0.8759854906458662
  0.1259122658175442  0.0078878765698250  0.0043062028289770
  0.1246686700475546  0.9922921258954041  0.5003211857717609
  0.1234327920974662  0.4920259297056874  0.4971884285928274
  0.6248167634667067  0.0070366412082390  0.0105536203180550
  0.6237281873055007  0.9785261611162687  0.5039594719891670
  0.6272920050602975  0.4862798470419272  0.5014807093524443
  0.1268494840098114  0.9845155318172193  0.7443929652695477
  0.1238084170608836  0.5108529488860872  0.2460943424023691
  0.1229477105101938  0.4806515522658005  0.7571601435382191
  0.6233164383971814  0.9834806603924299  0.7391616260251099
  0.6252791464935921  0.5033486963428496  0.2474859616519452
  0.6288889892731557  0.4815411573287467  0.7552191753268184
  0.1244138376142867  0.2451965989735437  0.9905311144800182
  0.1236874846331045  0.2561028681559320  0.4927532282658731
  0.1256794167231443  0.7356310477801781  0.0055649354342156
  0.1242098913471724  0.7602081591302737  0.4986644072471983
  0.6262371607040083  0.2439512148659866  0.9903107174501415
  0.1240396360619562  0.2336993036124916  0.2613075871245045
  0.1239611390755502  0.7679672046721185  0.7474776454137930
  0.6222252285417286  0.7710464041896297  0.7542312955378812
  0.3780022629304799  0.0161869905650733  0.4918688703992644
  0.3738618724814336  0.4886872715456971  0.0061077781275902
  0.8739887516299689  0.0183213279117186  0.5063146902024720
  0.8748222467253470  0.4932930074059863  0.9952091600878871
  0.3769585029513553  0.9918672538008149  0.2586877960550971
  0.3755093898096340  0.5124722411624142  0.7441197339854777
  0.8729122495253925  0.9959472619295333  0.2480607879118429
  0.8745841662058224  0.0136798312573017  0.7449170781566948
  0.3795849954679358  0.2341228166840932  0.5021854649251040
  0.3761853776553538  0.7638136393999364  0.0005997011136169
  0.3779626546403872  0.7362573268057412  0.5007914191604311
  0.8741151636612089  0.2399823609359524  0.5092421068192607
  0.8735280065878394  0.7601744809889405  0.9968938297326901
  0.8718407736575639  0.7337396651565635  0.4987664028662684
  0.3778991472036512  0.2613497045750180  0.2408150112646375
  0.3766918527764552  0.2392134123451002  0.7477232658893291
  0.3767283596364026  0.7522731699407135  0.2496009892659675
  0.3741570805298075  0.7382134612788501  0.7508088112464032
  0.8734927575738178  0.2607436200338347  0.2399641540522369
  0.8746724223464220  0.2416811836314737  0.7425329066999328
  0.8731468497740750  0.7509055421035066  0.2506882694305383
  0.9972757297408117  0.1273433853201509  0.9979046647962533
  0.0085042806519072  0.1260312677974941  0.5060360495168565
  0.9835967311207577  0.6249821401087172  0.9872631530960700
  0.0116661374861216  0.6264140600514991  0.4889267949854811
  0.4990165137458506  0.1244473893137923  0.9907870053303299
  0.4848438604572917  0.6266468505751573  0.9951936657068478
  0.5158893583281299  0.6267346887783778  0.4918410281217485
  0.9869150802914449  0.1279675149641496  0.2487545573403230
  0.9945032825546352  0.6227399395035557  0.2623630222101579
  0.0254769986346854  0.6228453158634669  0.7580040511417844
  0.4964801774232638  0.6255672456973748  0.2626108401779422
  0.9916536716694428  0.3742520335673277  0.5014006638657231
  0.4867589690115779  0.3715639887651542  0.5124002509894359
  0.4818589265704633  0.8787706154913777  0.5056246159385503
  0.9817114910302932  0.3758670166448393  0.7469286017540798
  0.9989823952445839  0.8758069012871743  0.2472750456879577
  0.9825309319005083  0.8752929003108103  0.7460098200264801
  0.5091798869308762  0.3712383099881218  0.2358954944334471
  0.4877208877687154  0.3742669630326276  0.7397616977790373
  0.5005226428343117  0.8760912179517245  0.2386434939480514
  0.4868411231284374  0.8765336971336181  0.7473635657797418
  0.2522035131857837  0.1248959061701507  0.9943650289277298
  0.2408935677854620  0.1245574714751918  0.4979758754033980
  0.2393621750111376  0.6263470881444388  0.5069633248273534
  0.7508852060692046  0.1260550345606563  0.0149516468777123
  0.7678576077398952  0.6238103442158265  0.0210154493781348
  0.7354690061832934  0.6249683401590599  0.5098743113602908
  0.2636141536358287  0.1264526396817812  0.2512927508920405
  0.2364802839761738  0.1250303098637849  0.7556278591738883
  0.2556040761466965  0.6231226387589166  0.2394694984658115
  0.7616689427964070  0.1264178881737889  0.2358827453649107
  0.7519123107702903  0.6238476916163249  0.2351698846022021
  0.7294480346170940  0.6195770197961581  0.7350631251179889
  0.2419801701134342  0.3762957063025340  0.9956600663480066
  0.2380491205772332  0.8735623902355213  0.0025903127949454
  0.7426216522962716  0.3752791590479770  0.9779496732319092
  0.7635526342871640  0.3725142281449805  0.4814783316984872
  0.7384304586651653  0.8731989735291528  0.9893608265507932
  0.7681055513226989  0.8766953209718682  0.4921691101368176
  0.2666464423573811  0.3765148870358879  0.7569525647018795
  0.2497434609461575  0.8753986559511809  0.2532762275433610
  0.2633002322228691  0.8735469473086315  0.7475841917543468
  0.7423358372531846  0.3735778876531130  0.2729674629099473
  0.7677379251206574  0.3748176675292463  0.7663136358820459
  0.7484936898965944  0.8751750240940337  0.2558034027783345
  0.7676094897794488  0.8804955358808788  0.7563223008927201
 
  0.00000000E+00  0.00000000E+00  0.00000000E+00
  0.00000000E+00  0.00000000E+00  0.00000000E+00
  0.00000000E+00  0.00000000E+00  0.00000000E+00
  0.00000000E+00  0.00000000E+00  0.00000000E+00
  0.00000000E+00  0.00000000E+00  0.00000000E+00
  0.00000000E+00  0.00000000E+00  0.00000000E+00
  0.00000000E+00  0.00000000E+00  0.00000000E+00
  0.00000000E+00  0.00000000E+00  0.00000000E+00
  0.00000000E+00  0.00000000E+00  0.00000000E+00
  0.00000000E+00  0.00000000E+00  0.00000000E+00
  0.00000000E+00  0.00000000E+00  0.00000000E+00
  0.00000000E+00  0.00000000E+00  0.00000000E+00
  0.00000000E+00  0.00000000E+00  0.00000000E+00
  0.00000000E+00  0.00000000E+00  0.00000000E+00
  0.00000000E+00  0.00000000E+00  0.00000000E+00
  0.00000000E+00  0.00000000E+00  0.00000000E+00
  0.00000000E+00  0.00000000E+00  0.00000000E+00
  0.00000000E+00  0.00000000E+00  0.00000000E+00
  0.00000000E+00  0.00000000E+00  0.00000000E+00
  0.00000000E+00  0.00000000E+00  0.00000000E+00
  0.00000000E+00  0.00000000E+00  0.00000000E+00
  0.00000000E+00  0.00000000E+00  0.00000000E+00
  0.00000000E+00  0.00000000E+00  0.00000000E+00
  0.00000000E+00  0.00000000E+00  0.00000000E+00
  0.00000000E+00  0.00000000E+00  0.00000000E+00
  0.00000000E+00  0.00000000E+00  0.00000000E+00
  0.00000000E+00  0.00000000E+00  0.00000000E+00
  0.00000000E+00  0.00000000E+00  0.00000000E+00
  0.00000000E+00  0.00000000E+00  0.00000000E+00
  0.00000000E+00  0.00000000E+00  0.00000000E+00
  0.00000000E+00  0.00000000E+00  0.00000000E+00
  0.00000000E+00  0.00000000E+00  0.00000000E+00
  0.00000000E+00  0.00000000E+00  0.00000000E+00
  0.00000000E+00  0.00000000E+00  0.00000000E+00
  0.00000000E+00  0.00000000E+00  0.00000000E+00
  0.00000000E+00  0.00000000E+00  0.00000000E+00
  0.00000000E+00  0.00000000E+00  0.00000000E+00
  0.00000000E+00  0.00000000E+00  0.00000000E+00
  0.00000000E+00  0.00000000E+00  0.00000000E+00
  0.00000000E+00  0.00000000E+00  0.00000000E+00
  0.00000000E+00  0.00000000E+00  0.00000000E+00
  0.00000000E+00  0.00000000E+00  0.00000000E+00
  0.00000000E+00  0.00000000E+00  0.00000000E+00
  0.00000000E+00  0.00000000E+00  0.00000000E+00
  0.00000000E+00  0.00000000E+00  0.00000000E+00
  0.00000000E+00  0.00000000E+00  0.00000000E+00
  0.00000000E+00  0.00000000E+00  0.00000000E+00
  0.00000000E+00  0.00000000E+00  0.00000000E+00
  0.00000000E+00  0.00000000E+00  0.00000000E+00
  0.00000000E+00  0.00000000E+00  0.00000000E+00
  0.00000000E+00  0.00000000E+00  0.00000000E+00
  0.00000000E+00  0.00000000E+00  0.00000000E+00
  0.00000000E+00  0.00000000E+00  0.00000000E+00
  0.00000000E+00  0.00000000E+00  0.00000000E+00
  0.00000000E+00  0.00000000E+00  0.00000000E+00
  0.00000000E+00  0.00000000E+00  0.00000000E+00
  0.00000000E+00  0.00000000E+00  0.00000000E+00
  0.00000000E+00  0.00000000E+00  0.00000000E+00
  0.00000000E+00  0.00000000E+00  0.00000000E+00
  0.00000000E+00  0.00000000E+00  0.00000000E+00
  0.00000000E+00  0.00000000E+00  0.00000000E+00
  0.00000000E+00  0.00000000E+00  0.00000000E+00
  0.00000000E+00  0.00000000E+00  0.00000000E+00
  0.00000000E+00  0.00000000E+00  0.00000000E+00
  0.00000000E+00  0.00000000E+00  0.00000000E+00
  0.00000000E+00  0.00000000E+00  0.00000000E+00
  0.00000000E+00  0.00000000E+00  0.00000000E+00
  0.00000000E+00  0.00000000E+00  0.00000000E+00
  0.00000000E+00  0.00000000E+00  0.00000000E+00
  0.00000000E+00  0.00000000E+00  0.00000000E+00
  0.00000000E+00  0.00000000E+00  0.00000000E+00
  0.00000000E+00  0.00000000E+00  0.00000000E+00
  0.00000000E+00  0.00000000E+00  0.00000000E+00
  0.00000000E+00  0.00000000E+00  0.00000000E+00
  0.00000000E+00  0.00000000E+00  0.00000000E+00
  0.00000000E+00  0.00000000E+00  0.00000000E+00
  0.00000000E+00  0.00000000E+00  0.00000000E+00
  0.00000000E+00  0.00000000E+00  0.00000000E+00
  0.00000000E+00  0.00000000E+00  0.00000000E+00
  0.00000000E+00  0.00000000E+00  0.00000000E+00
  0.00000000E+00  0.00000000E+00  0.00000000E+00
  0.00000000E+00  0.00000000E+00  0.00000000E+00
  0.00000000E+00  0.00000000E+00  0.00000000E+00
  0.00000000E+00  0.00000000E+00  0.00000000E+00
  0.00000000E+00  0.00000000E+00  0.00000000E+00
  0.00000000E+00  0.00000000E+00  0.00000000E+00
  0.00000000E+00  0.00000000E+00  0.00000000E+00
  0.00000000E+00  0.00000000E+00  0.00000000E+00
  0.00000000E+00  0.00000000E+00  0.00000000E+00
  0.00000000E+00  0.00000000E+00  0.00000000E+00
  0.00000000E+00  0.00000000E+00  0.00000000E+00
  0.00000000E+00  0.00000000E+00  0.00000000E+00
  0.00000000E+00  0.00000000E+00  0.00000000E+00
  0.00000000E+00  0.00000000E+00  0.00000000E+00
  0.00000000E+00  0.00000000E+00  0.00000000E+00
  0.00000000E+00  0.00000000E+00  0.00000000E+00
  0.00000000E+00  0.00000000E+00  0.00000000E+00
  0.00000000E+00  0.00000000E+00  0.00000000E+00
  0.00000000E+00  0.00000000E+00  0.00000000E+00
  0.00000000E+00  0.00000000E+00  0.00000000E+00
  0.00000000E+00  0.00000000E+00  0.00000000E+00
  0.00000000E+00  0.00000000E+00  0.00000000E+00
  0.00000000E+00  0.00000000E+00  0.00000000E+00
  0.00000000E+00  0.00000000E+00  0.00000000E+00
  0.00000000E+00  0.00000000E+00  0.00000000E+00
  0.00000000E+00  0.00000000E+00  0.00000000E+00
  0.00000000E+00  0.00000000E+00  0.00000000E+00
  0.00000000E+00  0.00000000E+00  0.00000000E+00
  0.00000000E+00  0.00000000E+00  0.00000000E+00
  0.00000000E+00  0.00000000E+00  0.00000000E+00
  0.00000000E+00  0.00000000E+00  0.00000000E+00
  0.00000000E+00  0.00000000E+00  0.00000000E+00
  0.00000000E+00  0.00000000E+00  0.00000000E+00
  0.00000000E+00  0.00000000E+00  0.00000000E+00
  0.00000000E+00  0.00000000E+00  0.00000000E+00
  0.00000000E+00  0.00000000E+00  0.00000000E+00
  0.00000000E+00  0.00000000E+00  0.00000000E+00
  0.00000000E+00  0.00000000E+00  0.00000000E+00
  0.00000000E+00  0.00000000E+00  0.00000000E+00
  0.00000000E+00  0.00000000E+00  0.00000000E+00
  0.00000000E+00  0.00000000E+00  0.00000000E+00
  0.00000000E+00  0.00000000E+00  0.00000000E+00
  0.00000000E+00  0.00000000E+00  0.00000000E+00
  0.00000000E+00  0.00000000E+00  0.00000000E+00
  0.00000000E+00  0.00000000E+00  0.00000000E+00
  0.00000000E+00  0.00000000E+00  0.00000000E+00
  0.00000000E+00  0.00000000E+00  0.00000000E+00
  0.00000000E+00  0.00000000E+00  0.00000000E+00
  0.00000000E+00  0.00000000E+00  0.00000000E+00
  0.00000000E+00  0.00000000E+00  0.00000000E+00
  0.00000000E+00  0.00000000E+00  0.00000000E+00
  0.00000000E+00  0.00000000E+00  0.00000000E+00
  0.00000000E+00  0.00000000E+00  0.00000000E+00
  0.00000000E+00  0.00000000E+00  0.00000000E+00
  0.00000000E+00  0.00000000E+00  0.00000000E+00
  0.00000000E+00  0.00000000E+00  0.00000000E+00
  0.00000000E+00  0.00000000E+00  0.00000000E+00
  0.00000000E+00  0.00000000E+00  0.00000000E+00
  0.00000000E+00  0.00000000E+00  0.00000000E+00
  0.00000000E+00  0.00000000E+00  0.00000000E+00
  0.00000000E+00  0.00000000E+00  0.00000000E+00
  0.00000000E+00  0.00000000E+00  0.00000000E+00
  0.00000000E+00  0.00000000E+00  0.00000000E+00
  0.00000000E+00  0.00000000E+00  0.00000000E+00
  0.00000000E+00  0.00000000E+00  0.00000000E+00
  0.00000000E+00  0.00000000E+00  0.00000000E+00
  0.00000000E+00  0.00000000E+00  0.00000000E+00
  0.00000000E+00  0.00000000E+00  0.00000000E+00
  0.00000000E+00  0.00000000E+00  0.00000000E+00
  0.00000000E+00  0.00000000E+00  0.00000000E+00
  0.00000000E+00  0.00000000E+00  0.00000000E+00
  0.00000000E+00  0.00000000E+00  0.00000000E+00
  0.00000000E+00  0.00000000E+00  0.00000000E+00
  0.00000000E+00  0.00000000E+00  0.00000000E+00
  0.00000000E+00  0.00000000E+00  0.00000000E+00
  0.00000000E+00  0.00000000E+00  0.00000000E+00
  0.00000000E+00  0.00000000E+00  0.00000000E+00
  0.00000000E+00  0.00000000E+00  0.00000000E+00
  0.00000000E+00  0.00000000E+00  0.00000000E+00
  0.00000000E+00  0.00000000E+00  0.00000000E+00
  0.00000000E+00  0.00000000E+00  0.00000000E+00
  0.00000000E+00  0.00000000E+00  0.00000000E+00
  0.00000000E+00  0.00000000E+00  0.00000000E+00
  0.00000000E+00  0.00000000E+00  0.00000000E+00
  0.00000000E+00  0.00000000E+00  0.00000000E+00
  0.00000000E+00  0.00000000E+00  0.00000000E+00
  0.00000000E+00  0.00000000E+00  0.00000000E+00
  0.00000000E+00  0.00000000E+00  0.00000000E+00
  0.00000000E+00  0.00000000E+00  0.00000000E+00
  0.00000000E+00  0.00000000E+00  0.00000000E+00
  0.00000000E+00  0.00000000E+00  0.00000000E+00
  0.00000000E+00  0.00000000E+00  0.00000000E+00
  0.00000000E+00  0.00000000E+00  0.00000000E+00
  0.00000000E+00  0.00000000E+00  0.00000000E+00
  0.00000000E+00  0.00000000E+00  0.00000000E+00
  0.00000000E+00  0.00000000E+00  0.00000000E+00
  0.00000000E+00  0.00000000E+00  0.00000000E+00
  0.00000000E+00  0.00000000E+00  0.00000000E+00
  0.00000000E+00  0.00000000E+00  0.00000000E+00
  0.00000000E+00  0.00000000E+00  0.00000000E+00
  0.00000000E+00  0.00000000E+00  0.00000000E+00
  0.00000000E+00  0.00000000E+00  0.00000000E+00
  0.00000000E+00  0.00000000E+00  0.00000000E+00
  0.00000000E+00  0.00000000E+00  0.00000000E+00
  0.00000000E+00  0.00000000E+00  0.00000000E+00
  0.00000000E+00  0.00000000E+00  0.00000000E+00
  0.00000000E+00  0.00000000E+00  0.00000000E+00
  0.00000000E+00  0.00000000E+00  0.00000000E+00
  0.00000000E+00  0.00000000E+00  0.00000000E+00
  0.00000000E+00  0.00000000E+00  0.00000000E+00
  0.00000000E+00  0.00000000E+00  0.00000000E+00
  0.00000000E+00  0.00000000E+00  0.00000000E+00
  0.00000000E+00  0.00000000E+00  0.00000000E+00
  0.00000000E+00  0.00000000E+00  0.00000000E+00
  0.00000000E+00  0.00000000E+00  0.00000000E+00
  0.00000000E+00  0.00000000E+00  0.00000000E+00
  0.00000000E+00  0.00000000E+00  0.00000000E+00
  0.00000000E+00  0.00000000E+00  0.00000000E+00
  0.00000000E+00  0.00000000E+00  0.00000000E+00
  0.00000000E+00  0.00000000E+00  0.00000000E+00
  0.00000000E+00  0.00000000E+00  0.00000000E+00
  0.00000000E+00  0.00000000E+00  0.00000000E+00
  0.00000000E+00  0.00000000E+00  0.00000000E+00
  0.00000000E+00  0.00000000E+00  0.00000000E+00
  0.00000000E+00  0.00000000E+00  0.00000000E+00
  0.00000000E+00  0.00000000E+00  0.00000000E+00
  0.00000000E+00  0.00000000E+00  0.00000000E+00
  0.00000000E+00  0.00000000E+00  0.00000000E+00
  0.00000000E+00  0.00000000E+00  0.00000000E+00
  0.00000000E+00  0.00000000E+00  0.00000000E+00
  0.00000000E+00  0.00000000E+00  0.00000000E+00
  0.00000000E+00  0.00000000E+00  0.00000000E+00
  0.00000000E+00  0.00000000E+00  0.00000000E+00
  0.00000000E+00  0.00000000E+00  0.00000000E+00
  0.00000000E+00  0.00000000E+00  0.00000000E+00
  0.00000000E+00  0.00000000E+00  0.00000000E+00
  0.00000000E+00  0.00000000E+00  0.00000000E+00
  0.00000000E+00  0.00000000E+00  0.00000000E+00
  0.00000000E+00  0.00000000E+00  0.00000000E+00
  0.00000000E+00  0.00000000E+00  0.00000000E+00
  0.00000000E+00  0.00000000E+00  0.00000000E+00
  0.00000000E+00  0.00000000E+00  0.00000000E+00
  0.00000000E+00  0.00000000E+00  0.00000000E+00
  0.00000000E+00  0.00000000E+00  0.00000000E+00
  0.00000000E+00  0.00000000E+00  0.00000000E+00
  0.00000000E+00  0.00000000E+00  0.00000000E+00
  0.00000000E+00  0.00000000E+00  0.00000000E+00
  0.00000000E+00  0.00000000E+00  0.00000000E+00
  0.00000000E+00  0.00000000E+00  0.00000000E+00
  0.00000000E+00  0.00000000E+00  0.00000000E+00
  0.00000000E+00  0.00000000E+00  0.00000000E+00
  0.00000000E+00  0.00000000E+00  0.00000000E+00
  0.00000000E+00  0.00000000E+00  0.00000000E+00
  0.00000000E+00  0.00000000E+00  0.00000000E+00
  0.00000000E+00  0.00000000E+00  0.00000000E+00
  0.00000000E+00  0.00000000E+00  0.00000000E+00
  0.00000000E+00  0.00000000E+00  0.00000000E+00
  0.00000000E+00  0.00000000E+00  0.00000000E+00
  0.00000000E+00  0.00000000E+00  0.00000000E+00
  0.00000000E+00  0.00000000E+00  0.00000000E+00
  0.00000000E+00  0.00000000E+00  0.00000000E+00
  0.00000000E+00  0.00000000E+00  0.00000000E+00
  0.00000000E+00  0.00000000E+00  0.00000000E+00
  0.00000000E+00  0.00000000E+00  0.00000000E+00
  0.00000000E+00  0.00000000E+00  0.00000000E+00
  0.00000000E+00  0.00000000E+00  0.00000000E+00
  0.00000000E+00  0.00000000E+00  0.00000000E+00
  0.00000000E+00  0.00000000E+00  0.00000000E+00
  0.00000000E+00  0.00000000E+00  0.00000000E+00
  0.00000000E+00  0.00000000E+00  0.00000000E+00
  0.00000000E+00  0.00000000E+00  0.00000000E+00
  0.00000000E+00  0.00000000E+00  0.00000000E+00
  0.00000000E+00  0.00000000E+00  0.00000000E+00
  0.00000000E+00  0.00000000E+00  0.00000000E+00
  0.00000000E+00  0.00000000E+00  0.00000000E+00
  0.00000000E+00  0.00000000E+00  0.00000000E+00
  0.00000000E+00  0.00000000E+00  0.00000000E+00
