config 07                               
   1.00000000000000     
    15.4263309999999993    0.0000000000000000    0.0000000000000000
     0.0000000000000000   15.4263309999999993    0.0000000000000000
     0.0000000000000000    0.0000000000000000   15.4263309999999993
   Li   Ti   O    F 
     1    64    64   128
Direct
  0.1248446633227200  0.4137602476837622  0.5944131341966209
  0.9952908353378698  0.9953684937065199  0.9939957820424630
  0.9998059030797461  0.9943094188509787  0.4933664790039175
  0.0055890482988956  0.4954167092713935  0.9971036777088597
  0.9918440824831953  0.5024687455820835  0.5067643311043164
  0.4942480103558899  0.9943091404003719  0.9996597481489347
  0.5005486421693525  0.0077174878578347  0.4996962178257870
  0.5039268259121037  0.4955226416638792  0.9953852916757610
  0.4934153396419582  0.4985441265419936  0.4952246752921217
  0.0065588221370151  0.0030422380613801  0.2559885744457459
  0.0017754113432214  0.0074710684356944  0.7561292130574099
  0.9941687204664340  0.4922341627530788  0.2508695330545756
  0.9921423668067756  0.4986596853208388  0.7418966758355021
  0.5059465855170714  0.0086605066723842  0.2503816118712878
  0.4929959074875475  0.0052396638038294  0.7519514627942734
  0.4926629516499632  0.4967807846453241  0.2566636861849318
  0.5008203096839060  0.5041003499122173  0.7579693054084516
  0.9955703694149738  0.2571887589839585  0.0026054410498301
  0.9985460314151255  0.2467328071530988  0.4942124693885294
  0.9981127726802000  0.7580172588009494  0.0058454980151209
  0.9979150375372062  0.7589592581197159  0.5057116137786266
  0.4949800346083628  0.2581489739995708  0.0010607511478292
  0.5090727081905521  0.2452502048005855  0.4988600594850618
  0.5073743913535320  0.7563768767547222  0.9992625900543067
  0.5066233751457635  0.7525481422687765  0.5091108637623262
  0.9988822607180365  0.2572494696039052  0.2578333334488819
  0.0066766409208387  0.2422198725576630  0.7486700952876495
  0.0066008173738131  0.7481801363371839  0.2431961718188956
  0.9927792951470564  0.7507049818754000  0.7432215993700988
  0.5082903645871215  0.2420770221701105  0.2515793287188621
  0.5069881529803062  0.2429659968498341  0.7501512633090590
  0.5066273115589773  0.7515736524990119  0.2520148684484022
  0.5021317345244964  0.7419896248081759  0.7436896871482973
  0.2564239883475874  0.9982057820784913  0.0062721184540992
  0.2497779986837756  0.9939388568894996  0.5065811583014107
  0.2434819328553180  0.5076970327285822  0.9978320104381018
  0.2573132322773364  0.4957235723548415  0.5064169745166737
  0.7571376409692933  0.0002759819252627  0.9940300656508400
  0.7502993136203455  0.0059622770504893  0.4942701885506236
  0.7416567060385689  0.5004464607367219  0.0048349483477916
  0.7538228637548573  0.4966552951991758  0.5058470112670770
  0.2446630443403741  0.0023396192558873  0.2440642399255257
  0.2576774545637455  0.9978868548891242  0.7446082795270706
  0.2550421421984999  0.4921253102093783  0.2516940729790402
  0.2471045951637763  0.5062691181431563  0.7415965367877111
  0.7445389189020246  0.0004577014332482  0.2555124556286065
  0.7479665890540029  0.0061082306988095  0.7558746287953442
  0.7560950348224627  0.4987181945357472  0.2425267051988741
  0.7567152751920992  0.4980498418004863  0.7422832453578188
  0.2572037346558896  0.2516101664947286  0.0063556583360889
  0.2526564394421718  0.2565611869536443  0.5057874066997019
  0.2520105346272947  0.7418802326668886  0.9944214270997462
  0.2512550080722656  0.7557261205684657  0.4931782424405474
  0.7571272732357051  0.2510699600664280  0.0068356185528237
  0.7444717423053708  0.2415839270867173  0.4972876378902122
  0.7418092342531497  0.7493557361274932  0.9939272071812592
  0.7417023674101478  0.7513545260916412  0.4939963396925162
  0.2507521373034344  0.2579083397444650  0.2440061242330376
  0.2445278535991986  0.2521174209426727  0.7449570527617650
  0.2436555679111425  0.7478325904598191  0.2562366310912489
  0.2477928518495444  0.7418364820444993  0.7566980858543528
  0.7424284877095227  0.2510208880596417  0.2415772426691942
  0.7438364368134133  0.2418726276627723  0.7504118269121396
  0.7454562784871476  0.7499114491310422  0.2566263628734003
  0.7577296576533834  0.7501363646844655  0.7566588913709899
  0.0186000327379924  0.4894856225691200  0.6251781800509130
  0.9957848513454941  0.0087269803293677  0.3759672350688039
  0.9996859141192187  0.0055508044890470  0.8724584750703708
  0.4957646742007144  0.4931582329028649  0.3759783525252833
  0.4907080285476879  0.4970132580089869  0.8739377548377631
  0.9989375425747897  0.7485166465784362  0.1257456371544295
  0.0013071763850345  0.7512415296612114  0.6248355456584602
  0.5014783868584434  0.7534933934321328  0.6249800520152280
  0.9916104902942944  0.2468055003146153  0.3723984756351791
  0.2551397005880253  0.0010706974934706  0.1255855140912007
  0.2544033284418825  0.0010350531823601  0.6254853728939972
  0.2288285305603986  0.4863860556470053  0.6263443229748596
  0.7473794458889332  0.4918363622463868  0.1251102183895720
  0.7414097074790518  0.4929160678825024  0.6241018782879523
  0.7500667696392215  0.9989573806525933  0.3756295729846421
  0.7459910488682807  0.9981974937160795  0.8733481953024793
  0.2459351998215583  0.2523390043957373  0.1258308675973108
  0.2529876755514299  0.2545713069539770  0.6261381565441280
  0.7401793896764078  0.2589928421102848  0.1253901907074488
  0.2542874951424695  0.7437763480528214  0.3753415251981578
  0.2512098318149585  0.7477869000276026  0.8750145083276445
  0.7519013621547611  0.7510306154231112  0.3741707160511761
  0.7478837475542298  0.7520910275250289  0.8753121944460381
  0.1246632383077239  0.5043292052550167  0.9916060995214907
  0.6254858267543184  0.5077836849834779  0.9948514766798305
  0.1254642993121703  0.0036385453101502  0.2517514302592205
  0.6247562590986898  0.0016611024449291  0.2491569403020557
  0.6243082700966921  0.2531377925459218  0.4938834643119724
  0.6245374209788476  0.7410001403043651  0.0034397165324822
  0.6242700173591915  0.7579934734789725  0.4962345431721825
  0.1250898590929417  0.2570142177664026  0.7491758326760137
  0.1255000974207437  0.7508266831912820  0.2521416296231224
  0.6253940219279690  0.2444975645103628  0.2617867346150813
  0.6252408279320908  0.2547716528433320  0.7489512800069923
  0.6226645293179851  0.7536296754239806  0.2508453197811242
  0.3759927899241548 -0.0010825066084258  0.9921893691180181
  0.3759071139297512  0.5008178388539269  0.5103276081039360
  0.8729883301084740  0.0009651538798682 -0.0001415752235124
  0.8749416046486490  0.4959478203886541  0.5058674864340026
  0.3760243262111652  0.9994383058862835  0.7572093074995792
  0.3741258417444575  0.4956899634743574  0.2463462187697905
  0.8749532178029755  0.4972135702439651  0.2497028601020113
  0.8754320584316236  0.5101730664865007  0.7385026374082627
  0.3758356257755696  0.2489882251455527  0.0039207642453259
  0.8741990949255322  0.2491704889026509  0.0060578178074239
  0.8748237549621195  0.7403565562924028  0.7498033977294402
  0.5061548354002694  0.1221554862184581  0.4954600523004510
  1.0010947968499153  0.1260491586621518  0.7395573227957040
  0.4942243053849616  0.1251279425174991  0.2626420317999115
  0.5037338768438866  0.1234952081916147  0.7472546324289109
  0.5033017652353843  0.6250375994684260  0.7495996209164955
  0.0008227094855368  0.3755613748895260  0.0003112598199061
  0.0026083879127024  0.8746993734801455  0.9976643300546012
  0.0011983586427218  0.8754550156725946  0.4947755151592830
  0.5032838436820618  0.3744357523329057  0.0071814582659469
  0.5051218339670802  0.8752105819722857  0.0038349614286886
  0.0078166591610148  0.3755936832039777  0.2471820359192403
  0.2562026847005439  0.6249921571872957  0.0057559152547612
  0.7445051861919326  0.1238564762637617  0.5039624681831165
  0.2455350707766408  0.6238775465750689  0.7443500398643924
  0.7483325450358593  0.1244724451273495  0.7442595147842170
  0.2414256982552548  0.3746271574801037  0.4959010212740285
  0.2495195949293582  0.8756132788898230  0.4979193237291689
  0.2416181993749265  0.3750202196918800  0.2585606158881084
 -0.0000999877649270  0.9981870254052296  0.1265331203571533
  0.0047545381648985  0.9902530597964806  0.6250072855037644
  0.0035609399574121  0.5077606034169956  0.1244781920020600
  0.4932266500804882  0.0075785291960353  0.1263172542409152
  0.4963436853570378  0.9941565475173074  0.6231090512107865
  0.5044310623971634  0.5081631684986422  0.1273771930276754
  0.5116285854271932  0.5005955466005368  0.6243997472361305
 -0.0002948579259985  0.4987905056415033  0.3776187054355203
  0.9915132975013811  0.5028892422482442  0.8720288388763375
  0.5041648221016540  0.9893346326943486  0.3767136683497107
  0.5153541194607087  0.0003981877022096  0.8750357476110797
  0.0092822679001058  0.2482548022621897  0.1262199907915574
  0.0018619662708869  0.2664738338115441  0.6244477677627326
  0.5090264560848042  0.2387405044714004  0.1266318882906727
  0.4960911240683160  0.2471253803852383  0.6230223179783221
  0.4956806246177340  0.7450854934682624  0.1269715739960054
  0.9955924149007457  0.2453187623978781  0.8749967779017247
  0.9942958687414528  0.7463170698153891  0.3757931747084458
  0.0020900086920588  0.7463236711744721  0.8739450754786480
  0.4912248023175941  0.2632103757041425  0.3757184980107792
  0.4995064708829282  0.2521099067431311  0.8745233180744236
  0.4927448780581364  0.7541005250104771  0.3757726067309769
  0.4989226332423911  0.7516187173992971  0.8740942450530986
  0.2416875748530564  0.4916245769790182  0.1248726561294223
  0.7496078893189599  0.0033611607503811  0.1261980405796949
  0.7458427712350391  0.9951761956936797  0.6231697503728209
  0.2520441107317422  0.0033507693034447  0.3759419619249174
  0.2433696095752562  0.9969015483775318  0.8745186716355537
  0.2521823085874897  0.5124625798904384  0.3765295018418575
  0.2621370103300707  0.5025993120324304  0.8730784258381551
  0.7502756865965001  0.5072925954296768  0.3756507959979008
  0.7567129370650684  0.5056842838165048  0.8730164880749292
  0.2521644817383613  0.7564357587314913  0.1253265419309839
  0.2486068747383663  0.7540331464570980  0.6254126672766636
  0.7474668478493645  0.2608633290485695  0.6233096838994757
  0.7524699538701819  0.7477092332375714  0.1258068190688507
  0.7473430176044045  0.7476826512629725  0.6244779163329131
  0.2546587789456048  0.2439228572656632  0.3751163095998816
  0.2519403032293959  0.2483606702864476  0.8754751294247813
  0.7621542840727128  0.2424595385900870  0.3732895627996962
  0.7531781691304024  0.2448997942156940  0.8755185138371199
  0.1262294990162563  0.0021853661904335  0.0020849793519634
  0.1254149012194980  0.0089907770375620  0.4984014977490147
  0.1245604371391987  0.5047965744759975  0.4938907201775267
  0.6250713050064868  0.0024679664220718  0.0079982851797813
  0.6234421195067437  0.9851182434351337  0.5026513100478404
  0.6248454019879129  0.4968963966550596  0.4944031958502377
  0.1271921168092829  0.9970023619552661  0.7478562652877435
  0.1247568143397200  0.5091261698167903  0.2535454172291919
  0.1237656673342731  0.4890888649209993  0.7659445574394866
  0.6235257934653620  0.9919793101033630  0.7410867942745721
  0.6246702958324809  0.4997031638184536  0.2537440027490334
  0.6265466216903811  0.4908479050546233  0.7587370867021448
  0.1254193713768631  0.2497243138348430  0.9940310352405690
  0.1288574291980823  0.2369845694654646  0.5014886948391173
  0.1253133724973109  0.7442538249557856  0.0011165014947864
  0.1242423142097396  0.7451528116377315  0.4964023858601218
  0.6258679834345195  0.2485829619471349  0.9928511011380075
  0.1254007540618079  0.2366130108100976  0.2561888711654207
  0.1235311022643883  0.7555565190518342  0.7513506694128367
  0.6264344729149890  0.7558806715593666  0.7501185947953835
  0.3773327574153004  0.0026151856050642  0.4950586625473686
  0.3731771216746646  0.4948230586357323  0.0096998827000037
  0.8737926761540867  0.9990299845764141  0.5084790372458405
  0.8745719845302536  0.4970381102271129  0.0017809239688312
  0.3770982221684672  0.9954097473130541  0.2570347697881749
  0.3742301538316756  0.5010747063045004  0.7345269270495534
  0.8737256511952372  0.9979737391279159  0.2471699761274878
  0.8743109942664624  0.9973527243819483  0.7422113757709357
  0.3789102205958461  0.2493481457397017  0.4982276880658748
  0.3764295670734189  0.7578535397712463  0.0011648893082354
  0.3767373126139107  0.7449438639306957  0.5029706048840039
  0.8688495078646232  0.2548746247557949  0.5081419505592260
  0.8721612195110718  0.7553904581282227  0.9986532004676388
  0.8723539582297389  0.7463026234261062  0.5033507361214081
  0.3780216726109218  0.2582164144604432  0.2460500359730402
  0.3762618437838190  0.2467372480234598  0.7528837506748137
  0.3768880233948711  0.7489460540939173  0.2478255129912751
  0.3749843938155587  0.7519003241677662  0.7489830914637479
  0.8728868245955509  0.2568715431778832  0.2396660267924508
  0.8744364076772512  0.2507102173697547  0.7457752350509075
  0.8734708033342814  0.7477348488565055  0.2492275218348603
  0.0030463110413902  0.1264702621584004  0.0036814076517403
  0.9910509247129545  0.1196231470969809  0.5171266223713676
  0.9928813150389127  0.6254578732644178  0.9965404393492827
  0.9974396466313986  0.6260907600364243  0.5005345534191581
  0.5034977559057064  0.1246022507305569  0.9968234235208939
  0.4887501636113809  0.6271921804545953  0.9988902792689875
  0.5048565851611122  0.6260181002121585  0.4970155005588416
  0.9911847213316812  0.1268479939175684  0.2417213922814716
  0.9981317045341634  0.6234426002027671  0.2551829331310551
  0.0134918741051164  0.6235285761880842  0.7487780110030317
  0.5007058982851285  0.6258651651517069  0.2564576807888198
  0.0192851470722234  0.3782818876923961  0.4990957109468570
  0.4979618188785868  0.3724845605367765  0.5080690582286719
  0.4896964702797926  0.8773089182585531  0.4980353172682072
  0.9922956886947206  0.3746275843332947  0.7583530549672044
  0.9961680450512400  0.8755261688592271  0.2549025491522556
  0.9967681147230908  0.8752199065183807  0.7536254199113522
  0.5051689533679313  0.3720981249625675  0.2399684534035822
  0.4942108130784032  0.3733453461382192  0.7438739424776482
  0.4966851599273362  0.8761152702913080  0.2453318503470697
  0.5000937790310427  0.8749689853913997  0.7539714730513648
  0.2471153725645146  0.1247496487903376  0.9961481829841887
  0.2575144322135585  0.1243725272243856  0.4999884733352547
  0.2494663548237163  0.6257777177615542  0.5102607983916180
  0.7446216612485194  0.1260406666850966  0.0023922334499307
  0.7616544493467092  0.6253034398888880  0.0026374968873007
  0.7465673772464463  0.6244493253464632  0.5023465637729567
  0.2607975215944793  0.1267058285386784  0.2519582365487462
  0.2476556081742263  0.1247452576279354  0.7544013335855777
  0.2523246788423466  0.6235894873012316  0.2395877523287069
  0.7589088436933382  0.1259549430513238  0.2470000889967728
  0.7462291661158301  0.6249120571627204  0.2468477144454976
  0.7371180646595595  0.6241978785198488  0.7472518222687052
  0.2484986607964519  0.3763339341401576  0.9942567010968140
  0.2447044407061995  0.8734558845189188  0.0003651324687178
  0.7471856688686680  0.3751052704668422  0.9868598857401414
  0.7482433490522331  0.3729392751845187  0.4877264836523114
  0.7442020343995936  0.8747348269435721  0.0079467520498288
  0.7576522772297154  0.8752795084165089  0.5033001499014923
  0.2579259553930508  0.3763616069920102  0.7603303813730673
  0.2535805032577218  0.8754659142300385  0.2539364958063196
  0.2495509052033356  0.8730426389315756  0.7493133849697455
  0.7459923577877793  0.3743080868000050  0.2649694143719066
  0.7577891674510788  0.3739559718058586  0.7577564503492069
  0.7532429509457879  0.8750365143989276  0.2433071533932986
  0.7541530701707964  0.8747046290421088  0.7441477537432400
 
  0.00000000E+00  0.00000000E+00  0.00000000E+00
  0.00000000E+00  0.00000000E+00  0.00000000E+00
  0.00000000E+00  0.00000000E+00  0.00000000E+00
  0.00000000E+00  0.00000000E+00  0.00000000E+00
  0.00000000E+00  0.00000000E+00  0.00000000E+00
  0.00000000E+00  0.00000000E+00  0.00000000E+00
  0.00000000E+00  0.00000000E+00  0.00000000E+00
  0.00000000E+00  0.00000000E+00  0.00000000E+00
  0.00000000E+00  0.00000000E+00  0.00000000E+00
  0.00000000E+00  0.00000000E+00  0.00000000E+00
  0.00000000E+00  0.00000000E+00  0.00000000E+00
  0.00000000E+00  0.00000000E+00  0.00000000E+00
  0.00000000E+00  0.00000000E+00  0.00000000E+00
  0.00000000E+00  0.00000000E+00  0.00000000E+00
  0.00000000E+00  0.00000000E+00  0.00000000E+00
  0.00000000E+00  0.00000000E+00  0.00000000E+00
  0.00000000E+00  0.00000000E+00  0.00000000E+00
  0.00000000E+00  0.00000000E+00  0.00000000E+00
  0.00000000E+00  0.00000000E+00  0.00000000E+00
  0.00000000E+00  0.00000000E+00  0.00000000E+00
  0.00000000E+00  0.00000000E+00  0.00000000E+00
  0.00000000E+00  0.00000000E+00  0.00000000E+00
  0.00000000E+00  0.00000000E+00  0.00000000E+00
  0.00000000E+00  0.00000000E+00  0.00000000E+00
  0.00000000E+00  0.00000000E+00  0.00000000E+00
  0.00000000E+00  0.00000000E+00  0.00000000E+00
  0.00000000E+00  0.00000000E+00  0.00000000E+00
  0.00000000E+00  0.00000000E+00  0.00000000E+00
  0.00000000E+00  0.00000000E+00  0.00000000E+00
  0.00000000E+00  0.00000000E+00  0.00000000E+00
  0.00000000E+00  0.00000000E+00  0.00000000E+00
  0.00000000E+00  0.00000000E+00  0.00000000E+00
  0.00000000E+00  0.00000000E+00  0.00000000E+00
  0.00000000E+00  0.00000000E+00  0.00000000E+00
  0.00000000E+00  0.00000000E+00  0.00000000E+00
  0.00000000E+00  0.00000000E+00  0.00000000E+00
  0.00000000E+00  0.00000000E+00  0.00000000E+00
  0.00000000E+00  0.00000000E+00  0.00000000E+00
  0.00000000E+00  0.00000000E+00  0.00000000E+00
  0.00000000E+00  0.00000000E+00  0.00000000E+00
  0.00000000E+00  0.00000000E+00  0.00000000E+00
  0.00000000E+00  0.00000000E+00  0.00000000E+00
  0.00000000E+00  0.00000000E+00  0.00000000E+00
  0.00000000E+00  0.00000000E+00  0.00000000E+00
  0.00000000E+00  0.00000000E+00  0.00000000E+00
  0.00000000E+00  0.00000000E+00  0.00000000E+00
  0.00000000E+00  0.00000000E+00  0.00000000E+00
  0.00000000E+00  0.00000000E+00  0.00000000E+00
  0.00000000E+00  0.00000000E+00  0.00000000E+00
  0.00000000E+00  0.00000000E+00  0.00000000E+00
  0.00000000E+00  0.00000000E+00  0.00000000E+00
  0.00000000E+00  0.00000000E+00  0.00000000E+00
  0.00000000E+00  0.00000000E+00  0.00000000E+00
  0.00000000E+00  0.00000000E+00  0.00000000E+00
  0.00000000E+00  0.00000000E+00  0.00000000E+00
  0.00000000E+00  0.00000000E+00  0.00000000E+00
  0.00000000E+00  0.00000000E+00  0.00000000E+00
  0.00000000E+00  0.00000000E+00  0.00000000E+00
  0.00000000E+00  0.00000000E+00  0.00000000E+00
  0.00000000E+00  0.00000000E+00  0.00000000E+00
  0.00000000E+00  0.00000000E+00  0.00000000E+00
  0.00000000E+00  0.00000000E+00  0.00000000E+00
  0.00000000E+00  0.00000000E+00  0.00000000E+00
  0.00000000E+00  0.00000000E+00  0.00000000E+00
  0.00000000E+00  0.00000000E+00  0.00000000E+00
  0.00000000E+00  0.00000000E+00  0.00000000E+00
  0.00000000E+00  0.00000000E+00  0.00000000E+00
  0.00000000E+00  0.00000000E+00  0.00000000E+00
  0.00000000E+00  0.00000000E+00  0.00000000E+00
  0.00000000E+00  0.00000000E+00  0.00000000E+00
  0.00000000E+00  0.00000000E+00  0.00000000E+00
  0.00000000E+00  0.00000000E+00  0.00000000E+00
  0.00000000E+00  0.00000000E+00  0.00000000E+00
  0.00000000E+00  0.00000000E+00  0.00000000E+00
  0.00000000E+00  0.00000000E+00  0.00000000E+00
  0.00000000E+00  0.00000000E+00  0.00000000E+00
  0.00000000E+00  0.00000000E+00  0.00000000E+00
  0.00000000E+00  0.00000000E+00  0.00000000E+00
  0.00000000E+00  0.00000000E+00  0.00000000E+00
  0.00000000E+00  0.00000000E+00  0.00000000E+00
  0.00000000E+00  0.00000000E+00  0.00000000E+00
  0.00000000E+00  0.00000000E+00  0.00000000E+00
  0.00000000E+00  0.00000000E+00  0.00000000E+00
  0.00000000E+00  0.00000000E+00  0.00000000E+00
  0.00000000E+00  0.00000000E+00  0.00000000E+00
  0.00000000E+00  0.00000000E+00  0.00000000E+00
  0.00000000E+00  0.00000000E+00  0.00000000E+00
  0.00000000E+00  0.00000000E+00  0.00000000E+00
  0.00000000E+00  0.00000000E+00  0.00000000E+00
  0.00000000E+00  0.00000000E+00  0.00000000E+00
  0.00000000E+00  0.00000000E+00  0.00000000E+00
  0.00000000E+00  0.00000000E+00  0.00000000E+00
  0.00000000E+00  0.00000000E+00  0.00000000E+00
  0.00000000E+00  0.00000000E+00  0.00000000E+00
  0.00000000E+00  0.00000000E+00  0.00000000E+00
  0.00000000E+00  0.00000000E+00  0.00000000E+00
  0.00000000E+00  0.00000000E+00  0.00000000E+00
  0.00000000E+00  0.00000000E+00  0.00000000E+00
  0.00000000E+00  0.00000000E+00  0.00000000E+00
  0.00000000E+00  0.00000000E+00  0.00000000E+00
  0.00000000E+00  0.00000000E+00  0.00000000E+00
  0.00000000E+00  0.00000000E+00  0.00000000E+00
  0.00000000E+00  0.00000000E+00  0.00000000E+00
  0.00000000E+00  0.00000000E+00  0.00000000E+00
  0.00000000E+00  0.00000000E+00  0.00000000E+00
  0.00000000E+00  0.00000000E+00  0.00000000E+00
  0.00000000E+00  0.00000000E+00  0.00000000E+00
  0.00000000E+00  0.00000000E+00  0.00000000E+00
  0.00000000E+00  0.00000000E+00  0.00000000E+00
  0.00000000E+00  0.00000000E+00  0.00000000E+00
  0.00000000E+00  0.00000000E+00  0.00000000E+00
  0.00000000E+00  0.00000000E+00  0.00000000E+00
  0.00000000E+00  0.00000000E+00  0.00000000E+00
  0.00000000E+00  0.00000000E+00  0.00000000E+00
  0.00000000E+00  0.00000000E+00  0.00000000E+00
  0.00000000E+00  0.00000000E+00  0.00000000E+00
  0.00000000E+00  0.00000000E+00  0.00000000E+00
  0.00000000E+00  0.00000000E+00  0.00000000E+00
  0.00000000E+00  0.00000000E+00  0.00000000E+00
  0.00000000E+00  0.00000000E+00  0.00000000E+00
  0.00000000E+00  0.00000000E+00  0.00000000E+00
  0.00000000E+00  0.00000000E+00  0.00000000E+00
  0.00000000E+00  0.00000000E+00  0.00000000E+00
  0.00000000E+00  0.00000000E+00  0.00000000E+00
  0.00000000E+00  0.00000000E+00  0.00000000E+00
  0.00000000E+00  0.00000000E+00  0.00000000E+00
  0.00000000E+00  0.00000000E+00  0.00000000E+00
  0.00000000E+00  0.00000000E+00  0.00000000E+00
  0.00000000E+00  0.00000000E+00  0.00000000E+00
  0.00000000E+00  0.00000000E+00  0.00000000E+00
  0.00000000E+00  0.00000000E+00  0.00000000E+00
  0.00000000E+00  0.00000000E+00  0.00000000E+00
  0.00000000E+00  0.00000000E+00  0.00000000E+00
  0.00000000E+00  0.00000000E+00  0.00000000E+00
  0.00000000E+00  0.00000000E+00  0.00000000E+00
  0.00000000E+00  0.00000000E+00  0.00000000E+00
  0.00000000E+00  0.00000000E+00  0.00000000E+00
  0.00000000E+00  0.00000000E+00  0.00000000E+00
  0.00000000E+00  0.00000000E+00  0.00000000E+00
  0.00000000E+00  0.00000000E+00  0.00000000E+00
  0.00000000E+00  0.00000000E+00  0.00000000E+00
  0.00000000E+00  0.00000000E+00  0.00000000E+00
  0.00000000E+00  0.00000000E+00  0.00000000E+00
  0.00000000E+00  0.00000000E+00  0.00000000E+00
  0.00000000E+00  0.00000000E+00  0.00000000E+00
  0.00000000E+00  0.00000000E+00  0.00000000E+00
  0.00000000E+00  0.00000000E+00  0.00000000E+00
  0.00000000E+00  0.00000000E+00  0.00000000E+00
  0.00000000E+00  0.00000000E+00  0.00000000E+00
  0.00000000E+00  0.00000000E+00  0.00000000E+00
  0.00000000E+00  0.00000000E+00  0.00000000E+00
  0.00000000E+00  0.00000000E+00  0.00000000E+00
  0.00000000E+00  0.00000000E+00  0.00000000E+00
  0.00000000E+00  0.00000000E+00  0.00000000E+00
  0.00000000E+00  0.00000000E+00  0.00000000E+00
  0.00000000E+00  0.00000000E+00  0.00000000E+00
  0.00000000E+00  0.00000000E+00  0.00000000E+00
  0.00000000E+00  0.00000000E+00  0.00000000E+00
  0.00000000E+00  0.00000000E+00  0.00000000E+00
  0.00000000E+00  0.00000000E+00  0.00000000E+00
  0.00000000E+00  0.00000000E+00  0.00000000E+00
  0.00000000E+00  0.00000000E+00  0.00000000E+00
  0.00000000E+00  0.00000000E+00  0.00000000E+00
  0.00000000E+00  0.00000000E+00  0.00000000E+00
  0.00000000E+00  0.00000000E+00  0.00000000E+00
  0.00000000E+00  0.00000000E+00  0.00000000E+00
  0.00000000E+00  0.00000000E+00  0.00000000E+00
  0.00000000E+00  0.00000000E+00  0.00000000E+00
  0.00000000E+00  0.00000000E+00  0.00000000E+00
  0.00000000E+00  0.00000000E+00  0.00000000E+00
  0.00000000E+00  0.00000000E+00  0.00000000E+00
  0.00000000E+00  0.00000000E+00  0.00000000E+00
  0.00000000E+00  0.00000000E+00  0.00000000E+00
  0.00000000E+00  0.00000000E+00  0.00000000E+00
  0.00000000E+00  0.00000000E+00  0.00000000E+00
  0.00000000E+00  0.00000000E+00  0.00000000E+00
  0.00000000E+00  0.00000000E+00  0.00000000E+00
  0.00000000E+00  0.00000000E+00  0.00000000E+00
  0.00000000E+00  0.00000000E+00  0.00000000E+00
  0.00000000E+00  0.00000000E+00  0.00000000E+00
  0.00000000E+00  0.00000000E+00  0.00000000E+00
  0.00000000E+00  0.00000000E+00  0.00000000E+00
  0.00000000E+00  0.00000000E+00  0.00000000E+00
  0.00000000E+00  0.00000000E+00  0.00000000E+00
  0.00000000E+00  0.00000000E+00  0.00000000E+00
  0.00000000E+00  0.00000000E+00  0.00000000E+00
  0.00000000E+00  0.00000000E+00  0.00000000E+00
  0.00000000E+00  0.00000000E+00  0.00000000E+00
  0.00000000E+00  0.00000000E+00  0.00000000E+00
  0.00000000E+00  0.00000000E+00  0.00000000E+00
  0.00000000E+00  0.00000000E+00  0.00000000E+00
  0.00000000E+00  0.00000000E+00  0.00000000E+00
  0.00000000E+00  0.00000000E+00  0.00000000E+00
  0.00000000E+00  0.00000000E+00  0.00000000E+00
  0.00000000E+00  0.00000000E+00  0.00000000E+00
  0.00000000E+00  0.00000000E+00  0.00000000E+00
  0.00000000E+00  0.00000000E+00  0.00000000E+00
  0.00000000E+00  0.00000000E+00  0.00000000E+00
  0.00000000E+00  0.00000000E+00  0.00000000E+00
  0.00000000E+00  0.00000000E+00  0.00000000E+00
  0.00000000E+00  0.00000000E+00  0.00000000E+00
  0.00000000E+00  0.00000000E+00  0.00000000E+00
  0.00000000E+00  0.00000000E+00  0.00000000E+00
  0.00000000E+00  0.00000000E+00  0.00000000E+00
  0.00000000E+00  0.00000000E+00  0.00000000E+00
  0.00000000E+00  0.00000000E+00  0.00000000E+00
  0.00000000E+00  0.00000000E+00  0.00000000E+00
  0.00000000E+00  0.00000000E+00  0.00000000E+00
  0.00000000E+00  0.00000000E+00  0.00000000E+00
  0.00000000E+00  0.00000000E+00  0.00000000E+00
  0.00000000E+00  0.00000000E+00  0.00000000E+00
  0.00000000E+00  0.00000000E+00  0.00000000E+00
  0.00000000E+00  0.00000000E+00  0.00000000E+00
  0.00000000E+00  0.00000000E+00  0.00000000E+00
  0.00000000E+00  0.00000000E+00  0.00000000E+00
  0.00000000E+00  0.00000000E+00  0.00000000E+00
  0.00000000E+00  0.00000000E+00  0.00000000E+00
  0.00000000E+00  0.00000000E+00  0.00000000E+00
  0.00000000E+00  0.00000000E+00  0.00000000E+00
  0.00000000E+00  0.00000000E+00  0.00000000E+00
  0.00000000E+00  0.00000000E+00  0.00000000E+00
  0.00000000E+00  0.00000000E+00  0.00000000E+00
  0.00000000E+00  0.00000000E+00  0.00000000E+00
  0.00000000E+00  0.00000000E+00  0.00000000E+00
  0.00000000E+00  0.00000000E+00  0.00000000E+00
  0.00000000E+00  0.00000000E+00  0.00000000E+00
  0.00000000E+00  0.00000000E+00  0.00000000E+00
  0.00000000E+00  0.00000000E+00  0.00000000E+00
  0.00000000E+00  0.00000000E+00  0.00000000E+00
  0.00000000E+00  0.00000000E+00  0.00000000E+00
  0.00000000E+00  0.00000000E+00  0.00000000E+00
  0.00000000E+00  0.00000000E+00  0.00000000E+00
  0.00000000E+00  0.00000000E+00  0.00000000E+00
  0.00000000E+00  0.00000000E+00  0.00000000E+00
  0.00000000E+00  0.00000000E+00  0.00000000E+00
  0.00000000E+00  0.00000000E+00  0.00000000E+00
  0.00000000E+00  0.00000000E+00  0.00000000E+00
  0.00000000E+00  0.00000000E+00  0.00000000E+00
  0.00000000E+00  0.00000000E+00  0.00000000E+00
  0.00000000E+00  0.00000000E+00  0.00000000E+00
  0.00000000E+00  0.00000000E+00  0.00000000E+00
  0.00000000E+00  0.00000000E+00  0.00000000E+00
  0.00000000E+00  0.00000000E+00  0.00000000E+00
  0.00000000E+00  0.00000000E+00  0.00000000E+00
  0.00000000E+00  0.00000000E+00  0.00000000E+00
  0.00000000E+00  0.00000000E+00  0.00000000E+00
  0.00000000E+00  0.00000000E+00  0.00000000E+00
  0.00000000E+00  0.00000000E+00  0.00000000E+00
  0.00000000E+00  0.00000000E+00  0.00000000E+00
  0.00000000E+00  0.00000000E+00  0.00000000E+00
  0.00000000E+00  0.00000000E+00  0.00000000E+00
  0.00000000E+00  0.00000000E+00  0.00000000E+00
  0.00000000E+00  0.00000000E+00  0.00000000E+00
  0.00000000E+00  0.00000000E+00  0.00000000E+00
  0.00000000E+00  0.00000000E+00  0.00000000E+00
  0.00000000E+00  0.00000000E+00  0.00000000E+00
  0.00000000E+00  0.00000000E+00  0.00000000E+00
