config 03                               
   1.00000000000000     
    15.4263309999999993    0.0000000000000000    0.0000000000000000
     0.0000000000000000   15.4263309999999993    0.0000000000000000
     0.0000000000000000    0.0000000000000000   15.4263309999999993
   Li   Ti   O    F 
     1    64    64   128
Direct
  0.1286517878314614  0.1349510247862855  0.6407325277167847
  0.9947261403125854  0.9954349485114413  0.9950481280384111
  0.9990855924795474  0.9930562845074177  0.4925988359019003
  0.0055582088219761  0.4953227442221975  0.9973550714617803
  0.9941357322636163  0.5023216728160895  0.5065505009810262
  0.4937673826516598  0.9944092324598484  0.9995910248972723
  0.5012702949789514  0.0079077903022997  0.4999841053344823
  0.5042449570425228  0.4956803000701013  0.9959480371280016
  0.4919031337934184  0.4991765715776268  0.4951427876042037
  0.0063131784908600  0.0031898354615559  0.2559863219311967
  0.9996567276483352  0.0063879754675335  0.7569426207860226
  0.9942589574265936  0.4925822114087369  0.2511505853706760
  0.9930326686820249  0.4984901556549644  0.7417283114626624
  0.5059635357275184  0.0083714527377425  0.2504460698382043
  0.4932929184549425  0.0050806708784919  0.7506888170873207
  0.4932797774558554  0.4970656141612886  0.2572330229656546
  0.5008838675850900  0.5044927800878961  0.7582380583007278
  0.9955738773425440  0.2570981196023769  0.0022877357240731
  0.9990135694000624  0.2480220454864057  0.4936227858665432
  0.9979968121838990  0.7580439374881131  0.0057497892595868
  0.9976776280898662  0.7573167951977697  0.5055770608957417
  0.4948027819318563  0.2580426391773902  0.0005768152071676
  0.5091043502552423  0.2457448199173977  0.4994014988215832
  0.5071594914055837  0.7564841730096215  0.9991009407565210
  0.5069331417008407  0.7530003411303483  0.5090481204541517
  0.9994314663608925  0.2571063284074281  0.2574675950917635
  0.0057538272189207  0.2417793158701574  0.7478623418791782
  0.0066966813621932  0.7485222989581326  0.2429488786402201
  0.9929304894331871  0.7503477217447526  0.7431355204052190
  0.5081482633533738  0.2422689933930923  0.2512960699387425
  0.5074228945241845  0.2431321006285212  0.7498680700115906
  0.5067796492501728  0.7516371443307369  0.2519825519917864
  0.5015514558222391  0.7423692924978580  0.7434933969246460
  0.2559120333749128  0.9989722316730126  0.0064080014319509
  0.2497660310506932  0.9933995272944189  0.5066695262712393
  0.2434840310952550  0.5077523319977292  0.9974470279765886
  0.2538827611449626  0.4947238226137237  0.5070899395284229
  0.7569747500183770  0.0003378608994672  0.9943748625218179
  0.7506386126550723  0.0065988350151881  0.4943354360235492
  0.7418899731612206  0.5005672757297808  0.0051355499226638
  0.7556031828563906  0.4978402382137136  0.5051280721248174
  0.2445064085364236  0.0027078986726120  0.2440578166274228
  0.2579361849666155  0.9973781808661243  0.7442871490498809
  0.2554334249766558  0.4923401549367115  0.2517077905345376
  0.2472003736010770  0.5072172008436647  0.7417761033078175
  0.7447105386648247  0.0001726250696985  0.2558829227026020
  0.7482058956904060  0.0059486734591838  0.7559864348655020
  0.7565157822921550  0.4991698265287466  0.2428572408549026
  0.7573261350104998  0.4976125734190920  0.7425095148596866
  0.2571980660580875  0.2512358009839283  0.0058335113061486
  0.2536576727761657  0.2562805921696819  0.5052716507733290
  0.2518623683455046  0.7429087681752355  0.9933872314871864
  0.2516492978732735  0.7551179121369906  0.4932830931034652
  0.7572928548261991  0.2508134399912711  0.0064808575639326
  0.7442251325792837  0.2423362324994838  0.4975241610648230
  0.7417768717138322  0.7495716486493363  0.9939483896889673
  0.7418427914669644  0.7521502909370060  0.4939623569791797
  0.2508323099103290  0.2574740618453216  0.2432988949343112
  0.2468322704025576  0.2513303262755824  0.7439641615751081
  0.2437780823602037  0.7486590161539989  0.2557642080264387
  0.2480921494221948  0.7423314549485078  0.7569673875108405
  0.7427242077028470  0.2509141176398254  0.2415894081254144
  0.7442979487489025  0.2416571547723709  0.7504893053783800
  0.7456111933155297  0.7502398033927768  0.2565658358733106
  0.7573846892769422  0.7505677032398012  0.7566424595406345
  0.0070974073074273  0.5009593503426993  0.6250561535099768
  0.9927867765023279  0.0087346383495106  0.3757318266324626
  0.9964441648358197  0.0064479269906528  0.8721216338809009
  0.5000025337542070  0.4945517319275666  0.3753561733254192
  0.4946888841355733  0.4981429770161279  0.8744539274144199
  0.9987026998091779  0.7488870023581224  0.1252399168616420
  0.0009193525180127  0.7487438471641444  0.6244766073254211
  0.5008713272040139  0.7550101350767471  0.6249329652159639
  0.9981983247499072  0.2434489163729517  0.3721838601560667
  0.2528031962404204  0.0055298282986544  0.1253704047627044
  0.2415018650523498  0.0138346680432293  0.6258796380602781
  0.2402172879620567  0.4990297387495182  0.6262315542861321
  0.7508229655450896  0.4928884676324128  0.1251026462093245
  0.7464968529031846  0.4944762614013177  0.6243498936988583
  0.7531194694040156  0.9984579625529577  0.3757823647930909
  0.7485066438396150  0.9977801132217032  0.8733598218856155
  0.2489651189414603  0.2479228637845780  0.1252466217357014
  0.2576753680421419  0.2401893716787957  0.6265705381385611
  0.7434597979800126  0.2572953391976292  0.1252754650720039
  0.2538280865967162  0.7502418422477267  0.3752893810008011
  0.2510013549940613  0.7560930277887333  0.8749414468147539
  0.7516739216609734  0.7528272656179672  0.3740115995113883
  0.7477800567254129  0.7530998385016801  0.8753110927786362
  0.1245579054803712  0.5036110431748687  0.9951755704854724
  0.6254443362320116  0.5074053433663012  0.9985648298016968
  0.1254372014870795  0.0032579350286798  0.2541124169337744
  0.6247711487106145  0.0003883681942413  0.2518205721991646
  0.6241997319302871  0.2549710870188481  0.4966589387503161
  0.6244488365214521  0.7423813625552078  0.0034726376093814
  0.6244741363203755  0.7605351122120620  0.4967180582177058
  0.1257563957912189  0.2392993569010552  0.7378232143057694
  0.1256641175460575  0.7518479113390726  0.2512708788976383
  0.6253076834093363  0.2456381753313322  0.2592114354261724
  0.6254289932677816  0.2510982566700662  0.7466738471591551
  0.6227819896209232  0.7543382578872797  0.2504957417063143
  0.3754102328255726  0.0001178459243050  0.9937704079093331
  0.3747946952567148  0.5025930206556216  0.5033749135322795
  0.8728541153437079  0.0019046693996821  0.0019248153371199
  0.8747423761804806  0.5010846382548239  0.4989697337588728
  0.3757564878118998  0.9945127568402878  0.7488076175068713
  0.3740956810652218  0.4966631065218796  0.2495297944559410
  0.8750658926445700  0.4985038071648178  0.2527131741763903
  0.8754272122671796  0.5045126411248970  0.7473604108156199
  0.3755332730272022  0.2479697093718715  0.0001474605332794
  0.8743705723794160  0.2480511305409672  0.0023445579455273
  0.8748738208208688  0.7453377816068870  0.7497693905570971
  0.5079157868739691  0.1221590546133971  0.4971566494209745
  0.9980618641092909  0.1251246881563207  0.7337520541774383
  0.4954446325057750  0.1249360184006001  0.2608217896643814
  0.4998461266478479  0.1232919363193989  0.7458536582786860
  0.5003434481033928  0.6254957460500089  0.7488194243896376
  0.0001990176055601  0.3750445443306650  0.0009184089329995
  0.0016526474300773  0.8754123098480170  0.9978533036898424
  0.9980436226395424  0.8751712314708758  0.4960625106174095
  0.5023666409032181  0.3740804099810447  0.0058684217713009
  0.5039658678680200  0.8755240950967285  0.0022532370153283
  0.0062797203279579  0.3751971244869970  0.2474929021016348
  0.2550806143358135  0.6255451425980170  0.9987814708531461
  0.7421401291836054  0.1241777621869857  0.5032697065762218
  0.2494676371970889  0.6250807554920179  0.7533590443409331
  0.7520653167962174  0.1242602285144103  0.7448301051335535
  0.2482172247334161  0.3723069208452102  0.4988350987832720
  0.2514042594936983  0.8761133908785438  0.5054899080978341
  0.2426675171932926  0.3744268156829195  0.2545154657362573
  0.0020894180612758  0.9989840869753781  0.1262185484037483
  0.0128286532873701  0.9920587977296303  0.6245084357897548
  0.9995303035088982  0.5079955601601290  0.1242690006069285
  0.4957086286135194  0.0053930962187950  0.1262511894049559
  0.5035648619240372  0.9922660145288247  0.6231065978439930
  0.5012889045457892  0.5065947885260661  0.1271906407437870
  0.5057347665751215  0.4994691898851452  0.6249208723829097
  0.0042547327238740  0.5008180770357976  0.3756177919093313
  0.9960934358779062  0.5000172919200676  0.8727919893194271
  0.4986064431181422  0.9914054508012053  0.3769800330081898
  0.5105971756427758  0.0019400547910383  0.8743220634345488
  0.0058833422710893  0.2475295468382376  0.1259689974183821
  0.9945092833294099  0.2625186121855697  0.6241661988016969
  0.5056002470150261  0.2402265138513702  0.1264829135193228
  0.4934830135448833  0.2488401154224169  0.6233592558728734
  0.4954231234316748  0.7474656006917856  0.1269079234929738
  0.0013495051064481  0.2449108390470706  0.8736946806742530
  0.9949346321894279  0.7492583244536120  0.3747758934131421
  0.0018587153561186  0.7494708044603580  0.8738187621329870
  0.4933403180591474  0.2612491642905347  0.3758841163891256
  0.5022139003207757  0.2497093729186674  0.8742704948947565
  0.4935106920126527  0.7528715349688682  0.3757796879568356
  0.4986646941765619  0.7510010487862213  0.8740283869196077
  0.2459282442228504  0.4967945111518868  0.1246109231133082
  0.7474484286842267  0.0041556886717172  0.1262142764367312
  0.7434942163680279  0.9958585567664596  0.6232099572119225
  0.2556663819436067  0.9977412047255058  0.3764077583049439
  0.2458060583983615  0.9915882579152654  0.8731460966763862
  0.2469038545603230  0.5081521400243459  0.3756422611348421
  0.2585886817160747  0.4944014388941335  0.8733999372291485
  0.7452601949367653  0.5057178225731012  0.3747142746651616
  0.7515207278079423  0.5044218686989118  0.8738112759138105
  0.2526188678392347  0.7526137059920206  0.1249653794198061
  0.2493244127213921  0.7479692623641651  0.6253592861691347
  0.7512919022431680  0.2594132681904277  0.6237286382105278
  0.7524295657912952  0.7476952585852801  0.1256966904594587
  0.7477080157350834  0.7481667556517729  0.6244299291530434
  0.2482854014805800  0.2459606541536784  0.3757330375825219
  0.2474054445558113  0.2540830071011450  0.8741678706328582
  0.7588780172554650  0.2438742660918936  0.3733480399046034
  0.7503781659919093  0.2453272375835513  0.8755126514284175
  0.1259709761764088  0.0020162493702217  0.9989881882278139
  0.1253807393076757  0.0066607603998364  0.4927126295969808
  0.1243951177845187  0.5054727425666049  0.4936194536976153
  0.6248676222517957  0.0017254608010766  0.0050244848353896
  0.6239749897918249  0.9840945679714251  0.4984926915210980
  0.6244565810100683  0.4961677040067874  0.4989404511466992
  0.1265648587246643  0.0091657176366001  0.7504743219184943
  0.1247348582659287  0.5078474605027248  0.2482920079041381
  0.1235668158876263  0.4952662895141121  0.7622934238775060
  0.6235199930655622  0.9951077115272201  0.7443617570533643
  0.6247424130838286  0.4991825177371988  0.2493145561262093
  0.6262740395416716  0.4933430815613715  0.7544300958972088
  0.1254203121950463  0.2497507972998540  0.9964151166106228
  0.1286737298065316  0.2335262605315710  0.5154355394967420
  0.1251357086056999  0.7457832386932105  0.0009721330232299
  0.1244805873947460  0.7486799895081632  0.4968784636015820
  0.6258251180048812  0.2488259284462072  0.9951547382897070
  0.1254868500675194  0.2368776417639241  0.2513471605038505
  0.1234460216298343  0.7528093862450059  0.7505658154832786
  0.6262095715034666  0.7536351470119179  0.7498316788193820
  0.3773677109140820  0.0040812868049406  0.5046755695708156
  0.3733004785727536  0.4961395281358783  0.0064889720897824
  0.8745958713373770  0.0047518053091459  0.5124817107301196
  0.8746113412923565  0.4981045894757256  0.9981244268020462
  0.3768225985353609  0.9964080612755920  0.2541328692062615
  0.3742756252707311  0.4958980315494793  0.7421630720557922
  0.8737957736045188  0.9987722595907059  0.2448786881945492
  0.8742023096791859  0.9932825100575622  0.7386043793859868
  0.3790860975767559  0.2450015982869694  0.4956212956099700
  0.3764554234194354  0.7568589126187489  0.0012257572321266
  0.3770598890042791  0.7455414227588657  0.5020962710507257
  0.8690697186514912  0.2507274383913739  0.5037958981953590
  0.8721555787287022  0.7547162063530436  0.9987055621290147
  0.8723157896673054  0.7447163087470726  0.5027844821647279
  0.3776479048395880  0.2563580688276325  0.2496127535058221
  0.3764383881544703  0.2513891688448999  0.7559842058265714
  0.3769046023238091  0.7488739994909123  0.2482781446407640
  0.3748341824441008  0.7566619431837416  0.7491146231334564
  0.8730660631588042  0.2547267456390624  0.2439722897723567
  0.8750682971298153  0.2529984873560874  0.7509885932436791
  0.8736493176590258  0.7477895910808795  0.2490997770131018
  0.0036818263232431  0.1263278193986511  0.0029625864713542
  0.0015678560244812  0.1197323665473920  0.5207729246450726
  0.9939221325842136  0.6259526749026403  0.9952313306238844
  0.0002790532131953  0.6274214887539483  0.4946323081425125
  0.5041131136774251  0.1243703601361663  0.9982612843800094
  0.4898172351011016  0.6275514405531619  0.0001524915829000
  0.5057301882956744  0.6267820472415970  0.4983519808437689
  0.9918431042262734  0.1264692595892815  0.2408510965911315
  0.9990259769493949  0.6241267840864949  0.2542201620734529
  0.0091450679594098  0.6244249693308359  0.7540623078897680
  0.5011896762565572  0.6262364038702105  0.2543385519434578
  0.0064605219180103  0.3788218703646850  0.4957284486171107
  0.4951470747288164  0.3722487397761037  0.5066205379017579
  0.4892652216448597  0.8777991278224693  0.4967634200616117
  0.0009273859792426  0.3730607891846995  0.7547441201641549
  0.9957042131899868  0.8761207113898491  0.2532656016923806
  0.0022150332147610  0.8760305916810610  0.7511524655066625
  0.5032995252712222  0.3718189880191877  0.2412669302075811
  0.4974695135125082  0.3727818048113610  0.7457771895371892
  0.4959051992213329  0.8762300814761399  0.2475183749762064
  0.5029519982714158  0.8753221346530556  0.7550695042725923
  0.2460743574132277  0.1247922967651453  0.9902148271056516
  0.2542505818766549  0.1232203173628845  0.4935742682228459
  0.2486254323358941  0.6269047305560949  0.5027482348768508
  0.7436204899133552  0.1258529529256777  0.0013696231492102
  0.7609057764409406  0.6256450574599982  0.0019812073391420
  0.7439939097386064  0.6257686877349019  0.5009101891355016
  0.2600524703357387  0.1264043188605302  0.2563733309541986
  0.2544623885101523  0.1241507219551580  0.7619106206766956
  0.2518689110175902  0.6241927680510286  0.2441881224328010
  0.7577022849304865  0.1257018477061436  0.2483989071089168
  0.7460833469834003  0.6253880649301639  0.2477286618135346
  0.7407228487377223  0.6246211895891213  0.7480548868309853
  0.2488209683183297  0.3760584262730792  0.9992842639901499
  0.2452123521560329  0.8743053948209910  0.0051588961646116
  0.7477669822534508  0.3748856237200024  0.9882997191895598
  0.7505720517218033  0.3728417087081753  0.4899676658806943
  0.7451994230598705  0.8749864106376685  0.0086165306790104
  0.7604092608513665  0.8761783438181888  0.5040375037398093
  0.2489381392714073  0.3751144764308230  0.7512626582205163
  0.2543565917043886  0.8759429124978351  0.2486926398796694
  0.2435041240322291  0.8742182668472135  0.7406921900316424
  0.7473807471539669  0.3742037603137426  0.2629301962187429
  0.7540710995700266  0.3728069331319698  0.7568383809196818
  0.7542901786721746  0.8752508476865694  0.2422552505668354
  0.7506284926819653  0.8751305597838275  0.7436633887025872
 
  0.00000000E+00  0.00000000E+00  0.00000000E+00
  0.00000000E+00  0.00000000E+00  0.00000000E+00
  0.00000000E+00  0.00000000E+00  0.00000000E+00
  0.00000000E+00  0.00000000E+00  0.00000000E+00
  0.00000000E+00  0.00000000E+00  0.00000000E+00
  0.00000000E+00  0.00000000E+00  0.00000000E+00
  0.00000000E+00  0.00000000E+00  0.00000000E+00
  0.00000000E+00  0.00000000E+00  0.00000000E+00
  0.00000000E+00  0.00000000E+00  0.00000000E+00
  0.00000000E+00  0.00000000E+00  0.00000000E+00
  0.00000000E+00  0.00000000E+00  0.00000000E+00
  0.00000000E+00  0.00000000E+00  0.00000000E+00
  0.00000000E+00  0.00000000E+00  0.00000000E+00
  0.00000000E+00  0.00000000E+00  0.00000000E+00
  0.00000000E+00  0.00000000E+00  0.00000000E+00
  0.00000000E+00  0.00000000E+00  0.00000000E+00
  0.00000000E+00  0.00000000E+00  0.00000000E+00
  0.00000000E+00  0.00000000E+00  0.00000000E+00
  0.00000000E+00  0.00000000E+00  0.00000000E+00
  0.00000000E+00  0.00000000E+00  0.00000000E+00
  0.00000000E+00  0.00000000E+00  0.00000000E+00
  0.00000000E+00  0.00000000E+00  0.00000000E+00
  0.00000000E+00  0.00000000E+00  0.00000000E+00
  0.00000000E+00  0.00000000E+00  0.00000000E+00
  0.00000000E+00  0.00000000E+00  0.00000000E+00
  0.00000000E+00  0.00000000E+00  0.00000000E+00
  0.00000000E+00  0.00000000E+00  0.00000000E+00
  0.00000000E+00  0.00000000E+00  0.00000000E+00
  0.00000000E+00  0.00000000E+00  0.00000000E+00
  0.00000000E+00  0.00000000E+00  0.00000000E+00
  0.00000000E+00  0.00000000E+00  0.00000000E+00
  0.00000000E+00  0.00000000E+00  0.00000000E+00
  0.00000000E+00  0.00000000E+00  0.00000000E+00
  0.00000000E+00  0.00000000E+00  0.00000000E+00
  0.00000000E+00  0.00000000E+00  0.00000000E+00
  0.00000000E+00  0.00000000E+00  0.00000000E+00
  0.00000000E+00  0.00000000E+00  0.00000000E+00
  0.00000000E+00  0.00000000E+00  0.00000000E+00
  0.00000000E+00  0.00000000E+00  0.00000000E+00
  0.00000000E+00  0.00000000E+00  0.00000000E+00
  0.00000000E+00  0.00000000E+00  0.00000000E+00
  0.00000000E+00  0.00000000E+00  0.00000000E+00
  0.00000000E+00  0.00000000E+00  0.00000000E+00
  0.00000000E+00  0.00000000E+00  0.00000000E+00
  0.00000000E+00  0.00000000E+00  0.00000000E+00
  0.00000000E+00  0.00000000E+00  0.00000000E+00
  0.00000000E+00  0.00000000E+00  0.00000000E+00
  0.00000000E+00  0.00000000E+00  0.00000000E+00
  0.00000000E+00  0.00000000E+00  0.00000000E+00
  0.00000000E+00  0.00000000E+00  0.00000000E+00
  0.00000000E+00  0.00000000E+00  0.00000000E+00
  0.00000000E+00  0.00000000E+00  0.00000000E+00
  0.00000000E+00  0.00000000E+00  0.00000000E+00
  0.00000000E+00  0.00000000E+00  0.00000000E+00
  0.00000000E+00  0.00000000E+00  0.00000000E+00
  0.00000000E+00  0.00000000E+00  0.00000000E+00
  0.00000000E+00  0.00000000E+00  0.00000000E+00
  0.00000000E+00  0.00000000E+00  0.00000000E+00
  0.00000000E+00  0.00000000E+00  0.00000000E+00
  0.00000000E+00  0.00000000E+00  0.00000000E+00
  0.00000000E+00  0.00000000E+00  0.00000000E+00
  0.00000000E+00  0.00000000E+00  0.00000000E+00
  0.00000000E+00  0.00000000E+00  0.00000000E+00
  0.00000000E+00  0.00000000E+00  0.00000000E+00
  0.00000000E+00  0.00000000E+00  0.00000000E+00
  0.00000000E+00  0.00000000E+00  0.00000000E+00
  0.00000000E+00  0.00000000E+00  0.00000000E+00
  0.00000000E+00  0.00000000E+00  0.00000000E+00
  0.00000000E+00  0.00000000E+00  0.00000000E+00
  0.00000000E+00  0.00000000E+00  0.00000000E+00
  0.00000000E+00  0.00000000E+00  0.00000000E+00
  0.00000000E+00  0.00000000E+00  0.00000000E+00
  0.00000000E+00  0.00000000E+00  0.00000000E+00
  0.00000000E+00  0.00000000E+00  0.00000000E+00
  0.00000000E+00  0.00000000E+00  0.00000000E+00
  0.00000000E+00  0.00000000E+00  0.00000000E+00
  0.00000000E+00  0.00000000E+00  0.00000000E+00
  0.00000000E+00  0.00000000E+00  0.00000000E+00
  0.00000000E+00  0.00000000E+00  0.00000000E+00
  0.00000000E+00  0.00000000E+00  0.00000000E+00
  0.00000000E+00  0.00000000E+00  0.00000000E+00
  0.00000000E+00  0.00000000E+00  0.00000000E+00
  0.00000000E+00  0.00000000E+00  0.00000000E+00
  0.00000000E+00  0.00000000E+00  0.00000000E+00
  0.00000000E+00  0.00000000E+00  0.00000000E+00
  0.00000000E+00  0.00000000E+00  0.00000000E+00
  0.00000000E+00  0.00000000E+00  0.00000000E+00
  0.00000000E+00  0.00000000E+00  0.00000000E+00
  0.00000000E+00  0.00000000E+00  0.00000000E+00
  0.00000000E+00  0.00000000E+00  0.00000000E+00
  0.00000000E+00  0.00000000E+00  0.00000000E+00
  0.00000000E+00  0.00000000E+00  0.00000000E+00
  0.00000000E+00  0.00000000E+00  0.00000000E+00
  0.00000000E+00  0.00000000E+00  0.00000000E+00
  0.00000000E+00  0.00000000E+00  0.00000000E+00
  0.00000000E+00  0.00000000E+00  0.00000000E+00
  0.00000000E+00  0.00000000E+00  0.00000000E+00
  0.00000000E+00  0.00000000E+00  0.00000000E+00
  0.00000000E+00  0.00000000E+00  0.00000000E+00
  0.00000000E+00  0.00000000E+00  0.00000000E+00
  0.00000000E+00  0.00000000E+00  0.00000000E+00
  0.00000000E+00  0.00000000E+00  0.00000000E+00
  0.00000000E+00  0.00000000E+00  0.00000000E+00
  0.00000000E+00  0.00000000E+00  0.00000000E+00
  0.00000000E+00  0.00000000E+00  0.00000000E+00
  0.00000000E+00  0.00000000E+00  0.00000000E+00
  0.00000000E+00  0.00000000E+00  0.00000000E+00
  0.00000000E+00  0.00000000E+00  0.00000000E+00
  0.00000000E+00  0.00000000E+00  0.00000000E+00
  0.00000000E+00  0.00000000E+00  0.00000000E+00
  0.00000000E+00  0.00000000E+00  0.00000000E+00
  0.00000000E+00  0.00000000E+00  0.00000000E+00
  0.00000000E+00  0.00000000E+00  0.00000000E+00
  0.00000000E+00  0.00000000E+00  0.00000000E+00
  0.00000000E+00  0.00000000E+00  0.00000000E+00
  0.00000000E+00  0.00000000E+00  0.00000000E+00
  0.00000000E+00  0.00000000E+00  0.00000000E+00
  0.00000000E+00  0.00000000E+00  0.00000000E+00
  0.00000000E+00  0.00000000E+00  0.00000000E+00
  0.00000000E+00  0.00000000E+00  0.00000000E+00
  0.00000000E+00  0.00000000E+00  0.00000000E+00
  0.00000000E+00  0.00000000E+00  0.00000000E+00
  0.00000000E+00  0.00000000E+00  0.00000000E+00
  0.00000000E+00  0.00000000E+00  0.00000000E+00
  0.00000000E+00  0.00000000E+00  0.00000000E+00
  0.00000000E+00  0.00000000E+00  0.00000000E+00
  0.00000000E+00  0.00000000E+00  0.00000000E+00
  0.00000000E+00  0.00000000E+00  0.00000000E+00
  0.00000000E+00  0.00000000E+00  0.00000000E+00
  0.00000000E+00  0.00000000E+00  0.00000000E+00
  0.00000000E+00  0.00000000E+00  0.00000000E+00
  0.00000000E+00  0.00000000E+00  0.00000000E+00
  0.00000000E+00  0.00000000E+00  0.00000000E+00
  0.00000000E+00  0.00000000E+00  0.00000000E+00
  0.00000000E+00  0.00000000E+00  0.00000000E+00
  0.00000000E+00  0.00000000E+00  0.00000000E+00
  0.00000000E+00  0.00000000E+00  0.00000000E+00
  0.00000000E+00  0.00000000E+00  0.00000000E+00
  0.00000000E+00  0.00000000E+00  0.00000000E+00
  0.00000000E+00  0.00000000E+00  0.00000000E+00
  0.00000000E+00  0.00000000E+00  0.00000000E+00
  0.00000000E+00  0.00000000E+00  0.00000000E+00
  0.00000000E+00  0.00000000E+00  0.00000000E+00
  0.00000000E+00  0.00000000E+00  0.00000000E+00
  0.00000000E+00  0.00000000E+00  0.00000000E+00
  0.00000000E+00  0.00000000E+00  0.00000000E+00
  0.00000000E+00  0.00000000E+00  0.00000000E+00
  0.00000000E+00  0.00000000E+00  0.00000000E+00
  0.00000000E+00  0.00000000E+00  0.00000000E+00
  0.00000000E+00  0.00000000E+00  0.00000000E+00
  0.00000000E+00  0.00000000E+00  0.00000000E+00
  0.00000000E+00  0.00000000E+00  0.00000000E+00
  0.00000000E+00  0.00000000E+00  0.00000000E+00
  0.00000000E+00  0.00000000E+00  0.00000000E+00
  0.00000000E+00  0.00000000E+00  0.00000000E+00
  0.00000000E+00  0.00000000E+00  0.00000000E+00
  0.00000000E+00  0.00000000E+00  0.00000000E+00
  0.00000000E+00  0.00000000E+00  0.00000000E+00
  0.00000000E+00  0.00000000E+00  0.00000000E+00
  0.00000000E+00  0.00000000E+00  0.00000000E+00
  0.00000000E+00  0.00000000E+00  0.00000000E+00
  0.00000000E+00  0.00000000E+00  0.00000000E+00
  0.00000000E+00  0.00000000E+00  0.00000000E+00
  0.00000000E+00  0.00000000E+00  0.00000000E+00
  0.00000000E+00  0.00000000E+00  0.00000000E+00
  0.00000000E+00  0.00000000E+00  0.00000000E+00
  0.00000000E+00  0.00000000E+00  0.00000000E+00
  0.00000000E+00  0.00000000E+00  0.00000000E+00
  0.00000000E+00  0.00000000E+00  0.00000000E+00
  0.00000000E+00  0.00000000E+00  0.00000000E+00
  0.00000000E+00  0.00000000E+00  0.00000000E+00
  0.00000000E+00  0.00000000E+00  0.00000000E+00
  0.00000000E+00  0.00000000E+00  0.00000000E+00
  0.00000000E+00  0.00000000E+00  0.00000000E+00
  0.00000000E+00  0.00000000E+00  0.00000000E+00
  0.00000000E+00  0.00000000E+00  0.00000000E+00
  0.00000000E+00  0.00000000E+00  0.00000000E+00
  0.00000000E+00  0.00000000E+00  0.00000000E+00
  0.00000000E+00  0.00000000E+00  0.00000000E+00
  0.00000000E+00  0.00000000E+00  0.00000000E+00
  0.00000000E+00  0.00000000E+00  0.00000000E+00
  0.00000000E+00  0.00000000E+00  0.00000000E+00
  0.00000000E+00  0.00000000E+00  0.00000000E+00
  0.00000000E+00  0.00000000E+00  0.00000000E+00
  0.00000000E+00  0.00000000E+00  0.00000000E+00
  0.00000000E+00  0.00000000E+00  0.00000000E+00
  0.00000000E+00  0.00000000E+00  0.00000000E+00
  0.00000000E+00  0.00000000E+00  0.00000000E+00
  0.00000000E+00  0.00000000E+00  0.00000000E+00
  0.00000000E+00  0.00000000E+00  0.00000000E+00
  0.00000000E+00  0.00000000E+00  0.00000000E+00
  0.00000000E+00  0.00000000E+00  0.00000000E+00
  0.00000000E+00  0.00000000E+00  0.00000000E+00
  0.00000000E+00  0.00000000E+00  0.00000000E+00
  0.00000000E+00  0.00000000E+00  0.00000000E+00
  0.00000000E+00  0.00000000E+00  0.00000000E+00
  0.00000000E+00  0.00000000E+00  0.00000000E+00
  0.00000000E+00  0.00000000E+00  0.00000000E+00
  0.00000000E+00  0.00000000E+00  0.00000000E+00
  0.00000000E+00  0.00000000E+00  0.00000000E+00
  0.00000000E+00  0.00000000E+00  0.00000000E+00
  0.00000000E+00  0.00000000E+00  0.00000000E+00
  0.00000000E+00  0.00000000E+00  0.00000000E+00
  0.00000000E+00  0.00000000E+00  0.00000000E+00
  0.00000000E+00  0.00000000E+00  0.00000000E+00
  0.00000000E+00  0.00000000E+00  0.00000000E+00
  0.00000000E+00  0.00000000E+00  0.00000000E+00
  0.00000000E+00  0.00000000E+00  0.00000000E+00
  0.00000000E+00  0.00000000E+00  0.00000000E+00
  0.00000000E+00  0.00000000E+00  0.00000000E+00
  0.00000000E+00  0.00000000E+00  0.00000000E+00
  0.00000000E+00  0.00000000E+00  0.00000000E+00
  0.00000000E+00  0.00000000E+00  0.00000000E+00
  0.00000000E+00  0.00000000E+00  0.00000000E+00
  0.00000000E+00  0.00000000E+00  0.00000000E+00
  0.00000000E+00  0.00000000E+00  0.00000000E+00
  0.00000000E+00  0.00000000E+00  0.00000000E+00
  0.00000000E+00  0.00000000E+00  0.00000000E+00
  0.00000000E+00  0.00000000E+00  0.00000000E+00
  0.00000000E+00  0.00000000E+00  0.00000000E+00
  0.00000000E+00  0.00000000E+00  0.00000000E+00
  0.00000000E+00  0.00000000E+00  0.00000000E+00
  0.00000000E+00  0.00000000E+00  0.00000000E+00
  0.00000000E+00  0.00000000E+00  0.00000000E+00
  0.00000000E+00  0.00000000E+00  0.00000000E+00
  0.00000000E+00  0.00000000E+00  0.00000000E+00
  0.00000000E+00  0.00000000E+00  0.00000000E+00
  0.00000000E+00  0.00000000E+00  0.00000000E+00
  0.00000000E+00  0.00000000E+00  0.00000000E+00
  0.00000000E+00  0.00000000E+00  0.00000000E+00
  0.00000000E+00  0.00000000E+00  0.00000000E+00
  0.00000000E+00  0.00000000E+00  0.00000000E+00
  0.00000000E+00  0.00000000E+00  0.00000000E+00
  0.00000000E+00  0.00000000E+00  0.00000000E+00
  0.00000000E+00  0.00000000E+00  0.00000000E+00
  0.00000000E+00  0.00000000E+00  0.00000000E+00
  0.00000000E+00  0.00000000E+00  0.00000000E+00
  0.00000000E+00  0.00000000E+00  0.00000000E+00
  0.00000000E+00  0.00000000E+00  0.00000000E+00
  0.00000000E+00  0.00000000E+00  0.00000000E+00
  0.00000000E+00  0.00000000E+00  0.00000000E+00
  0.00000000E+00  0.00000000E+00  0.00000000E+00
  0.00000000E+00  0.00000000E+00  0.00000000E+00
  0.00000000E+00  0.00000000E+00  0.00000000E+00
  0.00000000E+00  0.00000000E+00  0.00000000E+00
  0.00000000E+00  0.00000000E+00  0.00000000E+00
  0.00000000E+00  0.00000000E+00  0.00000000E+00
  0.00000000E+00  0.00000000E+00  0.00000000E+00
  0.00000000E+00  0.00000000E+00  0.00000000E+00
  0.00000000E+00  0.00000000E+00  0.00000000E+00
  0.00000000E+00  0.00000000E+00  0.00000000E+00
  0.00000000E+00  0.00000000E+00  0.00000000E+00
  0.00000000E+00  0.00000000E+00  0.00000000E+00
  0.00000000E+00  0.00000000E+00  0.00000000E+00
  0.00000000E+00  0.00000000E+00  0.00000000E+00
  0.00000000E+00  0.00000000E+00  0.00000000E+00
  0.00000000E+00  0.00000000E+00  0.00000000E+00
