TiOF2 2x2x2 config 1788                 
   1.00000000000000     
     7.7804691199149660    0.0013150909900909    0.0017911577289439
     0.0012798951592618    7.6829394435736349    0.0015221704334708
     0.0017367274633077    0.0014712790645926    7.7484605491710727
   Ti   O    F 
     8     8    16
Direct
  0.0002147520473896  0.0003853842079585  0.9752627299066740
  0.9832345203248820  0.9945285546802247  0.4983433263820611
  0.9971026029084971  0.4997927513582032  0.0206780506795072
  0.0007204320246527  0.5177615423091847  0.4957764389050214
  0.4988202825632259  0.9997015660939718  0.0209281783195480
  0.5088921637169486  0.9988544293505969  0.4994853070051207
  0.5220274785300885  0.4997495481414080  0.9989839710784499
  0.4993172243348866  0.4981138438334991  0.5002592986315971
  0.7520629854764816  0.0019701417099785  0.4981123322029459
  0.7485726664212685  0.5000262577507177  0.0001042225794146
  0.0013698049470426  0.7482576230448095  0.4989171461414488
  0.4993878566973390  0.2549424512333537  0.5004765577985817
  0.4998077193759594  0.7428236208303921  0.5005039677849602
  0.9995953007212580  0.0021010162663243  0.7527028486515993
  0.0012797811016158  0.4994020535305345  0.2482361975232108
  0.4990670992680535  0.9992691188804053  0.2427674773121054
  0.2492786034680497  0.9995798119342937  0.9990346646113806
  0.2468287777428341  0.0024696436195609  0.4984278517962675
  0.2527204381331988  0.5001774110626155  0.9981696204698097
  0.2474686954873905  0.4947043516914728  0.5057678027618361
  0.7497949523268432  0.9996398776617319  0.9991786351592022
  0.7526917815914851  0.4933418071763677  0.5067499730257733
  0.0041921520984409  0.2492882169427399  0.9994626554736146
  0.0041622844267801  0.2535896349164872  0.4992025707862828
  0.0039065684086064  0.7509787339532442  0.9991307497719151
  0.4946817565595103  0.2511119348760958  0.9947560593767336
  0.4946493118410373  0.7483036743650668  0.9946384839868678
  0.0013663844487291  0.0033511464626902  0.2389652040792231
  0.0023714425125907  0.4975298320180305  0.7554346769010587
  0.4981074560267140  0.9993243338968918  0.7605381542623124
  0.4926410848565189  0.4994782642615048  0.2429278511929067
  0.4936656396116620  0.4994514219396862  0.7560769954425819
 
  0.00000000E+00  0.00000000E+00  0.00000000E+00
  0.00000000E+00  0.00000000E+00  0.00000000E+00
  0.00000000E+00  0.00000000E+00  0.00000000E+00
  0.00000000E+00  0.00000000E+00  0.00000000E+00
  0.00000000E+00  0.00000000E+00  0.00000000E+00
  0.00000000E+00  0.00000000E+00  0.00000000E+00
  0.00000000E+00  0.00000000E+00  0.00000000E+00
  0.00000000E+00  0.00000000E+00  0.00000000E+00
  0.00000000E+00  0.00000000E+00  0.00000000E+00
  0.00000000E+00  0.00000000E+00  0.00000000E+00
  0.00000000E+00  0.00000000E+00  0.00000000E+00
  0.00000000E+00  0.00000000E+00  0.00000000E+00
  0.00000000E+00  0.00000000E+00  0.00000000E+00
  0.00000000E+00  0.00000000E+00  0.00000000E+00
  0.00000000E+00  0.00000000E+00  0.00000000E+00
  0.00000000E+00  0.00000000E+00  0.00000000E+00
  0.00000000E+00  0.00000000E+00  0.00000000E+00
  0.00000000E+00  0.00000000E+00  0.00000000E+00
  0.00000000E+00  0.00000000E+00  0.00000000E+00
  0.00000000E+00  0.00000000E+00  0.00000000E+00
  0.00000000E+00  0.00000000E+00  0.00000000E+00
  0.00000000E+00  0.00000000E+00  0.00000000E+00
  0.00000000E+00  0.00000000E+00  0.00000000E+00
  0.00000000E+00  0.00000000E+00  0.00000000E+00
  0.00000000E+00  0.00000000E+00  0.00000000E+00
  0.00000000E+00  0.00000000E+00  0.00000000E+00
  0.00000000E+00  0.00000000E+00  0.00000000E+00
  0.00000000E+00  0.00000000E+00  0.00000000E+00
  0.00000000E+00  0.00000000E+00  0.00000000E+00
  0.00000000E+00  0.00000000E+00  0.00000000E+00
  0.00000000E+00  0.00000000E+00  0.00000000E+00
  0.00000000E+00  0.00000000E+00  0.00000000E+00
