TiOF2 2x2x2 config 0015                 
   1.00000000000000     
     7.9320500056784624    0.0000003008604959    0.0000000522302256
     0.0000002910665055    7.7802711648487941    0.0000001767568319
     0.0000000504516884    0.0000001293831647    7.5541497641302353
   Ti   O    F 
     8     8    16
Direct
  0.9999999976594225  0.0000002308669877  0.9875729737675769
  0.0000000025180142  0.0000007309344738  0.5100968578934584
  0.0000000023442155  0.5000002083283093  0.0124270183113424
  0.9999999974810265  0.5000006571810189  0.4899031316413556
  0.4999999980296792  0.0000025453221824  0.0003420102226315
  0.5000000020306388  0.9999595226919453  0.4995177171027265
  0.5000000019510296  0.5000025794653098  0.9996579884760735
  0.4999999979713863  0.4999582656849455  0.5004822662978796
  0.5000000000156959  0.2500169817044124  0.4999999857941901
  0.5000000000190639  0.7500170144872271  0.5000000100634452
  0.0000000011045955  0.0000009525738278  0.7504325968772676
  0.9999999989241246  0.5000006465492604  0.2495673952341022
  0.5000000008027712  0.0000062612259839  0.2434127799764809
  0.5000000010395595  0.0000061841836043  0.7567214456462992
  0.4999999989272723  0.5000059458312194  0.2432785658639673
  0.4999999991911039  0.5000060638650794  0.7565872304956542
  0.2398704490627992  0.0000001554029936  0.0053146262119554
  0.2370102620479031  0.0000018132452198  0.4936083385630496
  0.2398704521073185  0.5000001745106886  0.9946853735311976
  0.2370102599339461  0.5000014454202955  0.5063916488257476
  0.7601295484683135  0.0000002001237789  0.0053146356897784
  0.7629897395608509  0.0000018530277615  0.4936083545418981
  0.7601295503654981  0.5000002192604711  0.9946853830190108
  0.7629897384607105  0.5000014851862389  0.5063916647550002
  0.0000000000115108  0.2500002243483550  0.0000002244607842
  0.0000000000098908  0.2500007802090138  0.4999997918032264
  0.0000000000171738  0.7500002234931102  0.9999997533685701
  0.0000000000045901  0.7500007809480138  0.5000001981883671
  0.4999999999812985  0.2500028744902068  0.9999999665286268
  0.4999999999893916  0.7500028743546210  0.0000000737532204
  0.9999999940534181  0.0000000688223807  0.2486947660933581
  0.0000000059157585  0.5000000362610706  0.7513052270017297
 
  0.00000000E+00  0.00000000E+00  0.00000000E+00
  0.00000000E+00  0.00000000E+00  0.00000000E+00
  0.00000000E+00  0.00000000E+00  0.00000000E+00
  0.00000000E+00  0.00000000E+00  0.00000000E+00
  0.00000000E+00  0.00000000E+00  0.00000000E+00
  0.00000000E+00  0.00000000E+00  0.00000000E+00
  0.00000000E+00  0.00000000E+00  0.00000000E+00
  0.00000000E+00  0.00000000E+00  0.00000000E+00
  0.00000000E+00  0.00000000E+00  0.00000000E+00
  0.00000000E+00  0.00000000E+00  0.00000000E+00
  0.00000000E+00  0.00000000E+00  0.00000000E+00
  0.00000000E+00  0.00000000E+00  0.00000000E+00
  0.00000000E+00  0.00000000E+00  0.00000000E+00
  0.00000000E+00  0.00000000E+00  0.00000000E+00
  0.00000000E+00  0.00000000E+00  0.00000000E+00
  0.00000000E+00  0.00000000E+00  0.00000000E+00
  0.00000000E+00  0.00000000E+00  0.00000000E+00
  0.00000000E+00  0.00000000E+00  0.00000000E+00
  0.00000000E+00  0.00000000E+00  0.00000000E+00
  0.00000000E+00  0.00000000E+00  0.00000000E+00
  0.00000000E+00  0.00000000E+00  0.00000000E+00
  0.00000000E+00  0.00000000E+00  0.00000000E+00
  0.00000000E+00  0.00000000E+00  0.00000000E+00
  0.00000000E+00  0.00000000E+00  0.00000000E+00
  0.00000000E+00  0.00000000E+00  0.00000000E+00
  0.00000000E+00  0.00000000E+00  0.00000000E+00
  0.00000000E+00  0.00000000E+00  0.00000000E+00
  0.00000000E+00  0.00000000E+00  0.00000000E+00
  0.00000000E+00  0.00000000E+00  0.00000000E+00
  0.00000000E+00  0.00000000E+00  0.00000000E+00
  0.00000000E+00  0.00000000E+00  0.00000000E+00
  0.00000000E+00  0.00000000E+00  0.00000000E+00
