config 46                               
   1.00000000000000     
    15.4263309999999993    0.0000000000000000    0.0000000000000000
     0.0000000000000000   15.4263309999999993    0.0000000000000000
     0.0000000000000000    0.0000000000000000   15.4263309999999993
   Li   Ti   O    F 
     1    64    64   128
Direct
  0.6249878435451370  0.8129917911480680  0.3738818238738766
  0.9952230641019219  0.9955674288094369  0.9947033687156949
  0.9988893679694533  0.9918391067725735  0.4936967268050561
  0.0058060619828738  0.4956468260263132  0.9976638171911356
  0.9941347137461257  0.5033623556473801  0.5071824030809032
  0.4942669535768786  0.9943973386577046  0.9995134702005034
  0.5013227079560058  0.0090553882468461  0.5003098775185391
  0.5042233507800987  0.4953732959143453  0.9955510808527961
  0.4921316422495391  0.4994879524245597  0.4948232035299155
  0.0071358135333850  0.0025665377282074  0.2562769217399207
  0.0010631619422269  0.0077124892311274  0.7568810314777943
  0.9932167572669809  0.4945448527791641  0.2515288878170328
  0.9926512660638375  0.4992528155919256  0.7419955620043422
  0.5065867898789258  0.0071951118212808  0.2499039810110543
  0.4925455588912979  0.0050650757893257  0.7521231495261170
  0.4932741720622900  0.4970387104790500  0.2572082951206481
  0.5008213324644167  0.5035884056231371  0.7579594334013093
  0.9955307231392518  0.2576327947342230  0.0012990280640711
  0.9987286863183124  0.2481340729855947  0.4913538624838984
  0.9980393598804823  0.7582257515554234  0.0063230388587288
  0.9980603453393899  0.7568938108973682  0.5061069024810634
  0.4950265962346122  0.2578818963175546  0.0009364142345266
  0.5086768207767126  0.2462831189600344  0.4991178349618419
  0.5070154740725010  0.7564675771810070  0.9976125578561998
  0.5066581630090796  0.7533419681700827  0.5109797710597785
  0.9991598921865282  0.2583582846091264  0.2551693766108784
  0.0064705940950234  0.2425641227782561  0.7473475763853011
  0.0049288300678145  0.7490773188282592  0.2434892530618072
  0.9929779758679231  0.7508943607300039  0.7428735369145717
  0.5086173919534676  0.2421033220218404  0.2515497036966790
  0.5068042400569738  0.2427446036908184  0.7501315073754378
  0.5005890884452204  0.7509933142803915  0.2486530410208943
  0.5017717160144678  0.7415850081777375  0.7449530792744463
  0.2563782276154324  0.9987942089016715  0.0060057044038311
  0.2506001303389355  0.9938821968896320  0.5065605562627596
  0.2436321341818894  0.5080143727987787  0.9975223161572901
  0.2549649944595254  0.4947315458252705  0.5064454695885503
  0.7570704043304131  0.0000773824045213  0.9944348869741430
  0.7501554687365061  0.0065408526743057  0.4944028111690588
  0.7418505792942018  0.5015360082211071  0.0047642913620965
  0.7556335004172823  0.4987978392549891  0.5052919452484704
  0.2449390978751106  0.0021415720921266  0.2437625473674651
  0.2573784314186613  0.9980183501891783  0.7443541513564218
  0.2557687160054469  0.4930161053730523  0.2517596938207017
  0.2469558530314565  0.5062167324332135  0.7409283060846390
  0.7452083353721428  0.9990341418497810  0.2557813949830942
  0.7480357029546522  0.0060629464867143  0.7568200662211255
  0.7556726248135327  0.5003754391780810  0.2427953339387857
  0.7571371836648314  0.4987917956475926  0.7424583254072006
  0.2573289579181181  0.2515476624369586  0.0058858019295406
  0.2537179007786765  0.2569523203313173  0.5054336435035474
  0.2520000118650979  0.7427445021312820  0.9934649328049117
  0.2523759586730241  0.7555845564855275  0.4928044266443158
  0.7573480005089206  0.2505390204447867  0.0070004955767978
  0.7423548846114555  0.2427547367551904  0.4972835907400297
  0.7420333107363009  0.7503352925828789  0.9924059924110755
  0.7442180649682907  0.7535604045469898  0.4951215009686364
  0.2516651914992658  0.2578954548652077  0.2436315361194123
  0.2440273208005907  0.2516409382882023  0.7436503776511303
  0.2411461465036404  0.7486739278251935  0.2560468440481928
  0.2482320270383752  0.7418904307289086  0.7565426146073170
  0.7423817159189200  0.2507577913325643  0.2425009728954386
  0.7441963609339308  0.2421026861378757  0.7510755525849041
  0.7439197414547856  0.7517045536720324  0.2540575288911033
  0.7577181748091640  0.7515141388200066  0.7562349307400084
  0.0076535237947746  0.5023320633096963  0.6246392019151069
  0.9964134569885282  0.0054582088023248  0.3765212834130726
  0.9995063248075924  0.0022187559325615  0.8730122302636614
  0.4996493633324540  0.4914504051754695  0.3758681331090504
  0.4943694803591034  0.4961187989559487  0.8739199384792523
  1.0004559948828671  0.7464407826268273  0.1261083409234116
  0.0046446406405709  0.7458479239136215  0.6240155920479582
  0.5073304705779029  0.7528227071374203  0.6257277103343880
  0.9947502626031970  0.2472312348469511  0.3766074128832290
  0.2548679070317454  0.0029119307342302  0.1255091791034081
  0.2547655013410948  0.0037294892163320  0.6252938161299345
  0.2392150632319459  0.4956375408292524  0.6255659006287491
  0.7506204723657603  0.4984797551505721  0.1256119705553306
  0.7457952078919806  0.4992346811326442  0.6238956448244496
  0.7493897535719402  0.9896122298761000  0.3767153398376312
  0.7463302540302691  0.9942702118489962  0.8739042560828788
  0.2463237428887883  0.2499295439182279  0.1256300674713918
  0.2527748607188203  0.2493997062488703  0.6250680593410417
  0.7434314630001491  0.2522776104896700  0.1262362704865390
  0.2559880532745749  0.7466074102531297  0.3749567358128996
  0.2546608670347412  0.7526298929931808  0.8748939339620020
  0.7507217236181208  0.7653686505543188  0.3759137700573112
  0.7543141176670168  0.7572379348262774  0.8746436924416039
  0.1243706038631619  0.5044182314049913  0.9947519763041351
  0.6258299561447764  0.5082390515696902  0.9977417127803733
  0.1253869999109276 -0.0010991610883945  0.2518542298434912
  0.6258458401150904  0.9936621076135999  0.2510626815461077
  0.6245630831561407  0.2612078106697909  0.4949734627618501
  0.6250097246395083  0.7422521930962784 -0.0052088698120843
  0.6253754849562854  0.7711185180975315  0.4919965762688950
  0.1246136016495108  0.2516155294411889  0.7490513591747149
  0.1235403075198208  0.7561948230776450  0.2550384228654011
  0.6258653885342590  0.2518381844159469  0.2617263144765343
  0.6256080659842664  0.2524436069851231  0.7471620727774138
  0.6269412142202487  0.7657416920212753  0.2582867424933326
  0.3757882942038769 -0.0002464430888793  0.9926607303456685
  0.3755501854132547  0.5093627807602408  0.5041326306273662
  0.8728956832204887  0.0013258124768047  0.0008827015683631
  0.8751093752652974  0.5072242557477118  0.4992762120106060
  0.3758380549605191  0.9968036252086985  0.7568842875896130
  0.3739212522584806  0.5007848723269243  0.2490276840290648
  0.8754677034835200  0.5034033472870854  0.2526665080169280
  0.8751006191824560  0.5071964732052745  0.7465547021929069
  0.3758014075741296  0.2486022707048563  0.0031139896153809
  0.8743666876992270  0.2488309040577338  0.0043358050665554
  0.8747419880559205  0.7450595345400445  0.7441492175378287
  0.5145814306061001  0.1229994901857356  0.4957570277102074
  0.9962288696859124  0.1260767976948355  0.7442598957870163
  0.5017644386939515  0.1249136524063396  0.2629881361862006
  0.5013265140860349  0.1236706357022530  0.7473793562672548
  0.5012516324776471  0.6251675134927951  0.7499468767014055
  1.0008328728675167  0.3753834385022496  0.0041514403650229
  0.0024335032667593  0.8751180492486410  0.0013318408653891
  0.9896030350626368  0.8748425201948579  0.4991792850845008
  0.5035227129621865  0.3739576369004420  0.0062814421253809
  0.5046841453828926  0.8758031418146436  1.0024485330534032
  0.0014372288282553  0.3741965406926732  0.2474027393987780
  0.2555841472973807  0.6254456758621642  0.0018573574857992
  0.7370516861438978  0.1245806440293707  0.4973236594094307
  0.2481494602914956  0.6246965564298164  0.7498683388218933
  0.7515080355771918  0.1245139232790432  0.7488392108215201
  0.2564915480418198  0.3733721668014081  0.4938394007151727
  0.2579265675117794  0.8758622515021902  0.4999056537917886
  0.2463043141548290  0.3748097299164045  0.2563528913664719
 -0.0006134156018194  0.0023651806056914  0.1271353688135128
  0.0026071175817118  0.9982651159851200  0.6236336825364002
  1.0002765010303583  0.5085468493934422  0.1252022745618558
  0.4954831840412360  0.0096844921803174  0.1258235437594183
  0.4977017271875554  0.9965668419326148  0.6233577694476073
  0.5023841508699216  0.5054875311361042  0.1265807157447068
  0.5077837889748799  0.5001639138854491  0.6243908899957735
  0.0032454284241279  0.4963643542839786  0.3762386248496090
  0.9953419636313874  0.4981930609829716  0.8728689740939329
  0.5047819928416681  0.9882090968459364  0.3777004726771304
  0.5149560018355681  0.0005873885287150  0.8748727315916986
  0.0067504222635633  0.2456527621040794  0.1272850221169183
  0.9987971893394992  0.2575726269866953  0.6213469340802018
  0.5082323592015315  0.2388412081879396  0.1267253045529586
  0.4961258609881204  0.2476730054764515  0.6228384618230313
  0.5017956848692395  0.7424685154036486  0.1205859176226217
  0.9960771469070181  0.2508979263753465  0.8741553240967211
  0.9917657190321691  0.7500209689641963  0.3759030379590661
 -0.0028414076466535  0.7508871583136496  0.8738006471661136
  0.4909867833992787  0.2618194963128984  0.3761895589464370
  0.5006156987542467  0.2515544084358038  0.8743891104640453
  0.4999602502608181  0.7639917694993432  0.3799556805318450
  0.4909074183240519  0.7532853719277423  0.8729226900459079
  0.2448671497727395  0.4948691078082331  0.1246640379224674
  0.7491313287482890  0.0089075652983643  0.1269826606929610
  0.7458033489925792  0.0006973459541544  0.6229279370807470
  0.2521719509611902  0.0013753255698156  0.3759108886126734
  0.2428049444561520  0.9954257373727885  0.8744189246687265
  0.2469254784117378  0.5113015648103588  0.3753732959956141
  0.2586478273087241  0.4978137217568773  0.8734659175408329
  0.7461298166447341  0.5014093625589039  0.3750577589810184
  0.7524084837691342  0.5019837039007595  0.8737857567191086
  0.2477653722267920  0.7547726571564455  0.1250968637876092
  0.2460992610199745  0.7512464045075715  0.6247099996962174
  0.7519001167972116  0.2550653460123264  0.6227396871495398
  0.7484099649116540  0.7433306774499298  0.1255532438973261
  0.7421084584473118  0.7448285687150056  0.6243541964292009
  0.2530399003202092  0.2436014968019083  0.3747180746028321
  0.2516153432920253  0.2509878487496963  0.8750991122501182
  0.7622490223444504  0.2497707871473019  0.3744106283553069
  0.7518113805843992  0.2501889719896011  0.8758210493927679
  0.1258114204679599  0.0030194262287543  0.0025769983641102
  0.1247502930897730 -0.0026663536789917  0.4995476775277880
  0.1233125256176484  0.4954759371013741  0.4925476516781625
  0.6253904528096670  0.0026238313198120  0.0075144278022448
  0.6237707629234557  0.9784805339256593  0.5018560683046109
  0.6255162781991869  0.4904630947296401  0.4978847199420923
  0.1265111428757316 -0.0000542299707425  0.7467294481672694
  0.1236927961884669  0.5035144953740773  0.2494098111553207
  0.1231179277400599  0.4937655975452675  0.7622674826978194
  0.6235742158302466  0.9947713056621535  0.7415819669080101
  0.6259111841409916  0.4923353462242366  0.2502647814782648
  0.6265033237593289  0.4932674349848607  0.7549421563341684
  0.1249331545755577  0.2491261537437472  0.9950250814511231
  0.1236526721847673  0.2520856380077385  0.4985647016319228
  0.1247269993754266  0.7448367357572703 -0.0028270703102094
  0.1244054252261569  0.7561356265342312  0.4935443332193926
  0.6262858870233116  0.2482442892727927  0.9947395790741499
  0.1244825817786616  0.2421285119487975  0.2565571178982479
  0.1233041756517925  0.7538987328060158  0.7540947262352601
  0.6259955266138351  0.7540062087568228  0.7567410978267317
  0.3778757536628556  0.0131475413104084  0.4954029464227744
  0.3733598836801207  0.4953546833016327  0.0068485547960332
  0.8743545694615438  0.0140912087497005  0.5073077795038679
  0.8746646765399970  0.4978124154143670  0.9990333893875546
  0.3768965968434193  0.0027784507640403  0.2569585400510579
  0.3745494650783083  0.4979122460883947  0.7406057017454792
  0.8740391429871767  0.0052072415254072  0.2485099486597850
  0.8739433897790428  0.9931648988078817  0.7426666571297079
  0.3791470177404253  0.2373230189919237  0.4984230228889421
  0.3760600605239456  0.7574878154294866  1.0049942200278377
  0.3782739293327102  0.7395446422567277  0.5048836301562618
  0.8740662291560514  0.2428267405541625  0.5049721227989540
  0.8720948192926209  0.7552755734943796  1.0034750125205489
  0.8723945362980638  0.7368184222898997  0.5061155674169718
  0.3781512424196418  0.2515800713101012  0.2471201304015925
  0.3762486681550002  0.2495222834890634  0.7522142964219829
  0.3733259704717622  0.7441493813306613  0.2450986310921152
  0.3749638825967234  0.7547139730235859  0.7431336387641446
  0.8741617466609828  0.2485473305446293  0.2450174044590707
  0.8742044370753831  0.2542593756664062  0.7472402630164340
  0.8734021225743086  0.7423969129491782  0.2493477744703062
  0.0029173405057187  0.1269603246445177  0.0012032203199597
  1.0048136544561028  0.1255862039562224  0.5085478279811076
  0.9931867365202606  0.6257100895230605  0.9948041915243078
  0.0075180488455608  0.6267586187313767  0.4925856887319380
  0.5040285786827305  0.1247932721030581  0.9962247445423382
  0.4895640113674774  0.6267110502171465  0.9956067729639094
  0.5135232295910636  0.6275849734107497  0.4961554856905249
  0.9972330528397567  0.1275574082982055  0.2469797750650445
  0.0030164989704758  0.6238078812782811  0.2572293514695589
  0.0097785937193997  0.6247686517841684  0.7556501289348543
  0.5088473659729362  0.6213327114881514  0.2563867060025415
 -0.0047533081373251  0.3739952698973649  0.4987958620189764
  0.4889027978650696  0.3718807360060074  0.5077827884574417
  0.4838739683131436  0.8790275885758835  0.5029410859444515
  0.9957809890996459  0.3745918172369415  0.7504779642612647
  0.9900788717375025  0.8761396593453648  0.2516025434530451
  0.0002354213337453  0.8757800313488524  0.7471706279318074
  0.4986262243942069  0.3711177822575955  0.2403493290373998
  0.4966734218466143  0.3729616435411348  0.7440922003442821
  0.4905964468638397  0.8812573175556547  0.2441874598615172
  0.5021769585007314  0.8753845126849648  0.7522502256305911
  0.2465668992255780  0.1249429120743324  0.9936232774590855
  0.2445606842612048  0.1244179330064299  0.4968815881555226
  0.2420332313414222  0.6269194270306894  0.5046175673296077
  0.7447153025535868  0.1259382713954056  0.9969890465615325
  0.7616753690297099  0.6262575170098449 -0.0019694712952869
  0.7378319157144447  0.6270477963022713  0.4951565358945839
  0.2545200937032724  0.1265876460506366  0.2536442142625079
  0.2507154322173386  0.1245427585571980  0.7573771700504279
  0.2455878483937039  0.6241568497213372  0.2415899309972433
  0.7518211224376314  0.1253448650916400  0.2565896424427342
  0.7410403567445470  0.6261659855673540  0.2552406833138176
  0.7398262878527394  0.6254486836606202  0.7512767962475286
  0.2478683973502669  0.3762150547932268  0.9974060407200533
  0.2442757146697994  0.8741931611880037  0.0024761477009735
  0.7471268787189712  0.3752984552089690  0.9934992894755011
  0.7597858891528151  0.3725389429782683  0.4954270271881937
  0.7446551732861673  0.8749878763033777  0.0129626971069079
  0.7676128807949900  0.8766367475075176  0.5118959225030991
  0.2537522985634943  0.3759796897903977  0.7559356738288429
  0.2579228605786141  0.8756820415536971  0.2516375170682302
  0.2465773557177461  0.8736405894749952  0.7463494242322980
  0.7553685195738488  0.3743737940851473  0.2579071362284538
  0.7542301598356059  0.3740008478363122  0.7526313793520263
  0.7640830208368650  0.8758916536789428  0.2356918468867621
  0.7498190226372081  0.8752926052052777  0.7394053985407820
 
  0.00000000E+00  0.00000000E+00  0.00000000E+00
  0.00000000E+00  0.00000000E+00  0.00000000E+00
  0.00000000E+00  0.00000000E+00  0.00000000E+00
  0.00000000E+00  0.00000000E+00  0.00000000E+00
  0.00000000E+00  0.00000000E+00  0.00000000E+00
  0.00000000E+00  0.00000000E+00  0.00000000E+00
  0.00000000E+00  0.00000000E+00  0.00000000E+00
  0.00000000E+00  0.00000000E+00  0.00000000E+00
  0.00000000E+00  0.00000000E+00  0.00000000E+00
  0.00000000E+00  0.00000000E+00  0.00000000E+00
  0.00000000E+00  0.00000000E+00  0.00000000E+00
  0.00000000E+00  0.00000000E+00  0.00000000E+00
  0.00000000E+00  0.00000000E+00  0.00000000E+00
  0.00000000E+00  0.00000000E+00  0.00000000E+00
  0.00000000E+00  0.00000000E+00  0.00000000E+00
  0.00000000E+00  0.00000000E+00  0.00000000E+00
  0.00000000E+00  0.00000000E+00  0.00000000E+00
  0.00000000E+00  0.00000000E+00  0.00000000E+00
  0.00000000E+00  0.00000000E+00  0.00000000E+00
  0.00000000E+00  0.00000000E+00  0.00000000E+00
  0.00000000E+00  0.00000000E+00  0.00000000E+00
  0.00000000E+00  0.00000000E+00  0.00000000E+00
  0.00000000E+00  0.00000000E+00  0.00000000E+00
  0.00000000E+00  0.00000000E+00  0.00000000E+00
  0.00000000E+00  0.00000000E+00  0.00000000E+00
  0.00000000E+00  0.00000000E+00  0.00000000E+00
  0.00000000E+00  0.00000000E+00  0.00000000E+00
  0.00000000E+00  0.00000000E+00  0.00000000E+00
  0.00000000E+00  0.00000000E+00  0.00000000E+00
  0.00000000E+00  0.00000000E+00  0.00000000E+00
  0.00000000E+00  0.00000000E+00  0.00000000E+00
  0.00000000E+00  0.00000000E+00  0.00000000E+00
  0.00000000E+00  0.00000000E+00  0.00000000E+00
  0.00000000E+00  0.00000000E+00  0.00000000E+00
  0.00000000E+00  0.00000000E+00  0.00000000E+00
  0.00000000E+00  0.00000000E+00  0.00000000E+00
  0.00000000E+00  0.00000000E+00  0.00000000E+00
  0.00000000E+00  0.00000000E+00  0.00000000E+00
  0.00000000E+00  0.00000000E+00  0.00000000E+00
  0.00000000E+00  0.00000000E+00  0.00000000E+00
  0.00000000E+00  0.00000000E+00  0.00000000E+00
  0.00000000E+00  0.00000000E+00  0.00000000E+00
  0.00000000E+00  0.00000000E+00  0.00000000E+00
  0.00000000E+00  0.00000000E+00  0.00000000E+00
  0.00000000E+00  0.00000000E+00  0.00000000E+00
  0.00000000E+00  0.00000000E+00  0.00000000E+00
  0.00000000E+00  0.00000000E+00  0.00000000E+00
  0.00000000E+00  0.00000000E+00  0.00000000E+00
  0.00000000E+00  0.00000000E+00  0.00000000E+00
  0.00000000E+00  0.00000000E+00  0.00000000E+00
  0.00000000E+00  0.00000000E+00  0.00000000E+00
  0.00000000E+00  0.00000000E+00  0.00000000E+00
  0.00000000E+00  0.00000000E+00  0.00000000E+00
  0.00000000E+00  0.00000000E+00  0.00000000E+00
  0.00000000E+00  0.00000000E+00  0.00000000E+00
  0.00000000E+00  0.00000000E+00  0.00000000E+00
  0.00000000E+00  0.00000000E+00  0.00000000E+00
  0.00000000E+00  0.00000000E+00  0.00000000E+00
  0.00000000E+00  0.00000000E+00  0.00000000E+00
  0.00000000E+00  0.00000000E+00  0.00000000E+00
  0.00000000E+00  0.00000000E+00  0.00000000E+00
  0.00000000E+00  0.00000000E+00  0.00000000E+00
  0.00000000E+00  0.00000000E+00  0.00000000E+00
  0.00000000E+00  0.00000000E+00  0.00000000E+00
  0.00000000E+00  0.00000000E+00  0.00000000E+00
  0.00000000E+00  0.00000000E+00  0.00000000E+00
  0.00000000E+00  0.00000000E+00  0.00000000E+00
  0.00000000E+00  0.00000000E+00  0.00000000E+00
  0.00000000E+00  0.00000000E+00  0.00000000E+00
  0.00000000E+00  0.00000000E+00  0.00000000E+00
  0.00000000E+00  0.00000000E+00  0.00000000E+00
  0.00000000E+00  0.00000000E+00  0.00000000E+00
  0.00000000E+00  0.00000000E+00  0.00000000E+00
  0.00000000E+00  0.00000000E+00  0.00000000E+00
  0.00000000E+00  0.00000000E+00  0.00000000E+00
  0.00000000E+00  0.00000000E+00  0.00000000E+00
  0.00000000E+00  0.00000000E+00  0.00000000E+00
  0.00000000E+00  0.00000000E+00  0.00000000E+00
  0.00000000E+00  0.00000000E+00  0.00000000E+00
  0.00000000E+00  0.00000000E+00  0.00000000E+00
  0.00000000E+00  0.00000000E+00  0.00000000E+00
  0.00000000E+00  0.00000000E+00  0.00000000E+00
  0.00000000E+00  0.00000000E+00  0.00000000E+00
  0.00000000E+00  0.00000000E+00  0.00000000E+00
  0.00000000E+00  0.00000000E+00  0.00000000E+00
  0.00000000E+00  0.00000000E+00  0.00000000E+00
  0.00000000E+00  0.00000000E+00  0.00000000E+00
  0.00000000E+00  0.00000000E+00  0.00000000E+00
  0.00000000E+00  0.00000000E+00  0.00000000E+00
  0.00000000E+00  0.00000000E+00  0.00000000E+00
  0.00000000E+00  0.00000000E+00  0.00000000E+00
  0.00000000E+00  0.00000000E+00  0.00000000E+00
  0.00000000E+00  0.00000000E+00  0.00000000E+00
  0.00000000E+00  0.00000000E+00  0.00000000E+00
  0.00000000E+00  0.00000000E+00  0.00000000E+00
  0.00000000E+00  0.00000000E+00  0.00000000E+00
  0.00000000E+00  0.00000000E+00  0.00000000E+00
  0.00000000E+00  0.00000000E+00  0.00000000E+00
  0.00000000E+00  0.00000000E+00  0.00000000E+00
  0.00000000E+00  0.00000000E+00  0.00000000E+00
  0.00000000E+00  0.00000000E+00  0.00000000E+00
  0.00000000E+00  0.00000000E+00  0.00000000E+00
  0.00000000E+00  0.00000000E+00  0.00000000E+00
  0.00000000E+00  0.00000000E+00  0.00000000E+00
  0.00000000E+00  0.00000000E+00  0.00000000E+00
  0.00000000E+00  0.00000000E+00  0.00000000E+00
  0.00000000E+00  0.00000000E+00  0.00000000E+00
  0.00000000E+00  0.00000000E+00  0.00000000E+00
  0.00000000E+00  0.00000000E+00  0.00000000E+00
  0.00000000E+00  0.00000000E+00  0.00000000E+00
  0.00000000E+00  0.00000000E+00  0.00000000E+00
  0.00000000E+00  0.00000000E+00  0.00000000E+00
  0.00000000E+00  0.00000000E+00  0.00000000E+00
  0.00000000E+00  0.00000000E+00  0.00000000E+00
  0.00000000E+00  0.00000000E+00  0.00000000E+00
  0.00000000E+00  0.00000000E+00  0.00000000E+00
  0.00000000E+00  0.00000000E+00  0.00000000E+00
  0.00000000E+00  0.00000000E+00  0.00000000E+00
  0.00000000E+00  0.00000000E+00  0.00000000E+00
  0.00000000E+00  0.00000000E+00  0.00000000E+00
  0.00000000E+00  0.00000000E+00  0.00000000E+00
  0.00000000E+00  0.00000000E+00  0.00000000E+00
  0.00000000E+00  0.00000000E+00  0.00000000E+00
  0.00000000E+00  0.00000000E+00  0.00000000E+00
  0.00000000E+00  0.00000000E+00  0.00000000E+00
  0.00000000E+00  0.00000000E+00  0.00000000E+00
  0.00000000E+00  0.00000000E+00  0.00000000E+00
  0.00000000E+00  0.00000000E+00  0.00000000E+00
  0.00000000E+00  0.00000000E+00  0.00000000E+00
  0.00000000E+00  0.00000000E+00  0.00000000E+00
  0.00000000E+00  0.00000000E+00  0.00000000E+00
  0.00000000E+00  0.00000000E+00  0.00000000E+00
  0.00000000E+00  0.00000000E+00  0.00000000E+00
  0.00000000E+00  0.00000000E+00  0.00000000E+00
  0.00000000E+00  0.00000000E+00  0.00000000E+00
  0.00000000E+00  0.00000000E+00  0.00000000E+00
  0.00000000E+00  0.00000000E+00  0.00000000E+00
  0.00000000E+00  0.00000000E+00  0.00000000E+00
  0.00000000E+00  0.00000000E+00  0.00000000E+00
  0.00000000E+00  0.00000000E+00  0.00000000E+00
  0.00000000E+00  0.00000000E+00  0.00000000E+00
  0.00000000E+00  0.00000000E+00  0.00000000E+00
  0.00000000E+00  0.00000000E+00  0.00000000E+00
  0.00000000E+00  0.00000000E+00  0.00000000E+00
  0.00000000E+00  0.00000000E+00  0.00000000E+00
  0.00000000E+00  0.00000000E+00  0.00000000E+00
  0.00000000E+00  0.00000000E+00  0.00000000E+00
  0.00000000E+00  0.00000000E+00  0.00000000E+00
  0.00000000E+00  0.00000000E+00  0.00000000E+00
  0.00000000E+00  0.00000000E+00  0.00000000E+00
  0.00000000E+00  0.00000000E+00  0.00000000E+00
  0.00000000E+00  0.00000000E+00  0.00000000E+00
  0.00000000E+00  0.00000000E+00  0.00000000E+00
  0.00000000E+00  0.00000000E+00  0.00000000E+00
  0.00000000E+00  0.00000000E+00  0.00000000E+00
  0.00000000E+00  0.00000000E+00  0.00000000E+00
  0.00000000E+00  0.00000000E+00  0.00000000E+00
  0.00000000E+00  0.00000000E+00  0.00000000E+00
  0.00000000E+00  0.00000000E+00  0.00000000E+00
  0.00000000E+00  0.00000000E+00  0.00000000E+00
  0.00000000E+00  0.00000000E+00  0.00000000E+00
  0.00000000E+00  0.00000000E+00  0.00000000E+00
  0.00000000E+00  0.00000000E+00  0.00000000E+00
  0.00000000E+00  0.00000000E+00  0.00000000E+00
  0.00000000E+00  0.00000000E+00  0.00000000E+00
  0.00000000E+00  0.00000000E+00  0.00000000E+00
  0.00000000E+00  0.00000000E+00  0.00000000E+00
  0.00000000E+00  0.00000000E+00  0.00000000E+00
  0.00000000E+00  0.00000000E+00  0.00000000E+00
  0.00000000E+00  0.00000000E+00  0.00000000E+00
  0.00000000E+00  0.00000000E+00  0.00000000E+00
  0.00000000E+00  0.00000000E+00  0.00000000E+00
  0.00000000E+00  0.00000000E+00  0.00000000E+00
  0.00000000E+00  0.00000000E+00  0.00000000E+00
  0.00000000E+00  0.00000000E+00  0.00000000E+00
  0.00000000E+00  0.00000000E+00  0.00000000E+00
  0.00000000E+00  0.00000000E+00  0.00000000E+00
  0.00000000E+00  0.00000000E+00  0.00000000E+00
  0.00000000E+00  0.00000000E+00  0.00000000E+00
  0.00000000E+00  0.00000000E+00  0.00000000E+00
  0.00000000E+00  0.00000000E+00  0.00000000E+00
  0.00000000E+00  0.00000000E+00  0.00000000E+00
  0.00000000E+00  0.00000000E+00  0.00000000E+00
  0.00000000E+00  0.00000000E+00  0.00000000E+00
  0.00000000E+00  0.00000000E+00  0.00000000E+00
  0.00000000E+00  0.00000000E+00  0.00000000E+00
  0.00000000E+00  0.00000000E+00  0.00000000E+00
  0.00000000E+00  0.00000000E+00  0.00000000E+00
  0.00000000E+00  0.00000000E+00  0.00000000E+00
  0.00000000E+00  0.00000000E+00  0.00000000E+00
  0.00000000E+00  0.00000000E+00  0.00000000E+00
  0.00000000E+00  0.00000000E+00  0.00000000E+00
  0.00000000E+00  0.00000000E+00  0.00000000E+00
  0.00000000E+00  0.00000000E+00  0.00000000E+00
  0.00000000E+00  0.00000000E+00  0.00000000E+00
  0.00000000E+00  0.00000000E+00  0.00000000E+00
  0.00000000E+00  0.00000000E+00  0.00000000E+00
  0.00000000E+00  0.00000000E+00  0.00000000E+00
  0.00000000E+00  0.00000000E+00  0.00000000E+00
  0.00000000E+00  0.00000000E+00  0.00000000E+00
  0.00000000E+00  0.00000000E+00  0.00000000E+00
  0.00000000E+00  0.00000000E+00  0.00000000E+00
  0.00000000E+00  0.00000000E+00  0.00000000E+00
  0.00000000E+00  0.00000000E+00  0.00000000E+00
  0.00000000E+00  0.00000000E+00  0.00000000E+00
  0.00000000E+00  0.00000000E+00  0.00000000E+00
  0.00000000E+00  0.00000000E+00  0.00000000E+00
  0.00000000E+00  0.00000000E+00  0.00000000E+00
  0.00000000E+00  0.00000000E+00  0.00000000E+00
  0.00000000E+00  0.00000000E+00  0.00000000E+00
  0.00000000E+00  0.00000000E+00  0.00000000E+00
  0.00000000E+00  0.00000000E+00  0.00000000E+00
  0.00000000E+00  0.00000000E+00  0.00000000E+00
  0.00000000E+00  0.00000000E+00  0.00000000E+00
  0.00000000E+00  0.00000000E+00  0.00000000E+00
  0.00000000E+00  0.00000000E+00  0.00000000E+00
  0.00000000E+00  0.00000000E+00  0.00000000E+00
  0.00000000E+00  0.00000000E+00  0.00000000E+00
  0.00000000E+00  0.00000000E+00  0.00000000E+00
  0.00000000E+00  0.00000000E+00  0.00000000E+00
  0.00000000E+00  0.00000000E+00  0.00000000E+00
  0.00000000E+00  0.00000000E+00  0.00000000E+00
  0.00000000E+00  0.00000000E+00  0.00000000E+00
  0.00000000E+00  0.00000000E+00  0.00000000E+00
  0.00000000E+00  0.00000000E+00  0.00000000E+00
  0.00000000E+00  0.00000000E+00  0.00000000E+00
  0.00000000E+00  0.00000000E+00  0.00000000E+00
  0.00000000E+00  0.00000000E+00  0.00000000E+00
  0.00000000E+00  0.00000000E+00  0.00000000E+00
  0.00000000E+00  0.00000000E+00  0.00000000E+00
  0.00000000E+00  0.00000000E+00  0.00000000E+00
  0.00000000E+00  0.00000000E+00  0.00000000E+00
  0.00000000E+00  0.00000000E+00  0.00000000E+00
  0.00000000E+00  0.00000000E+00  0.00000000E+00
  0.00000000E+00  0.00000000E+00  0.00000000E+00
  0.00000000E+00  0.00000000E+00  0.00000000E+00
  0.00000000E+00  0.00000000E+00  0.00000000E+00
  0.00000000E+00  0.00000000E+00  0.00000000E+00
  0.00000000E+00  0.00000000E+00  0.00000000E+00
  0.00000000E+00  0.00000000E+00  0.00000000E+00
  0.00000000E+00  0.00000000E+00  0.00000000E+00
  0.00000000E+00  0.00000000E+00  0.00000000E+00
  0.00000000E+00  0.00000000E+00  0.00000000E+00
  0.00000000E+00  0.00000000E+00  0.00000000E+00
  0.00000000E+00  0.00000000E+00  0.00000000E+00
  0.00000000E+00  0.00000000E+00  0.00000000E+00
  0.00000000E+00  0.00000000E+00  0.00000000E+00
  0.00000000E+00  0.00000000E+00  0.00000000E+00
  0.00000000E+00  0.00000000E+00  0.00000000E+00
  0.00000000E+00  0.00000000E+00  0.00000000E+00
  0.00000000E+00  0.00000000E+00  0.00000000E+00
  0.00000000E+00  0.00000000E+00  0.00000000E+00
  0.00000000E+00  0.00000000E+00  0.00000000E+00
  0.00000000E+00  0.00000000E+00  0.00000000E+00
  0.00000000E+00  0.00000000E+00  0.00000000E+00
  0.00000000E+00  0.00000000E+00  0.00000000E+00
  0.00000000E+00  0.00000000E+00  0.00000000E+00
