TiOF2 2x2x2 config 0002                 
   1.00000000000000     
     7.8920128959480431   -0.0001093061482045   -0.0000413501080187
    -0.0001084838749404    7.8273497246426791   -0.0029237346686333
    -0.0000390137107536   -0.0028686630953918    7.4640367506488712
   Ti   O    F 
     8     8    16
Direct
 -0.0000002163821632  0.0014666575198606 -0.0086293254431838
 -0.0000019752239908  0.9998433873082143  0.4903588474371083
  0.0000011471589896  0.5015440101683557 -0.0083272799480362
 -0.0000032260035226  0.4993989205554298  0.4914435440617668
  0.5000009227047330 -0.0000052472907319  0.9856580787810769
  0.4999975240600198  0.9767027485273357  0.5022311311801820
  0.5000014978637127  0.5026999847254681  0.9949737056300292
  0.4999959303318782  0.5029361332642012  0.4921304729548149
  0.4999950274230835  0.7520038439043421  0.4734963316585102
 -0.0000008918082138 -0.0006178410182073  0.2502649459721225
 -0.0000018157028543  0.0010856253907098  0.7517951933328522
 -0.0000048078722207  0.5015878634515032  0.2513271290020848
  0.0000021792215499  0.5000227044194853  0.7521687424398944
  0.5000010764426522 -0.0269627504562821  0.7542015869244497
  0.4999974023940095  0.4755001827714389  0.2489574023095543
  0.5000077686922120  0.5211257662226131  0.7550827031745668
  0.2530432079819351  0.0015567778939564  0.0061186205755237
  0.2507076910578268  0.0009467075311603  0.4978098916740622
  0.2494915638959720  0.5034056659320829  0.0034274640172580
  0.2484147922176823  0.4963339559846281  0.5035650863044226
  0.7469604579630398  0.0016874578667219  0.0061169458160171
  0.7492922755058219  0.0009445120023945  0.4978024424170268
  0.7505061006249347  0.5032423878536060  0.0034211805778887
  0.7515912580439846  0.4963404758139600  0.5035597362586585
  0.0000757214199678  0.2503156695919877  0.0043589487766079
 -0.0000036500408655  0.2487057157568933  0.5027499709496261
  0.9999220884170191  0.7524568894392265  0.0025331599422253
  0.0000087478809812  0.7507573035990663  0.5045793145962721
  0.4999344741740230  0.2470620968699767 -0.0246395992328953
  0.5000078175793466  0.2447171788052836  0.5248615530885656
  0.5000609796889190  0.7567810066498764  0.0388790237440502
  0.4999989302896160  0.0364142089454448  0.2477230510269745
 
  0.00000000E+00  0.00000000E+00  0.00000000E+00
  0.00000000E+00  0.00000000E+00  0.00000000E+00
  0.00000000E+00  0.00000000E+00  0.00000000E+00
  0.00000000E+00  0.00000000E+00  0.00000000E+00
  0.00000000E+00  0.00000000E+00  0.00000000E+00
  0.00000000E+00  0.00000000E+00  0.00000000E+00
  0.00000000E+00  0.00000000E+00  0.00000000E+00
  0.00000000E+00  0.00000000E+00  0.00000000E+00
  0.00000000E+00  0.00000000E+00  0.00000000E+00
  0.00000000E+00  0.00000000E+00  0.00000000E+00
  0.00000000E+00  0.00000000E+00  0.00000000E+00
  0.00000000E+00  0.00000000E+00  0.00000000E+00
  0.00000000E+00  0.00000000E+00  0.00000000E+00
  0.00000000E+00  0.00000000E+00  0.00000000E+00
  0.00000000E+00  0.00000000E+00  0.00000000E+00
  0.00000000E+00  0.00000000E+00  0.00000000E+00
  0.00000000E+00  0.00000000E+00  0.00000000E+00
  0.00000000E+00  0.00000000E+00  0.00000000E+00
  0.00000000E+00  0.00000000E+00  0.00000000E+00
  0.00000000E+00  0.00000000E+00  0.00000000E+00
  0.00000000E+00  0.00000000E+00  0.00000000E+00
  0.00000000E+00  0.00000000E+00  0.00000000E+00
  0.00000000E+00  0.00000000E+00  0.00000000E+00
  0.00000000E+00  0.00000000E+00  0.00000000E+00
  0.00000000E+00  0.00000000E+00  0.00000000E+00
  0.00000000E+00  0.00000000E+00  0.00000000E+00
  0.00000000E+00  0.00000000E+00  0.00000000E+00
  0.00000000E+00  0.00000000E+00  0.00000000E+00
  0.00000000E+00  0.00000000E+00  0.00000000E+00
  0.00000000E+00  0.00000000E+00  0.00000000E+00
  0.00000000E+00  0.00000000E+00  0.00000000E+00
  0.00000000E+00  0.00000000E+00  0.00000000E+00
