config 63                               
   1.00000000000000     
    15.4263309999999993    0.0000000000000000    0.0000000000000000
     0.0000000000000000   15.4263309999999993    0.0000000000000000
     0.0000000000000000    0.0000000000000000   15.4263309999999993
   Li   Ti   O    F 
     1    64    64   128
Direct
  0.9089091004190540  0.8530673499327065  0.6059149817788144
  0.9947528999920064  0.9957336619757665  0.9955135109139235
  0.9984229994752045  0.9915591652575459  0.4927795099611783
  0.0056032276861735  0.4955210382204115  0.9976640957011912
  0.9942226792091889  0.4992983415728000  0.5069570399495962
  0.4938057008275900  0.9946428473083120  0.9995094775250861
  0.5002253791071398  0.0077930110052568  0.5003612902453970
  0.5041068947547293  0.4957283550786444  0.9959021933381677
  0.4922588059233948  0.4991948494757341  0.4951710488140397
  0.0063992058971816  0.0027115101258461  0.2559874388551406
  0.0006718660615174  0.0089144066628843  0.7580628144526181
  0.9937587884447019  0.4937258230440292  0.2513772008768797
  0.9923439024034137  0.4983272248912442  0.7420511404295645
  0.5060321961108539  0.0082346801082698  0.2504520518756474
  0.4919779280677272  0.0049742416700703  0.7516055130051846
  0.4931363000137221  0.4971264662858794  0.2573732846068290
  0.5007282130096531  0.5044984412483746  0.7581829031286109
  0.9953581431101136  0.2574593977751700  0.0010817057974500
  0.9987457265528359  0.2468537381375713  0.4911420208355922
  0.9978828174199148  0.7581363260514262  0.0046445013599332
  1.0002096395477547  0.7514076034597335  0.4992590464374873
  0.4947703821355522  0.2580493557240220  0.0005562826252180
  0.5079063666803306  0.2452827466972553  0.4997349605545399
  0.5070668408235065  0.7567135029355091  0.9993316298671909
  0.5070646141876595  0.7530673952526319  0.5094425244396400
  0.9998081586211264  0.2579951292968751  0.2549166915307867
  0.0061439600895907  0.2428147035441963  0.7470662693807422
  0.0072378329817785  0.7485166663909053  0.2404915777694316
  0.9936658561608803  0.7500424293661793  0.7428639576578006
  0.5083372900550024  0.2422981611898356  0.2512475486138185
  0.5064446526975008  0.2427057931908579  0.7497218848156123
  0.5071650145197903  0.7515753668401839  0.2522717769114762
  0.5013011324464191  0.7423666431496622  0.7438061682795682
  0.2560119504506845  0.9987714463456306  0.0062821507758939
  0.2492957916098668  0.9934022607284709  0.5066444829621543
  0.2434714525162838  0.5077244559457682  0.9978326221284811
  0.2544553636467188  0.4939425558652797  0.5066049120680048
  0.7569499173572449  0.0004825966917946  0.9947135018823255
  0.7493928093239197  0.0077756540181474  0.4939526885234150
  0.7419038888362087  0.5008073726987744  0.0050012906307000
  0.7558192843168249  0.4979447124351979  0.5052023390695989
  0.2444214651151553  0.0022766168792116  0.2439934249361163
  0.2568171385310704  0.9979587952288901  0.7443167673472054
  0.2553944283969980  0.4922604908858854  0.2519395437670153
  0.2470749580582750  0.5062615647233900  0.7412836395360763
  0.7446376147530859  0.0000972864768412  0.2557251504069164
  0.7476211321494359  0.0069437893198224  0.7567858313446558
  0.7560258816599603  0.4993828790360418  0.2428037923810582
  0.7570251007703939  0.4984154009661239  0.7426628864406130
  0.2572754014719448  0.2512689091295789  0.0058334666522594
  0.2527230180945743  0.2562685809577693  0.5055739223027648
  0.2517817991684693  0.7425951051826306  0.9936708025238382
  0.2533860507040056  0.7551012202583465  0.4929458447537395
  0.7572762117867012  0.2507150310839300  0.0067043739296853
  0.7426334304404154  0.2433664097801165  0.4978009412168489
  0.7415532717919231  0.7499605487878878  0.9949844925050858
  0.7415217870255981  0.7523833745966750  0.4938511821802301
  0.2515155261084772  0.2575367306877661  0.2437715021894240
  0.2439584202219375  0.2513739696866716  0.7437384939179946
  0.2443105874356494  0.7481413334627508  0.2558422875826488
  0.2484251714434854  0.7419900220082318  0.7567583695687755
  0.7426689311049370  0.2508700809981207  0.2420911976155858
  0.7440685186626799  0.2424458430863911  0.7505538680168781
  0.7460646293042829  0.7505227315407283  0.2568446633882855
  0.7564233668021186  0.7513829654847444  0.7581338591121697
  0.0060960825864679  0.4991316211395728  0.6247909443516427
  0.9938129905286330  0.0050047980135177  0.3744510934420471
  0.9972168998903570  0.0034613709938469  0.8736966285105857
  0.5012171388317660  0.4952187716448282  0.3752402681168448
  0.4953096437393130  0.4990023409282797  0.8745942910801221
  0.9984228012832944  0.7446001805004316  0.1239280013013435
  0.9954505288068783  0.7536110346936088  0.6264373703139096
  0.5011097557411258  0.7559474821847698  0.6252063827905311
  0.9957969483644799  0.2458879967735727  0.3762331874145414
  0.2541466991154040  0.0034169019697944  0.1253884763230393
  0.2519802679382764  0.0038727686396998  0.6257118031442137
  0.2405852005972318  0.4956412619940404  0.6259230374383599
  0.7518361877561889  0.4938265827492723  0.1256280564025193
  0.7471773353093620  0.4959352416369099  0.6241974522169906
  0.7520623794000006  0.9970119594246772  0.3761265110666162
  0.7477725295041978  0.9968799461468811  0.8738769368448698
  0.2474687000895970  0.2493270910429810  0.1257315265191130
  0.2537851434284422  0.2488395388733723  0.6253635881838734
  0.7443639201703696  0.2564042324660505  0.1260313043368669
  0.2555206870667595  0.7467761761359173  0.3743053765037432
  0.2504716151299985  0.7530018466834733  0.8752568462283632
  0.7540059086963958  0.7545286276388640  0.3745823681650451
  0.7470208154585182  0.7545691377744690  0.8764807040936500
  0.1242828993065046  0.5029782475645361  0.9961993802825372
  0.6257314591793389  0.5070812694927307  0.9993902010170672
  0.1255051469209785  0.0025835666781442  0.2523693121327957
  0.6250007122268592 -0.0001321777827612  0.2512942014861150
  0.6240831724754393  0.2551900655920294  0.4972257488502367
  0.6244464912314656  0.7427021983937230  0.0046814451013815
  0.6244601008524449  0.7619705273592954  0.4960149485663615
  0.1243468319590051  0.2498351254700686  0.7479955375582205
  0.1256697189389324  0.7519264633813646  0.2509026954081151
  0.6257050398742923  0.2463989331094037  0.2600273690322863
  0.6253404446065213  0.2512545916448273  0.7450759883297647
  0.6235223120512938  0.7545441325276839  0.2512933460239368
  0.3757651520045069  0.0008864902484998  0.9931858003088463
  0.3756032973539527  0.5028456524282935  0.5028405291485204
  0.8726118988406807  0.0030087996727323  0.0023419133533661
  0.8752233498459948  0.4967736674229948  0.4978216433839120
  0.3755232428617172  0.9955075605336733  0.7552353944936359
  0.3741490652031372  0.4969178719364772  0.2500812027161184
  0.8757452405336040  0.4988218170123862  0.2536843318198893
  0.8749544678791669  0.5061586910246665  0.7482139329186605
  0.3757493819319217  0.2473500922638395  0.0016018331026193
  0.8741575692456095  0.2473182077259381  0.0033480950132584
  0.8735699629285016  0.7508140626861050  0.7491745664792063
  0.5084620087610769  0.1223635946419844  0.4984940084650987
  0.9934663612199990  0.1265299235297248  0.7434148439339461
  0.4960968281109961  0.1250602236729958  0.2600279050479286
  0.4997616121729472  0.1236080227693088  0.7446154992342319
  0.5001394379014971  0.6255006418551405  0.7479735184582640
  0.9992613674928920  0.3752466717833896  0.0038543438928207
  0.0008554307210867  0.8752143573084898  0.0009918566724495
  0.9871713081364880  0.8785803297758316  0.5040495401723772
  0.5020000676665338  0.3742479774693984  0.0052217005412416
  0.5036065811361286  0.8755232695846180  0.0018765545794574
  0.0058892607200707  0.3737363875652698  0.2466472238698140
  0.2545804075765306  0.6251873620077715  0.0016164030027315
  0.7424281507739774  0.1257655669859832  0.5021865435586590
  0.2489793397745728  0.6247408794593450  0.7504950877417959
  0.7531805994867613  0.1249294163280419  0.7460239498279096
  0.2500522643689510  0.3725832748488279  0.4940704783435411
  0.2541556012549068  0.8758399265776795  0.5001338786553892
  0.2427411917006355  0.3744493514028316  0.2562284967952032
  0.0007949502354025  0.0032570731199873  0.1262762834819361
  1.0006927944790194  0.9957096572139598  0.6255389433571380
  0.9987795800019513  0.5090003903536401  0.1250810974388617
  0.4955116314703469  0.0045218664238249  0.1264660312810204
  0.4989291288777336  0.9913100712300476  0.6232466446740039
  0.5013813354318167  0.5060052736271866  0.1273500084132085
  0.5063313395765671  0.4985012270082310  0.6247547650987412
  0.0052433380074764  0.4938875478110517  0.3757503991410177
  0.9967532618733896  0.4986058273879956  0.8728092090198742
  0.5016510021626019  0.9923002155794475  0.3771262469747029
  0.5131634591981343  0.0032271763992567  0.8748701944829238
  0.0061258931096031  0.2455391992845218  0.1269973908929728
  0.9975603451238018  0.2589560545737610  0.6213716181456361
  0.5063634381880512  0.2414173689137160  0.1267027293542389
  0.4925967070186553  0.2504684503024913  0.6230792960964361
  0.4959672589181814  0.7481838204831700  0.1272590150484634
  0.9970152298839349  0.2499958526633065  0.8741169382992426
  0.9921712756793710  0.7531830003033142  0.3714040028695940
  0.0023260577064263  0.7502688826318339  0.8740657489586688
  0.4933896276967224  0.2600536049584165  0.3760936606693847
  0.5027408640592195  0.2486376956409962  0.8743882039252358
  0.4937582454296202  0.7521187531729995  0.3757957304702474
  0.4991401654553878  0.7502483562451133  0.8743846748750425
  0.2461740419276699  0.4945572518309944  0.1248576870165993
  0.7474021480173401  0.0056765990472314  0.1267009104326436
  0.7447676668028008  0.9971674335892582  0.6233662975340875
  0.2530257697224491  0.0010462782003263  0.3757965729855883
  0.2437756308680174  0.9946819746186940  0.8745267758389942
  0.2460531130697996  0.5106279306395894  0.3752653193064224
  0.2575167018514003  0.4971902455058593  0.8737391496317334
  0.7452844803762109  0.5055912031004471  0.3748466241757764
  0.7509247012577531  0.5043721034159924  0.8740329439442482
  0.2529814104651131  0.7542377941682804  0.1249528404236812
  0.2527590277465995  0.7508711475663733  0.6256129897985110
  0.7535313201698162  0.2595213356808718  0.6229226973813521
  0.7527976484415226  0.7467690875338904  0.1263625235182833
  0.7455472084507130  0.7496871601682940  0.6255938678420893
  0.2514101974906782  0.2434516606793219  0.3745915389987975
  0.2502076216546302  0.2513238320634959  0.8752805073782791
  0.7606196487235934  0.2457509950541318  0.3741864625353251
  0.7498979483951359  0.2469639120827730  0.8756738307307494
  0.1257322278312817  0.0014211440125024  0.0011325528574519
  0.1241734856615504  0.0031519494744320  0.4979159082772199
  0.1239552521463331  0.5004899014380882  0.4939572370006564
  0.6250474021375971  0.0012081067535020  0.0061836933210683
  0.6234120323068549  0.9844112651930994  0.5006712428586689
  0.6254648575940761  0.4956542421376221  0.4989255424782117
  0.1258292339692411  0.0023044197313890  0.7489328259622777
  0.1241038578177160  0.5068858357255783  0.2477889289047381
  0.1229541854486473  0.4949451109414069  0.7611949937763528
  0.6232782247739752  0.9966118042157583  0.7430674520053691
  0.6254116533998269  0.4986857330562889  0.2490361013113201
  0.6263240315870117  0.4945896501611718  0.7540342290765858
  0.1249687717837475  0.2507278158100772  0.9959258669364525
  0.1235676136421294  0.2425589336659232  0.5000780549245686
  0.1250819988048185  0.7461733117806706  0.0012203948454137
  0.1294750765791182  0.7496462721058933  0.4986839536301516
  0.6260222599303504  0.2496751983316017  0.9960886365365595
  0.1246872243190039  0.2376271706663065  0.2552435358650598
  0.1234919376420950  0.7530611164538440  0.7492957661434412
  0.6256609562402802  0.7534737471216638  0.7511637838035460
  0.3770693254599120  0.0068563314358806  0.4979748398002482
  0.3733810781161415  0.4963864775209301  0.0063659239876356
  0.8727596611894564  0.0094088860495917  0.5123217038806288
  0.8745042844732526  0.4985807817811647  0.9977951559557804
  0.3773904577821025  0.9964561715745966  0.2555480838295845
  0.3744637339064408  0.4968721311354071  0.7424675546676038
  0.8733838471911640  0.9994752666044839  0.2449701769442453
  0.8734464973675921  0.9902445682950544  0.7394172347637569
  0.3785659470018348  0.2434295700036418  0.4962784681425478
  0.3765467161156665  0.7560647910052669  0.0012320958363236
  0.3786634140784013  0.7431174562990513  0.5016487104444544
  0.8740420853588169  0.2524766070566048  0.5033662947736792
  0.8720803475451624  0.7538960315084983  0.9981737287660433
  0.8685377553372283  0.7507070430167522  0.5125854824012567
  0.3782351874443413  0.2565928386285718  0.2487944964101735
  0.3760485261220356  0.2506654104115886  0.7542207025652752
  0.3776501694036522  0.7481081012297166  0.2474887893725917
  0.3752096446963337  0.7566155754483894  0.7508403380679941
  0.8741864396888404  0.2541382154260901  0.2456770196477879
  0.8738744213974261  0.2558887768804042  0.7484091988485478
  0.8736927125285040  0.7467063715259677  0.2476281682028323
  0.0043754825156888  0.1271280290453877  0.0013660454630630
  0.9961838313621505  0.1255294081946749  0.5106906751179134
  0.9941028499985290  0.6253314187474278  0.9936092624480500
  0.0008842115529090  0.6210428349462825  0.4919070617579101
  0.5050399091032433  0.1246110934029594  0.9996015229229375
  0.4902729102763520  0.6274613656301697  0.0010473607480746
  0.5078735971191255  0.6266199304376904  0.4993367473805171
  0.9923495006188633  0.1275997981381887  0.2458070066904146
  0.9997481854799730  0.6235431729301616  0.2578822105858783
  0.0081981311905050  0.6243428655708027  0.7533305860158871
  0.5022731825747874  0.6261452755965292  0.2537087414944579
  0.0062097964943402  0.3719355068544328  0.4975122346634758
  0.4952027263305443  0.3719930149940584  0.5052318078283492
  0.4881563639017893  0.8778892339591648  0.4961054579000267
  0.9966952970091962  0.3741080609004325  0.7524744254151893
  0.9951353553471796  0.8758226055892163  0.2477474829861749
  0.9985423281538374  0.8768552556822459  0.7477311902543481
  0.5034587954162402  0.3718889002924394  0.2420768429870716
  0.4975246533780011  0.3731491925290396  0.7466651319215521
  0.4960675026217926  0.8760799458246529  0.2483888240342340
  0.5034009166599570  0.8754774360850993  0.7556734351771021
  0.2451837738092829  0.1248731819838030  0.9932965700593551
  0.2504600358371986  0.1240209736668850  0.4966678849951695
  0.2488714709638761  0.6257812159361709  0.5045590954841613
  0.7425679220135410  0.1260847772871010  0.0003586690753101
  0.7605229642852023  0.6257778654704517  0.0017137401011563
  0.7460129484252418  0.6260398866652431  0.5004305320571076
  0.2597623757427519  0.1263733901766878  0.2538764263044793
  0.2523598131128824  0.1245369793086571  0.7582499347411531
  0.2512548948731896  0.6236742558937437  0.2415114220041046
  0.7575209424061835  0.1258852805853249  0.2508329506893315
  0.7461452675358365  0.6254249437419200  0.2494062063819879
  0.7413084966846374  0.6254589624641634  0.7490739104644832
  0.2494538695512581  0.3760354750462704  0.9979916495152481
  0.2459599311789470  0.8740375592976389  0.0033464423912343
  0.7484609188298108  0.3750619147659803  0.9896111415494038
  0.7510458848995640  0.3726737365982232  0.4905755580116664
  0.7460659153363892  0.8751464182260054  0.0107154820550535
  0.7624363815667201  0.8775448756167757  0.5084449206947016
  0.2521408153417414  0.3758201629412800  0.7558462689744070
  0.2550998350383676  0.8755936648463118  0.2510217782794844
  0.2447026264091255  0.8737167128562751  0.7462430608071290
  0.7489979100991501  0.3743584936660946  0.2625919187221420
  0.7527257571269640  0.3740102868577553  0.7562009442869529
  0.7550439039772751  0.8752823619334509  0.2413557902904186
  0.7487852958633279  0.8759017850825910  0.7418206699042125
 
  0.00000000E+00  0.00000000E+00  0.00000000E+00
  0.00000000E+00  0.00000000E+00  0.00000000E+00
  0.00000000E+00  0.00000000E+00  0.00000000E+00
  0.00000000E+00  0.00000000E+00  0.00000000E+00
  0.00000000E+00  0.00000000E+00  0.00000000E+00
  0.00000000E+00  0.00000000E+00  0.00000000E+00
  0.00000000E+00  0.00000000E+00  0.00000000E+00
  0.00000000E+00  0.00000000E+00  0.00000000E+00
  0.00000000E+00  0.00000000E+00  0.00000000E+00
  0.00000000E+00  0.00000000E+00  0.00000000E+00
  0.00000000E+00  0.00000000E+00  0.00000000E+00
  0.00000000E+00  0.00000000E+00  0.00000000E+00
  0.00000000E+00  0.00000000E+00  0.00000000E+00
  0.00000000E+00  0.00000000E+00  0.00000000E+00
  0.00000000E+00  0.00000000E+00  0.00000000E+00
  0.00000000E+00  0.00000000E+00  0.00000000E+00
  0.00000000E+00  0.00000000E+00  0.00000000E+00
  0.00000000E+00  0.00000000E+00  0.00000000E+00
  0.00000000E+00  0.00000000E+00  0.00000000E+00
  0.00000000E+00  0.00000000E+00  0.00000000E+00
  0.00000000E+00  0.00000000E+00  0.00000000E+00
  0.00000000E+00  0.00000000E+00  0.00000000E+00
  0.00000000E+00  0.00000000E+00  0.00000000E+00
  0.00000000E+00  0.00000000E+00  0.00000000E+00
  0.00000000E+00  0.00000000E+00  0.00000000E+00
  0.00000000E+00  0.00000000E+00  0.00000000E+00
  0.00000000E+00  0.00000000E+00  0.00000000E+00
  0.00000000E+00  0.00000000E+00  0.00000000E+00
  0.00000000E+00  0.00000000E+00  0.00000000E+00
  0.00000000E+00  0.00000000E+00  0.00000000E+00
  0.00000000E+00  0.00000000E+00  0.00000000E+00
  0.00000000E+00  0.00000000E+00  0.00000000E+00
  0.00000000E+00  0.00000000E+00  0.00000000E+00
  0.00000000E+00  0.00000000E+00  0.00000000E+00
  0.00000000E+00  0.00000000E+00  0.00000000E+00
  0.00000000E+00  0.00000000E+00  0.00000000E+00
  0.00000000E+00  0.00000000E+00  0.00000000E+00
  0.00000000E+00  0.00000000E+00  0.00000000E+00
  0.00000000E+00  0.00000000E+00  0.00000000E+00
  0.00000000E+00  0.00000000E+00  0.00000000E+00
  0.00000000E+00  0.00000000E+00  0.00000000E+00
  0.00000000E+00  0.00000000E+00  0.00000000E+00
  0.00000000E+00  0.00000000E+00  0.00000000E+00
  0.00000000E+00  0.00000000E+00  0.00000000E+00
  0.00000000E+00  0.00000000E+00  0.00000000E+00
  0.00000000E+00  0.00000000E+00  0.00000000E+00
  0.00000000E+00  0.00000000E+00  0.00000000E+00
  0.00000000E+00  0.00000000E+00  0.00000000E+00
  0.00000000E+00  0.00000000E+00  0.00000000E+00
  0.00000000E+00  0.00000000E+00  0.00000000E+00
  0.00000000E+00  0.00000000E+00  0.00000000E+00
  0.00000000E+00  0.00000000E+00  0.00000000E+00
  0.00000000E+00  0.00000000E+00  0.00000000E+00
  0.00000000E+00  0.00000000E+00  0.00000000E+00
  0.00000000E+00  0.00000000E+00  0.00000000E+00
  0.00000000E+00  0.00000000E+00  0.00000000E+00
  0.00000000E+00  0.00000000E+00  0.00000000E+00
  0.00000000E+00  0.00000000E+00  0.00000000E+00
  0.00000000E+00  0.00000000E+00  0.00000000E+00
  0.00000000E+00  0.00000000E+00  0.00000000E+00
  0.00000000E+00  0.00000000E+00  0.00000000E+00
  0.00000000E+00  0.00000000E+00  0.00000000E+00
  0.00000000E+00  0.00000000E+00  0.00000000E+00
  0.00000000E+00  0.00000000E+00  0.00000000E+00
  0.00000000E+00  0.00000000E+00  0.00000000E+00
  0.00000000E+00  0.00000000E+00  0.00000000E+00
  0.00000000E+00  0.00000000E+00  0.00000000E+00
  0.00000000E+00  0.00000000E+00  0.00000000E+00
  0.00000000E+00  0.00000000E+00  0.00000000E+00
  0.00000000E+00  0.00000000E+00  0.00000000E+00
  0.00000000E+00  0.00000000E+00  0.00000000E+00
  0.00000000E+00  0.00000000E+00  0.00000000E+00
  0.00000000E+00  0.00000000E+00  0.00000000E+00
  0.00000000E+00  0.00000000E+00  0.00000000E+00
  0.00000000E+00  0.00000000E+00  0.00000000E+00
  0.00000000E+00  0.00000000E+00  0.00000000E+00
  0.00000000E+00  0.00000000E+00  0.00000000E+00
  0.00000000E+00  0.00000000E+00  0.00000000E+00
  0.00000000E+00  0.00000000E+00  0.00000000E+00
  0.00000000E+00  0.00000000E+00  0.00000000E+00
  0.00000000E+00  0.00000000E+00  0.00000000E+00
  0.00000000E+00  0.00000000E+00  0.00000000E+00
  0.00000000E+00  0.00000000E+00  0.00000000E+00
  0.00000000E+00  0.00000000E+00  0.00000000E+00
  0.00000000E+00  0.00000000E+00  0.00000000E+00
  0.00000000E+00  0.00000000E+00  0.00000000E+00
  0.00000000E+00  0.00000000E+00  0.00000000E+00
  0.00000000E+00  0.00000000E+00  0.00000000E+00
  0.00000000E+00  0.00000000E+00  0.00000000E+00
  0.00000000E+00  0.00000000E+00  0.00000000E+00
  0.00000000E+00  0.00000000E+00  0.00000000E+00
  0.00000000E+00  0.00000000E+00  0.00000000E+00
  0.00000000E+00  0.00000000E+00  0.00000000E+00
  0.00000000E+00  0.00000000E+00  0.00000000E+00
  0.00000000E+00  0.00000000E+00  0.00000000E+00
  0.00000000E+00  0.00000000E+00  0.00000000E+00
  0.00000000E+00  0.00000000E+00  0.00000000E+00
  0.00000000E+00  0.00000000E+00  0.00000000E+00
  0.00000000E+00  0.00000000E+00  0.00000000E+00
  0.00000000E+00  0.00000000E+00  0.00000000E+00
  0.00000000E+00  0.00000000E+00  0.00000000E+00
  0.00000000E+00  0.00000000E+00  0.00000000E+00
  0.00000000E+00  0.00000000E+00  0.00000000E+00
  0.00000000E+00  0.00000000E+00  0.00000000E+00
  0.00000000E+00  0.00000000E+00  0.00000000E+00
  0.00000000E+00  0.00000000E+00  0.00000000E+00
  0.00000000E+00  0.00000000E+00  0.00000000E+00
  0.00000000E+00  0.00000000E+00  0.00000000E+00
  0.00000000E+00  0.00000000E+00  0.00000000E+00
  0.00000000E+00  0.00000000E+00  0.00000000E+00
  0.00000000E+00  0.00000000E+00  0.00000000E+00
  0.00000000E+00  0.00000000E+00  0.00000000E+00
  0.00000000E+00  0.00000000E+00  0.00000000E+00
  0.00000000E+00  0.00000000E+00  0.00000000E+00
  0.00000000E+00  0.00000000E+00  0.00000000E+00
  0.00000000E+00  0.00000000E+00  0.00000000E+00
  0.00000000E+00  0.00000000E+00  0.00000000E+00
  0.00000000E+00  0.00000000E+00  0.00000000E+00
  0.00000000E+00  0.00000000E+00  0.00000000E+00
  0.00000000E+00  0.00000000E+00  0.00000000E+00
  0.00000000E+00  0.00000000E+00  0.00000000E+00
  0.00000000E+00  0.00000000E+00  0.00000000E+00
  0.00000000E+00  0.00000000E+00  0.00000000E+00
  0.00000000E+00  0.00000000E+00  0.00000000E+00
  0.00000000E+00  0.00000000E+00  0.00000000E+00
  0.00000000E+00  0.00000000E+00  0.00000000E+00
  0.00000000E+00  0.00000000E+00  0.00000000E+00
  0.00000000E+00  0.00000000E+00  0.00000000E+00
  0.00000000E+00  0.00000000E+00  0.00000000E+00
  0.00000000E+00  0.00000000E+00  0.00000000E+00
  0.00000000E+00  0.00000000E+00  0.00000000E+00
  0.00000000E+00  0.00000000E+00  0.00000000E+00
  0.00000000E+00  0.00000000E+00  0.00000000E+00
  0.00000000E+00  0.00000000E+00  0.00000000E+00
  0.00000000E+00  0.00000000E+00  0.00000000E+00
  0.00000000E+00  0.00000000E+00  0.00000000E+00
  0.00000000E+00  0.00000000E+00  0.00000000E+00
  0.00000000E+00  0.00000000E+00  0.00000000E+00
  0.00000000E+00  0.00000000E+00  0.00000000E+00
  0.00000000E+00  0.00000000E+00  0.00000000E+00
  0.00000000E+00  0.00000000E+00  0.00000000E+00
  0.00000000E+00  0.00000000E+00  0.00000000E+00
  0.00000000E+00  0.00000000E+00  0.00000000E+00
  0.00000000E+00  0.00000000E+00  0.00000000E+00
  0.00000000E+00  0.00000000E+00  0.00000000E+00
  0.00000000E+00  0.00000000E+00  0.00000000E+00
  0.00000000E+00  0.00000000E+00  0.00000000E+00
  0.00000000E+00  0.00000000E+00  0.00000000E+00
  0.00000000E+00  0.00000000E+00  0.00000000E+00
  0.00000000E+00  0.00000000E+00  0.00000000E+00
  0.00000000E+00  0.00000000E+00  0.00000000E+00
  0.00000000E+00  0.00000000E+00  0.00000000E+00
  0.00000000E+00  0.00000000E+00  0.00000000E+00
  0.00000000E+00  0.00000000E+00  0.00000000E+00
  0.00000000E+00  0.00000000E+00  0.00000000E+00
  0.00000000E+00  0.00000000E+00  0.00000000E+00
  0.00000000E+00  0.00000000E+00  0.00000000E+00
  0.00000000E+00  0.00000000E+00  0.00000000E+00
  0.00000000E+00  0.00000000E+00  0.00000000E+00
  0.00000000E+00  0.00000000E+00  0.00000000E+00
  0.00000000E+00  0.00000000E+00  0.00000000E+00
  0.00000000E+00  0.00000000E+00  0.00000000E+00
  0.00000000E+00  0.00000000E+00  0.00000000E+00
  0.00000000E+00  0.00000000E+00  0.00000000E+00
  0.00000000E+00  0.00000000E+00  0.00000000E+00
  0.00000000E+00  0.00000000E+00  0.00000000E+00
  0.00000000E+00  0.00000000E+00  0.00000000E+00
  0.00000000E+00  0.00000000E+00  0.00000000E+00
  0.00000000E+00  0.00000000E+00  0.00000000E+00
  0.00000000E+00  0.00000000E+00  0.00000000E+00
  0.00000000E+00  0.00000000E+00  0.00000000E+00
  0.00000000E+00  0.00000000E+00  0.00000000E+00
  0.00000000E+00  0.00000000E+00  0.00000000E+00
  0.00000000E+00  0.00000000E+00  0.00000000E+00
  0.00000000E+00  0.00000000E+00  0.00000000E+00
  0.00000000E+00  0.00000000E+00  0.00000000E+00
  0.00000000E+00  0.00000000E+00  0.00000000E+00
  0.00000000E+00  0.00000000E+00  0.00000000E+00
  0.00000000E+00  0.00000000E+00  0.00000000E+00
  0.00000000E+00  0.00000000E+00  0.00000000E+00
  0.00000000E+00  0.00000000E+00  0.00000000E+00
  0.00000000E+00  0.00000000E+00  0.00000000E+00
  0.00000000E+00  0.00000000E+00  0.00000000E+00
  0.00000000E+00  0.00000000E+00  0.00000000E+00
  0.00000000E+00  0.00000000E+00  0.00000000E+00
  0.00000000E+00  0.00000000E+00  0.00000000E+00
  0.00000000E+00  0.00000000E+00  0.00000000E+00
  0.00000000E+00  0.00000000E+00  0.00000000E+00
  0.00000000E+00  0.00000000E+00  0.00000000E+00
  0.00000000E+00  0.00000000E+00  0.00000000E+00
  0.00000000E+00  0.00000000E+00  0.00000000E+00
  0.00000000E+00  0.00000000E+00  0.00000000E+00
  0.00000000E+00  0.00000000E+00  0.00000000E+00
  0.00000000E+00  0.00000000E+00  0.00000000E+00
  0.00000000E+00  0.00000000E+00  0.00000000E+00
  0.00000000E+00  0.00000000E+00  0.00000000E+00
  0.00000000E+00  0.00000000E+00  0.00000000E+00
  0.00000000E+00  0.00000000E+00  0.00000000E+00
  0.00000000E+00  0.00000000E+00  0.00000000E+00
  0.00000000E+00  0.00000000E+00  0.00000000E+00
  0.00000000E+00  0.00000000E+00  0.00000000E+00
  0.00000000E+00  0.00000000E+00  0.00000000E+00
  0.00000000E+00  0.00000000E+00  0.00000000E+00
  0.00000000E+00  0.00000000E+00  0.00000000E+00
  0.00000000E+00  0.00000000E+00  0.00000000E+00
  0.00000000E+00  0.00000000E+00  0.00000000E+00
  0.00000000E+00  0.00000000E+00  0.00000000E+00
  0.00000000E+00  0.00000000E+00  0.00000000E+00
  0.00000000E+00  0.00000000E+00  0.00000000E+00
  0.00000000E+00  0.00000000E+00  0.00000000E+00
  0.00000000E+00  0.00000000E+00  0.00000000E+00
  0.00000000E+00  0.00000000E+00  0.00000000E+00
  0.00000000E+00  0.00000000E+00  0.00000000E+00
  0.00000000E+00  0.00000000E+00  0.00000000E+00
  0.00000000E+00  0.00000000E+00  0.00000000E+00
  0.00000000E+00  0.00000000E+00  0.00000000E+00
  0.00000000E+00  0.00000000E+00  0.00000000E+00
  0.00000000E+00  0.00000000E+00  0.00000000E+00
  0.00000000E+00  0.00000000E+00  0.00000000E+00
  0.00000000E+00  0.00000000E+00  0.00000000E+00
  0.00000000E+00  0.00000000E+00  0.00000000E+00
  0.00000000E+00  0.00000000E+00  0.00000000E+00
  0.00000000E+00  0.00000000E+00  0.00000000E+00
  0.00000000E+00  0.00000000E+00  0.00000000E+00
  0.00000000E+00  0.00000000E+00  0.00000000E+00
  0.00000000E+00  0.00000000E+00  0.00000000E+00
  0.00000000E+00  0.00000000E+00  0.00000000E+00
  0.00000000E+00  0.00000000E+00  0.00000000E+00
  0.00000000E+00  0.00000000E+00  0.00000000E+00
  0.00000000E+00  0.00000000E+00  0.00000000E+00
  0.00000000E+00  0.00000000E+00  0.00000000E+00
  0.00000000E+00  0.00000000E+00  0.00000000E+00
  0.00000000E+00  0.00000000E+00  0.00000000E+00
  0.00000000E+00  0.00000000E+00  0.00000000E+00
  0.00000000E+00  0.00000000E+00  0.00000000E+00
  0.00000000E+00  0.00000000E+00  0.00000000E+00
  0.00000000E+00  0.00000000E+00  0.00000000E+00
  0.00000000E+00  0.00000000E+00  0.00000000E+00
  0.00000000E+00  0.00000000E+00  0.00000000E+00
  0.00000000E+00  0.00000000E+00  0.00000000E+00
  0.00000000E+00  0.00000000E+00  0.00000000E+00
  0.00000000E+00  0.00000000E+00  0.00000000E+00
  0.00000000E+00  0.00000000E+00  0.00000000E+00
  0.00000000E+00  0.00000000E+00  0.00000000E+00
  0.00000000E+00  0.00000000E+00  0.00000000E+00
  0.00000000E+00  0.00000000E+00  0.00000000E+00
  0.00000000E+00  0.00000000E+00  0.00000000E+00
  0.00000000E+00  0.00000000E+00  0.00000000E+00
  0.00000000E+00  0.00000000E+00  0.00000000E+00
  0.00000000E+00  0.00000000E+00  0.00000000E+00
  0.00000000E+00  0.00000000E+00  0.00000000E+00
  0.00000000E+00  0.00000000E+00  0.00000000E+00
  0.00000000E+00  0.00000000E+00  0.00000000E+00
  0.00000000E+00  0.00000000E+00  0.00000000E+00
  0.00000000E+00  0.00000000E+00  0.00000000E+00
  0.00000000E+00  0.00000000E+00  0.00000000E+00
  0.00000000E+00  0.00000000E+00  0.00000000E+00
