config 62                               
   1.00000000000000     
    15.4263309999999993    0.0000000000000000    0.0000000000000000
     0.0000000000000000   15.4263309999999993    0.0000000000000000
     0.0000000000000000    0.0000000000000000   15.4263309999999993
   Li   Ti   O    F 
     1    64    64   128
Direct
  0.9349685224819375  0.8740255024418945  0.3727708557662295
  0.9945433717910060  0.9949077123656778  0.9953576522395882
  0.9986132852873832  0.9966853274990072  0.4978048622839308
  0.0058441864887275  0.4956169634531313  0.9969014492012485
  0.9938741872975814  0.5051242970329199  0.5069907973097272
  0.4941500932678256  0.9934078296818997  0.0015569455461737
  0.5016530154264768  0.0094150635602121  0.4985382259359356
  0.5040866082984647  0.4950744733456828  0.9964605664737954
  0.4916841526069622  0.4993590213011320  0.4957748420661179
  0.0061640022003130  0.0049025920330472  0.2567617171895102
  0.0008219280203956  0.0077033206095261  0.7582780245029906
  0.9931595142453052  0.4920242426807676  0.2507790294332737
  0.9925083755113394  0.4998639255519446  0.7411925706919251
  0.5052850269239736  0.0090439914059020  0.2521458610744043
  0.4926754954452544  0.0058449461734421  0.7505741187536188
  0.4922114870946102  0.4956692381895235  0.2578021861693080
  0.5010464074271939  0.5038125943893326  0.7592104447517892
  0.9958350077779454  0.2576421190439518  0.0013651795290991
  0.9983935207395935  0.2505487384843526  0.4905647794498963
  0.9986080249309569  0.7579577828907872  0.0041488729520040
  0.9959333956008612  0.7576963119442425  0.5083423981283329
  0.4955082664260481  0.2582818903677713  0.0019878069023638
  0.5092689970823078  0.2460745542772394  0.4976424067379607
  0.5073564536507112  0.7562740515817472  0.9991345337419489
  0.5077163892602008  0.7529900305707732  0.5091659435489626
  0.9993102818755670  0.2585868540684618  0.2548890727848628
  0.0073615207816848  0.2430805208508643  0.7473444628832087
  0.0081184603138607  0.7450677514413928  0.2402099917672067
  0.9928407472890414  0.7505980962430742  0.7433412590709139
  0.5076632789401578  0.2410558668695023  0.2523459714243668
  0.5075204273687094  0.2434060787317853  0.7514102548222618
  0.5064444203401411  0.7507826495997981  0.2534348408120922
  0.5026313241592886  0.7415591762038193  0.7442912614234468
  0.2554210416313535  0.9977053311883651  0.0067239674073567
  0.2497460529226401  0.9932485769951148  0.5052679881018619
  0.2435281104208900  0.5080972668655011  0.9974665193137642
  0.2547342300535390  0.4947949752201796  0.5066137558418543
  0.7576001740414449  0.9987908797173699  0.9952455398737593
  0.7502989246808811  0.0072533398660207  0.4943573219775393
  0.7411386446300807  0.5018746253225836  0.0046342881528954
  0.7553402099750998  0.4992614998085532  0.5058092695265306
  0.2437098461400594  0.0024704380021688  0.2443528456361851
  0.2565487988802094  0.9984189579229247  0.7421775532888777
  0.2545547087828778  0.4913205825379421  0.2515926066584218
  0.2462000092016818  0.5063208667451874  0.7409419217618335
  0.7441309738673580  0.0003132904662719  0.2573712862395668
  0.7485012201723552  0.0057470906151362  0.7574525288690855
  0.7550292319424626  0.4992129867500162  0.2425389188039814
  0.7571168768746546  0.4994291035234494  0.7421805926783664
  0.2573657035593759  0.2517219413034444  0.0059498530813951
  0.2536342223533443  0.2573130779980622  0.5048925201775822
  0.2528761022952920  0.7421332213565844  0.9940368373922650
  0.2522449487984211  0.7560410977528947  0.4935839036201721
  0.7572659263774151  0.2503235865899897  0.0076285807273839
  0.7420575166604715  0.2429855249114951  0.4960043537305621
  0.7419880380756525  0.7497668855051435  0.9930836650775930
  0.7415949058517216  0.7530738621274814  0.4939330223352049
  0.2504999764604537  0.2575987009736082  0.2431383082222710
  0.2437997430744547  0.2524004112189857  0.7433619245707669
  0.2444533301994574  0.7471734972806948  0.2571495356273891
  0.2478473727142635  0.7418397897732575  0.7572486426767545
  0.7411861514782569  0.2487477875335376  0.2426570184139444
  0.7440796138772888  0.2423662764501066  0.7518074917486887
  0.7450501349234697  0.7503096186142528  0.2576825581036134
  0.7581691525791497  0.7511045356646567  0.7563076861852410
  0.0103628139397862  0.5032915719261670  0.6242357768732500
  0.9812208798443895  0.9963349473060406  0.3721802021012203
  0.9903966321525716  0.0039529235839976  0.8740153351073862
  0.4967319715558798  0.4883070600296713  0.3757023942406675
  0.4920440350459440  0.4917333010928591  0.8751123941860901
  0.0075148066142990  0.7457325015059437  0.1239536153882197
  0.0094782526168003  0.7487214549836517  0.6264169681236901
  0.5114456145736326  0.7446264192499848  0.6247495949059965
  0.9887329918046978  0.2492136005465482  0.3755819239361824
  0.2444239312545970  0.0008704385873888  0.1256820438174624
  0.2416569508868809  0.0020083249879404  0.6243886782805914
  0.2375845027737961  0.4949707375747420  0.6255767501412141
  0.7467636225234052  0.5014716828515285  0.1256615957713492
  0.7425252147708641  0.5015506839581404  0.6242689609708599
  0.7618088981864883  0.9901863053671376  0.3761249212946287
  0.7559224751801052  0.9923685185780543  0.8742252890640521
  0.2411834372782004  0.2507801311361681  0.1253274504480101
  0.2462449513214743  0.2505410325756848  0.6244577347196858
  0.7376141537265637  0.2469241176375389  0.1264076506723240
  0.2604055051133417  0.7452244449662987  0.3747953317922409
  0.2605023376550019  0.7504866072610703  0.8755003828009101
  0.7618638799302364  0.7611682262078486  0.3744279174614874
  0.7575230660997100  0.7580841381634842  0.8756034157923133
  0.1241360596350204  0.5083729899855228  0.9916842814478792
  0.6252828648678930  0.5118456332876277  0.9954663457654762
  0.1251183921245378  0.0081741626968662  0.2610881678417316
  0.6244089651711774  0.0076370859603486  0.2621485333036432
  0.6245178142304019  0.2639303792738947  0.4877127160404912
  0.6244104192518736  0.7380214668409886  0.9926068196769116
  0.6245910656788030  0.7665115645510460  0.4883829418280701
  0.1247820300881123  0.2575466647323189  0.7548599609389707
  0.1248428815269095  0.7445969713051043  0.2593462480622943
  0.6250772624166833  0.2379872839445076  0.2664229860397812
  0.6258921845464051  0.2572176001433433  0.7549878163959894
  0.6227067580131809  0.7451961896563667  0.2607974646459176
  0.3757254321238980  0.9944371606498230  0.0051222425351444
  0.3755599658593324  0.5106315415116276  0.5064466836829334
  0.8728234887986857  0.9947151706771268  0.0096813375013207
  0.8747694251282445  0.5114762519346241  0.5024850255650471
  0.3759336107268718  0.0034761996502548  0.7412989437527241
  0.3734381287231164  0.4903244904940405  0.2462434201280873
  0.8749850990459733  0.4895599935410183  0.2483493340322708
  0.8750503429742984  0.5119715236732177  0.7434335016280470
  0.3760016154151423  0.2533706757002068  0.0090490927808445
  0.8742815976094060  0.2543838587188882  0.0103704234491009
  0.8743654466623567  0.7395109863358018  0.7413301039734743
  0.5148169930546099  0.1232442692995642  0.4859507758570353
  0.0034847548150481  0.1260592695508090  0.7435430694148448
  0.4882756073781571  0.1249349526234274  0.2668542293832837
  0.5062761173652844  0.1241218064115349  0.7570545257171412
  0.5060502941647708  0.6252966135963387  0.7570474952681296
  0.0054743063798891  0.3750245121023349  0.0026830795586321
  0.0071966437673866  0.8743156872035456  0.9990935869543490
  0.9771013973667905  0.8701058437051432  0.4930697592531373
  0.5081910334430787  0.3739386955332908  0.0120555472756222
  0.5091751181863070  0.8747816129265937  0.0109064515628457
  0.0123614245451289  0.3736413137387837  0.2470837716334641
  0.2595329392214757  0.6249453592949799  0.0042166001144459
  0.7336855014871007  0.1253842838193224  0.4932382558789936
  0.2415354540235588  0.6247922943425491  0.7491776282660696
  0.7461452995674832  0.1244757079176531  0.7519096161796931
  0.2604234447217276  0.3736162551801652  0.4934368222878272
  0.2636480879163397  0.8751945646501329  0.4990167374819388
  0.2373054142493494  0.3741227176671695  0.2571326139605132
  0.0074385605927201  0.9998378432606305  0.1269956945434610
  0.0122552343954374  0.9945033323151159  0.6261686478559629
  0.0037205639818868  0.5072702129040013  0.1248916414744859
  0.5084575943096321  0.0136052210855398  0.1271066458641646
  0.5140617868023397  0.0072597931738871  0.6224306349996112
  0.5038292154896989  0.5106867572922111  0.1280032487192763
  0.5098409140965727  0.5058799307232330  0.6247480854314172
  0.9988223739193814  0.4964697690110998  0.3756291011279717
  0.9919915213858566  0.4985644473300327  0.8724871925421150
  0.4877248792443858  0.9830791201593947  0.3769528118528777
  0.4975760899577523  0.9893253748203183  0.8748825258015438
  0.0120848824686110  0.2454294665062862  0.1271407731452174
  0.0057293925416352  0.2580291256829301  0.6207458651217919
  0.5133914646034996  0.2339107562024781  0.1271921889933559
  0.5073222457707300  0.2389672306806141  0.6226080419911406
  0.5059678608047544  0.7395569387065459  0.1278497580774421
  0.9898437197021401  0.2495836559372172  0.8740250716875292
  0.9806492022616349  0.7547001955512889  0.3720683409680560
  0.9913796881380642  0.7482592384518189  0.8745371203625013
  0.4855197906806470  0.2669909268277562  0.3754619880899243
  0.4927030852463745  0.2601147604580900  0.8747871450528087
  0.4855083704961348  0.7618173360741364  0.3760924618095600
  0.4883055537158629  0.7601151838075230  0.8743193481181059
  0.2407579316898316  0.4933086629329199  0.1247113655312131
  0.7395038800482154  0.0099360912783870  0.1272011018625617
  0.7344663823299875  0.0015518841941201  0.6228202239575124
  0.2652275855679859  0.0029451835948671  0.3748579328791014
  0.2548273760202960  0.9967382111429212  0.8741624991339227
  0.2501424679196100  0.5113521451051954  0.3750938936018931
  0.2608958510718629  0.4994806781396644  0.8735472485703938
  0.7495803143376770  0.4969463992034031  0.3748561252587513
  0.7552891903535620  0.4985894190675896  0.8741877213553934
  0.2436918668062182  0.7552115895763356  0.1253797136960716
  0.2406821373949639  0.7521992135166111  0.6251529053634467
  0.7442409040591963  0.2510421744981351  0.6225490643724131
  0.7429293807740190  0.7418667858057054  0.1265401936994776
  0.7383309021874169  0.7448388081294219  0.6244901167386582
  0.2593175765713240  0.2429704710497436  0.3738733597263907
  0.2578593382993500  0.2495533577825453  0.8747912136379135
  0.7670446210646363  0.2542046605597021  0.3736135967507531
  0.7592195027512949  0.2536578719703468  0.8760948792659425
  0.1256606214439691  0.0070646142287918  0.9932362617305673
  0.1282077498554135  0.9869738612612653  0.4838305484403118
  0.1230159805442915  0.4913562312753165  0.4897555597474572
  0.6248972404956042  0.0069669283839603  0.9958563030223873
  0.6234810294208561  0.9797457917422050  0.4886042232741706
  0.6251976836075924  0.4876089161986698  0.4955055058332269
  0.1263642241260387  0.9932319053148522  0.7587939655464648
  0.1233022238364112  0.5122885118621742  0.2526734101077307
  0.1229384097504691  0.4887166042583221  0.7637721506186936
  0.6235538918020340  0.9890412188144330  0.7547312999513394
  0.6245387197146445  0.5080059631366510  0.2537940635600455
  0.6265799677929224  0.4892513838133150  0.7580502040461304
  0.1248779861202417  0.2440801872795615  0.9899769289213217
  0.1237802016952317  0.2608659518511569  0.4900571800600854
  0.1249468846644112  0.7395876506422981  0.9903708890914215
  0.1236287790132177  0.7615631985916473  0.4885074004247934
  0.6260800689585854  0.2427907652456489  0.9891066412683824
  0.1241113378647605  0.2331584424176258  0.2610920101978367
  0.1231563617759634  0.7597107375996424  0.7616478814890837
  0.6259419323050772  0.7595080570628412  0.7608700873312803
  0.3783677319639792  0.0153174109559301  0.5107752571143223
  0.3730729533412036  0.4911866469914031  0.0097413501307340
  0.8704540011542150  0.0187364731720078  0.5188281595736908
  0.8742649258458410  0.4925360850744097  0.0026739898839511
  0.3775013386732469  0.9905398546179790  0.2432932203612522
  0.3746147202614590  0.5040690720264955  0.7393554712234104
  0.8722497389013164  0.9902219657853182  0.2375093669756067
  0.8740738347036353  1.0006597825274703  0.7338477410062441
  0.3794829077524756  0.2354937087976302  0.5052339436850530
  0.3764679775211084  0.7607453398740016  0.0115526745152004
  0.3775126846964700  0.7379215207276700  0.5098413631176862
  0.8743243262587942  0.2383907167456555  0.5097991295839898
  0.8719202316439327  0.7600852967789425  0.0096480974007009
  0.8704950561846986  0.7303313774247320  0.5115011551892364
  0.3780269125063946  0.2614948771329902  0.2403488711258494
  0.3766989940817836  0.2452815554179467  0.7443369260789280
  0.3769530303216607  0.7550911841979879  0.2407928752631809
  0.3750134022109957  0.7477575633570666  0.7393457185289029
  0.8736709533618625  0.2613942239509028  0.2388860085103575
  0.8745137904740591  0.2484698493929721  0.7405813385757211
  0.8731113999370839  0.7578235693112542  0.2404165462584260
  0.9972888223482350  0.1265021815795029  0.0029827165847708
  0.0139405837129170  0.1294706013931322  0.5051284329680501
  0.9882291812601079  0.6249130188106989  0.9958134600695957
  0.0117022737839940  0.6273523804601822  0.4897651447648856
  0.4982417752963797  0.1241422972040489  0.9911860092493681
  0.4861367104466188  0.6272835607201590  0.9955221829413254
  0.5125665642275620  0.6268570447117602  0.4892031902361773
  0.9857958300724725  0.1279940029799172  0.2469289214721095
  0.9894690246272593  0.6224904200529131  0.2558789225059773
  0.0144335683681618  0.6247389262504968  0.7555386682223236
  0.4918230037148544  0.6260466951260764  0.2618010609700932
  0.9887558261620077  0.3756551143947936  0.4992702107375047
  0.4875777495482460  0.3715384396943596  0.5131753401670276
  0.4852402348398191  0.8788943499245045  0.5093559347236010
  0.9903214972154821  0.3748375622558863  0.7497526665229196
  0.9975833324084741  0.8739207194190922  0.2548428741539403
  0.9933069195461763  0.8757175389071297  0.7516397014514242
  0.5109466421953335  0.3712644828746605  0.2380170515384025
  0.4935614239865665  0.3734760966183649  0.7385032521283427
  0.5049825843678246  0.8757162982027575  0.2406624413747958
  0.4967073953579971  0.8753462713421843  0.7427885920721045
  0.2526254225080494  0.1245506428528848  0.9954930243627701
  0.2407349013391576  0.1246093298333170  0.4966367415587938
  0.2389461388293329  0.6267278244252291  0.5046439418560666
  0.7523123880961420  0.1254139831072371  0.9941937798538470
  0.7657084838286170  0.6259505491409337  0.9961865511724123
  0.7343273714902822  0.6257645331512356  0.4928574652494834
  0.2636840284125592  0.1263411423216848  0.2508911250620562
  0.2448847607969153  0.1247901945176315  0.7552643488340081
  0.2570632980863101  0.6234152067744722  0.2404920608632210
  0.7659466771872033  0.1254286756448439  0.2577228262546279
  0.7576811480958794  0.6254521471732573  0.2571832113010801
  0.7354600051126675  0.6254229575672198  0.7542933241144164
  0.2431600508479090  0.3759633319273535  0.9954837542418136
  0.2394188796714536  0.8734453372084997  0.0003654781085626
  0.7403678132053300  0.3748611436766252  0.9981535017998534
  0.7634131611655793  0.3724681989960849  0.5000097121881651
  0.7377798818716698  0.8745924379578668  0.0137699806883443
  0.7669617328748120  0.8760835590299176  0.5099976533869786
  0.2594554355947059  0.3763238215748595  0.7563092780295229
  0.2473413294076731  0.8752832764370951  0.2534988388689153
  0.2536800172855770  0.8734153788198287  0.7478547823679098
  0.7374916666883897  0.3738495282292546  0.2528537782379054
  0.7593471921639143  0.3740540509699318  0.7488840427032205
  0.7427432448678887  0.8751912399909245  0.2372192430264344
  0.7558239436799837  0.8753363696069840  0.7385142970724080
 
  0.00000000E+00  0.00000000E+00  0.00000000E+00
  0.00000000E+00  0.00000000E+00  0.00000000E+00
  0.00000000E+00  0.00000000E+00  0.00000000E+00
  0.00000000E+00  0.00000000E+00  0.00000000E+00
  0.00000000E+00  0.00000000E+00  0.00000000E+00
  0.00000000E+00  0.00000000E+00  0.00000000E+00
  0.00000000E+00  0.00000000E+00  0.00000000E+00
  0.00000000E+00  0.00000000E+00  0.00000000E+00
  0.00000000E+00  0.00000000E+00  0.00000000E+00
  0.00000000E+00  0.00000000E+00  0.00000000E+00
  0.00000000E+00  0.00000000E+00  0.00000000E+00
  0.00000000E+00  0.00000000E+00  0.00000000E+00
  0.00000000E+00  0.00000000E+00  0.00000000E+00
  0.00000000E+00  0.00000000E+00  0.00000000E+00
  0.00000000E+00  0.00000000E+00  0.00000000E+00
  0.00000000E+00  0.00000000E+00  0.00000000E+00
  0.00000000E+00  0.00000000E+00  0.00000000E+00
  0.00000000E+00  0.00000000E+00  0.00000000E+00
  0.00000000E+00  0.00000000E+00  0.00000000E+00
  0.00000000E+00  0.00000000E+00  0.00000000E+00
  0.00000000E+00  0.00000000E+00  0.00000000E+00
  0.00000000E+00  0.00000000E+00  0.00000000E+00
  0.00000000E+00  0.00000000E+00  0.00000000E+00
  0.00000000E+00  0.00000000E+00  0.00000000E+00
  0.00000000E+00  0.00000000E+00  0.00000000E+00
  0.00000000E+00  0.00000000E+00  0.00000000E+00
  0.00000000E+00  0.00000000E+00  0.00000000E+00
  0.00000000E+00  0.00000000E+00  0.00000000E+00
  0.00000000E+00  0.00000000E+00  0.00000000E+00
  0.00000000E+00  0.00000000E+00  0.00000000E+00
  0.00000000E+00  0.00000000E+00  0.00000000E+00
  0.00000000E+00  0.00000000E+00  0.00000000E+00
  0.00000000E+00  0.00000000E+00  0.00000000E+00
  0.00000000E+00  0.00000000E+00  0.00000000E+00
  0.00000000E+00  0.00000000E+00  0.00000000E+00
  0.00000000E+00  0.00000000E+00  0.00000000E+00
  0.00000000E+00  0.00000000E+00  0.00000000E+00
  0.00000000E+00  0.00000000E+00  0.00000000E+00
  0.00000000E+00  0.00000000E+00  0.00000000E+00
  0.00000000E+00  0.00000000E+00  0.00000000E+00
  0.00000000E+00  0.00000000E+00  0.00000000E+00
  0.00000000E+00  0.00000000E+00  0.00000000E+00
  0.00000000E+00  0.00000000E+00  0.00000000E+00
  0.00000000E+00  0.00000000E+00  0.00000000E+00
  0.00000000E+00  0.00000000E+00  0.00000000E+00
  0.00000000E+00  0.00000000E+00  0.00000000E+00
  0.00000000E+00  0.00000000E+00  0.00000000E+00
  0.00000000E+00  0.00000000E+00  0.00000000E+00
  0.00000000E+00  0.00000000E+00  0.00000000E+00
  0.00000000E+00  0.00000000E+00  0.00000000E+00
  0.00000000E+00  0.00000000E+00  0.00000000E+00
  0.00000000E+00  0.00000000E+00  0.00000000E+00
  0.00000000E+00  0.00000000E+00  0.00000000E+00
  0.00000000E+00  0.00000000E+00  0.00000000E+00
  0.00000000E+00  0.00000000E+00  0.00000000E+00
  0.00000000E+00  0.00000000E+00  0.00000000E+00
  0.00000000E+00  0.00000000E+00  0.00000000E+00
  0.00000000E+00  0.00000000E+00  0.00000000E+00
  0.00000000E+00  0.00000000E+00  0.00000000E+00
  0.00000000E+00  0.00000000E+00  0.00000000E+00
  0.00000000E+00  0.00000000E+00  0.00000000E+00
  0.00000000E+00  0.00000000E+00  0.00000000E+00
  0.00000000E+00  0.00000000E+00  0.00000000E+00
  0.00000000E+00  0.00000000E+00  0.00000000E+00
  0.00000000E+00  0.00000000E+00  0.00000000E+00
  0.00000000E+00  0.00000000E+00  0.00000000E+00
  0.00000000E+00  0.00000000E+00  0.00000000E+00
  0.00000000E+00  0.00000000E+00  0.00000000E+00
  0.00000000E+00  0.00000000E+00  0.00000000E+00
  0.00000000E+00  0.00000000E+00  0.00000000E+00
  0.00000000E+00  0.00000000E+00  0.00000000E+00
  0.00000000E+00  0.00000000E+00  0.00000000E+00
  0.00000000E+00  0.00000000E+00  0.00000000E+00
  0.00000000E+00  0.00000000E+00  0.00000000E+00
  0.00000000E+00  0.00000000E+00  0.00000000E+00
  0.00000000E+00  0.00000000E+00  0.00000000E+00
  0.00000000E+00  0.00000000E+00  0.00000000E+00
  0.00000000E+00  0.00000000E+00  0.00000000E+00
  0.00000000E+00  0.00000000E+00  0.00000000E+00
  0.00000000E+00  0.00000000E+00  0.00000000E+00
  0.00000000E+00  0.00000000E+00  0.00000000E+00
  0.00000000E+00  0.00000000E+00  0.00000000E+00
  0.00000000E+00  0.00000000E+00  0.00000000E+00
  0.00000000E+00  0.00000000E+00  0.00000000E+00
  0.00000000E+00  0.00000000E+00  0.00000000E+00
  0.00000000E+00  0.00000000E+00  0.00000000E+00
  0.00000000E+00  0.00000000E+00  0.00000000E+00
  0.00000000E+00  0.00000000E+00  0.00000000E+00
  0.00000000E+00  0.00000000E+00  0.00000000E+00
  0.00000000E+00  0.00000000E+00  0.00000000E+00
  0.00000000E+00  0.00000000E+00  0.00000000E+00
  0.00000000E+00  0.00000000E+00  0.00000000E+00
  0.00000000E+00  0.00000000E+00  0.00000000E+00
  0.00000000E+00  0.00000000E+00  0.00000000E+00
  0.00000000E+00  0.00000000E+00  0.00000000E+00
  0.00000000E+00  0.00000000E+00  0.00000000E+00
  0.00000000E+00  0.00000000E+00  0.00000000E+00
  0.00000000E+00  0.00000000E+00  0.00000000E+00
  0.00000000E+00  0.00000000E+00  0.00000000E+00
  0.00000000E+00  0.00000000E+00  0.00000000E+00
  0.00000000E+00  0.00000000E+00  0.00000000E+00
  0.00000000E+00  0.00000000E+00  0.00000000E+00
  0.00000000E+00  0.00000000E+00  0.00000000E+00
  0.00000000E+00  0.00000000E+00  0.00000000E+00
  0.00000000E+00  0.00000000E+00  0.00000000E+00
  0.00000000E+00  0.00000000E+00  0.00000000E+00
  0.00000000E+00  0.00000000E+00  0.00000000E+00
  0.00000000E+00  0.00000000E+00  0.00000000E+00
  0.00000000E+00  0.00000000E+00  0.00000000E+00
  0.00000000E+00  0.00000000E+00  0.00000000E+00
  0.00000000E+00  0.00000000E+00  0.00000000E+00
  0.00000000E+00  0.00000000E+00  0.00000000E+00
  0.00000000E+00  0.00000000E+00  0.00000000E+00
  0.00000000E+00  0.00000000E+00  0.00000000E+00
  0.00000000E+00  0.00000000E+00  0.00000000E+00
  0.00000000E+00  0.00000000E+00  0.00000000E+00
  0.00000000E+00  0.00000000E+00  0.00000000E+00
  0.00000000E+00  0.00000000E+00  0.00000000E+00
  0.00000000E+00  0.00000000E+00  0.00000000E+00
  0.00000000E+00  0.00000000E+00  0.00000000E+00
  0.00000000E+00  0.00000000E+00  0.00000000E+00
  0.00000000E+00  0.00000000E+00  0.00000000E+00
  0.00000000E+00  0.00000000E+00  0.00000000E+00
  0.00000000E+00  0.00000000E+00  0.00000000E+00
  0.00000000E+00  0.00000000E+00  0.00000000E+00
  0.00000000E+00  0.00000000E+00  0.00000000E+00
  0.00000000E+00  0.00000000E+00  0.00000000E+00
  0.00000000E+00  0.00000000E+00  0.00000000E+00
  0.00000000E+00  0.00000000E+00  0.00000000E+00
  0.00000000E+00  0.00000000E+00  0.00000000E+00
  0.00000000E+00  0.00000000E+00  0.00000000E+00
  0.00000000E+00  0.00000000E+00  0.00000000E+00
  0.00000000E+00  0.00000000E+00  0.00000000E+00
  0.00000000E+00  0.00000000E+00  0.00000000E+00
  0.00000000E+00  0.00000000E+00  0.00000000E+00
  0.00000000E+00  0.00000000E+00  0.00000000E+00
  0.00000000E+00  0.00000000E+00  0.00000000E+00
  0.00000000E+00  0.00000000E+00  0.00000000E+00
  0.00000000E+00  0.00000000E+00  0.00000000E+00
  0.00000000E+00  0.00000000E+00  0.00000000E+00
  0.00000000E+00  0.00000000E+00  0.00000000E+00
  0.00000000E+00  0.00000000E+00  0.00000000E+00
  0.00000000E+00  0.00000000E+00  0.00000000E+00
  0.00000000E+00  0.00000000E+00  0.00000000E+00
  0.00000000E+00  0.00000000E+00  0.00000000E+00
  0.00000000E+00  0.00000000E+00  0.00000000E+00
  0.00000000E+00  0.00000000E+00  0.00000000E+00
  0.00000000E+00  0.00000000E+00  0.00000000E+00
  0.00000000E+00  0.00000000E+00  0.00000000E+00
  0.00000000E+00  0.00000000E+00  0.00000000E+00
  0.00000000E+00  0.00000000E+00  0.00000000E+00
  0.00000000E+00  0.00000000E+00  0.00000000E+00
  0.00000000E+00  0.00000000E+00  0.00000000E+00
  0.00000000E+00  0.00000000E+00  0.00000000E+00
  0.00000000E+00  0.00000000E+00  0.00000000E+00
  0.00000000E+00  0.00000000E+00  0.00000000E+00
  0.00000000E+00  0.00000000E+00  0.00000000E+00
  0.00000000E+00  0.00000000E+00  0.00000000E+00
  0.00000000E+00  0.00000000E+00  0.00000000E+00
  0.00000000E+00  0.00000000E+00  0.00000000E+00
  0.00000000E+00  0.00000000E+00  0.00000000E+00
  0.00000000E+00  0.00000000E+00  0.00000000E+00
  0.00000000E+00  0.00000000E+00  0.00000000E+00
  0.00000000E+00  0.00000000E+00  0.00000000E+00
  0.00000000E+00  0.00000000E+00  0.00000000E+00
  0.00000000E+00  0.00000000E+00  0.00000000E+00
  0.00000000E+00  0.00000000E+00  0.00000000E+00
  0.00000000E+00  0.00000000E+00  0.00000000E+00
  0.00000000E+00  0.00000000E+00  0.00000000E+00
  0.00000000E+00  0.00000000E+00  0.00000000E+00
  0.00000000E+00  0.00000000E+00  0.00000000E+00
  0.00000000E+00  0.00000000E+00  0.00000000E+00
  0.00000000E+00  0.00000000E+00  0.00000000E+00
  0.00000000E+00  0.00000000E+00  0.00000000E+00
  0.00000000E+00  0.00000000E+00  0.00000000E+00
  0.00000000E+00  0.00000000E+00  0.00000000E+00
  0.00000000E+00  0.00000000E+00  0.00000000E+00
  0.00000000E+00  0.00000000E+00  0.00000000E+00
  0.00000000E+00  0.00000000E+00  0.00000000E+00
  0.00000000E+00  0.00000000E+00  0.00000000E+00
  0.00000000E+00  0.00000000E+00  0.00000000E+00
  0.00000000E+00  0.00000000E+00  0.00000000E+00
  0.00000000E+00  0.00000000E+00  0.00000000E+00
  0.00000000E+00  0.00000000E+00  0.00000000E+00
  0.00000000E+00  0.00000000E+00  0.00000000E+00
  0.00000000E+00  0.00000000E+00  0.00000000E+00
  0.00000000E+00  0.00000000E+00  0.00000000E+00
  0.00000000E+00  0.00000000E+00  0.00000000E+00
  0.00000000E+00  0.00000000E+00  0.00000000E+00
  0.00000000E+00  0.00000000E+00  0.00000000E+00
  0.00000000E+00  0.00000000E+00  0.00000000E+00
  0.00000000E+00  0.00000000E+00  0.00000000E+00
  0.00000000E+00  0.00000000E+00  0.00000000E+00
  0.00000000E+00  0.00000000E+00  0.00000000E+00
  0.00000000E+00  0.00000000E+00  0.00000000E+00
  0.00000000E+00  0.00000000E+00  0.00000000E+00
  0.00000000E+00  0.00000000E+00  0.00000000E+00
  0.00000000E+00  0.00000000E+00  0.00000000E+00
  0.00000000E+00  0.00000000E+00  0.00000000E+00
  0.00000000E+00  0.00000000E+00  0.00000000E+00
  0.00000000E+00  0.00000000E+00  0.00000000E+00
  0.00000000E+00  0.00000000E+00  0.00000000E+00
  0.00000000E+00  0.00000000E+00  0.00000000E+00
  0.00000000E+00  0.00000000E+00  0.00000000E+00
  0.00000000E+00  0.00000000E+00  0.00000000E+00
  0.00000000E+00  0.00000000E+00  0.00000000E+00
  0.00000000E+00  0.00000000E+00  0.00000000E+00
  0.00000000E+00  0.00000000E+00  0.00000000E+00
  0.00000000E+00  0.00000000E+00  0.00000000E+00
  0.00000000E+00  0.00000000E+00  0.00000000E+00
  0.00000000E+00  0.00000000E+00  0.00000000E+00
  0.00000000E+00  0.00000000E+00  0.00000000E+00
  0.00000000E+00  0.00000000E+00  0.00000000E+00
  0.00000000E+00  0.00000000E+00  0.00000000E+00
  0.00000000E+00  0.00000000E+00  0.00000000E+00
  0.00000000E+00  0.00000000E+00  0.00000000E+00
  0.00000000E+00  0.00000000E+00  0.00000000E+00
  0.00000000E+00  0.00000000E+00  0.00000000E+00
  0.00000000E+00  0.00000000E+00  0.00000000E+00
  0.00000000E+00  0.00000000E+00  0.00000000E+00
  0.00000000E+00  0.00000000E+00  0.00000000E+00
  0.00000000E+00  0.00000000E+00  0.00000000E+00
  0.00000000E+00  0.00000000E+00  0.00000000E+00
  0.00000000E+00  0.00000000E+00  0.00000000E+00
  0.00000000E+00  0.00000000E+00  0.00000000E+00
  0.00000000E+00  0.00000000E+00  0.00000000E+00
  0.00000000E+00  0.00000000E+00  0.00000000E+00
  0.00000000E+00  0.00000000E+00  0.00000000E+00
  0.00000000E+00  0.00000000E+00  0.00000000E+00
  0.00000000E+00  0.00000000E+00  0.00000000E+00
  0.00000000E+00  0.00000000E+00  0.00000000E+00
  0.00000000E+00  0.00000000E+00  0.00000000E+00
  0.00000000E+00  0.00000000E+00  0.00000000E+00
  0.00000000E+00  0.00000000E+00  0.00000000E+00
  0.00000000E+00  0.00000000E+00  0.00000000E+00
  0.00000000E+00  0.00000000E+00  0.00000000E+00
  0.00000000E+00  0.00000000E+00  0.00000000E+00
  0.00000000E+00  0.00000000E+00  0.00000000E+00
  0.00000000E+00  0.00000000E+00  0.00000000E+00
  0.00000000E+00  0.00000000E+00  0.00000000E+00
  0.00000000E+00  0.00000000E+00  0.00000000E+00
  0.00000000E+00  0.00000000E+00  0.00000000E+00
  0.00000000E+00  0.00000000E+00  0.00000000E+00
  0.00000000E+00  0.00000000E+00  0.00000000E+00
  0.00000000E+00  0.00000000E+00  0.00000000E+00
  0.00000000E+00  0.00000000E+00  0.00000000E+00
  0.00000000E+00  0.00000000E+00  0.00000000E+00
  0.00000000E+00  0.00000000E+00  0.00000000E+00
  0.00000000E+00  0.00000000E+00  0.00000000E+00
  0.00000000E+00  0.00000000E+00  0.00000000E+00
  0.00000000E+00  0.00000000E+00  0.00000000E+00
  0.00000000E+00  0.00000000E+00  0.00000000E+00
  0.00000000E+00  0.00000000E+00  0.00000000E+00
  0.00000000E+00  0.00000000E+00  0.00000000E+00
  0.00000000E+00  0.00000000E+00  0.00000000E+00
  0.00000000E+00  0.00000000E+00  0.00000000E+00
  0.00000000E+00  0.00000000E+00  0.00000000E+00
