TiOF2 2x2x2 config 0307                 
   1.00000000000000     
     7.8434301729188398   -0.0015440405550571   -0.0012181974006425
    -0.0015441100051621    7.8434224283912268    0.0012221396736048
    -0.0012496956897201    0.0012535263605133    7.5279513670543254
   Ti   O    F 
     8     8    16
Direct
  0.0002714795200604  0.0002713265016169  0.0001372928693654
  0.0003677067559557  0.0003678976179680  0.5001547583409878
  0.0021111497051444  0.5003405595267856  0.9823413154591114
  0.9783296230149373  0.4997993213086702  0.5021647403163072
  0.5003406088769953  0.0021112738978699  0.0176489741554458
  0.4997992032331571  0.9783289948907302  0.4978303857136887
  0.5012398733519368  0.5012400925979770  0.0000001142893231
  0.5032622118382815  0.5032622576924342  0.5000005702315927
  0.7540832354703737  0.4986599806563292  0.4965731730086306
  0.4986600461844783  0.7540836892869698  0.5034258083168948
  0.9998818476134836  0.9998744629573997  0.2482866547763419
  0.9998728211112684  0.9998799839696323  0.7516088414757310
  0.0025210429798225  0.5003720308774763  0.7519155533246943
  0.5003722612667788  0.0025209956259270  0.2480786275107471
  0.4987223116066896  0.4993312834281246  0.2444658291751509
  0.4993312812433133  0.4987221605624462  0.7555335268323046
  0.2522392937820540  0.0004192539731452  0.9958993691690495
  0.2492990561117455  0.0022357426824962  0.5043673148709485
  0.2466496573026519  0.5011347424848763  0.0041761612878464
  0.2436657465382538  0.4978380229205773  0.4968334450882134
  0.7483996746622531  0.0004231726564849  0.9959389764058648
  0.7508840282203727  0.0023591555524895  0.5042301696739313
  0.7566321609651455  0.5010713425313409  0.0065887616047354
  0.0004201626118522  0.2522414700533614  0.0040658260094526
  0.0022354360836359  0.2492953070557197  0.4955918052888287
  0.0004220960804617  0.7483964929505067  0.0040249965209773
  0.0023594945320629  0.7508884465962882  0.4957280479381047
  0.5011337599204625  0.2466506862020257  0.9958229731303595
  0.4978379984805781  0.2436654947262863  0.5031654909602501
  0.5010718801383643  0.7566315459613278  0.9934100351102452
  0.0071097419572238  0.5004727807571238  0.2444770693788809
  0.5004731088402057  0.0071100314976081  0.7555133917660015
 
  0.00000000E+00  0.00000000E+00  0.00000000E+00
  0.00000000E+00  0.00000000E+00  0.00000000E+00
  0.00000000E+00  0.00000000E+00  0.00000000E+00
  0.00000000E+00  0.00000000E+00  0.00000000E+00
  0.00000000E+00  0.00000000E+00  0.00000000E+00
  0.00000000E+00  0.00000000E+00  0.00000000E+00
  0.00000000E+00  0.00000000E+00  0.00000000E+00
  0.00000000E+00  0.00000000E+00  0.00000000E+00
  0.00000000E+00  0.00000000E+00  0.00000000E+00
  0.00000000E+00  0.00000000E+00  0.00000000E+00
  0.00000000E+00  0.00000000E+00  0.00000000E+00
  0.00000000E+00  0.00000000E+00  0.00000000E+00
  0.00000000E+00  0.00000000E+00  0.00000000E+00
  0.00000000E+00  0.00000000E+00  0.00000000E+00
  0.00000000E+00  0.00000000E+00  0.00000000E+00
  0.00000000E+00  0.00000000E+00  0.00000000E+00
  0.00000000E+00  0.00000000E+00  0.00000000E+00
  0.00000000E+00  0.00000000E+00  0.00000000E+00
  0.00000000E+00  0.00000000E+00  0.00000000E+00
  0.00000000E+00  0.00000000E+00  0.00000000E+00
  0.00000000E+00  0.00000000E+00  0.00000000E+00
  0.00000000E+00  0.00000000E+00  0.00000000E+00
  0.00000000E+00  0.00000000E+00  0.00000000E+00
  0.00000000E+00  0.00000000E+00  0.00000000E+00
  0.00000000E+00  0.00000000E+00  0.00000000E+00
  0.00000000E+00  0.00000000E+00  0.00000000E+00
  0.00000000E+00  0.00000000E+00  0.00000000E+00
  0.00000000E+00  0.00000000E+00  0.00000000E+00
  0.00000000E+00  0.00000000E+00  0.00000000E+00
  0.00000000E+00  0.00000000E+00  0.00000000E+00
  0.00000000E+00  0.00000000E+00  0.00000000E+00
  0.00000000E+00  0.00000000E+00  0.00000000E+00
