config 29                               
   1.00000000000000     
    15.4263309999999993    0.0000000000000000    0.0000000000000000
     0.0000000000000000   15.4263309999999993    0.0000000000000000
     0.0000000000000000    0.0000000000000000   15.4263309999999993
   Li   Ti   O    F 
     1    64    64   128
Direct
  0.3772697228796531  0.8170058066104744  0.1285868188462018
  0.9957864002507577  0.9957700789263910  0.9941581481571120
  0.9988597393419525  0.9916672154003123  0.4935798435025021
  0.0059478542062905  0.4963406982323875  0.9974509428144245
  0.9944097183117648  0.5036447998788987  0.5073045971004291
  0.4947726022705297  0.9940853295044434  0.0000930426855774
  0.5014547260200288  0.0081232539839533  0.4976988017533444
  0.5041664785551063  0.4945018917582402  0.9971482094063049
  0.4921311669183552  0.4978816647134963  0.4957181791259018
  0.0061867800435778  0.0034723486798995  0.2555380818683446
  0.0025010550427851  0.0078100161754904  0.7565732710449709
  0.9936508413219656  0.4941236850833590  0.2512100998176550
  0.9928916475714189  0.4999624017029021  0.7415532962700695
  0.5056040907388493  0.0078570069374422  0.2498998445396978
  0.4933821918491574  0.0055843110968681  0.7528503385083596
  0.4928526840378709  0.4956928094156368  0.2586548289185373
  0.5011241572633622  0.5035960627801259  0.7597076830398990
  0.9958786683393654  0.2583886485650524  0.0017804001443267
  0.9983683923527877  0.2482410058119839  0.4910683928104120
  0.9977795694058358  0.7586167747311308  0.0058836921523095
  0.9965626811155914  0.7568058490515241  0.5060016446332227
  0.4956067553413703  0.2582248891210952  0.0024769254219166
  0.5090744508823661  0.2449063248658945  0.4978422495426500
  0.5095385596326025  0.7557344767433207  0.9981769929294089
  0.5074103206986038  0.7524929604238011  0.5076267421386476
  0.9994268032140212  0.2588624239135910  0.2549140339503779
  0.0072115540466555  0.2431274241717887  0.7475514405289019
  0.0036741892734469  0.7486200869861648  0.2428575344240045
  0.9928742142698184  0.7504694337955939  0.7430519211552706
  0.5078506806229584  0.2411604134721230  0.2524950451857464
  0.5075457416812483  0.2433991903548218  0.7516766834205839
  0.5064089273463992  0.7515023264513019  0.2546448386048468
  0.5020650660873400  0.7411437976922812  0.7425131597430195
  0.2564847443156921  0.9981880652717905  0.0053931551201245
  0.2515613633790466  0.9928899236309476  0.5057696526013302
  0.2439768537468652  0.5088419657921150  0.9984631398731736
  0.2550644883246846  0.4938378037494360  0.5061415156644529
  0.7568541027501396  0.0010461654873950  0.9934630455630469
  0.7491784375752246  0.0074937853294159  0.4944183702360334
  0.7415819465541205  0.5008925712461050  0.0048858116055115
  0.7555636477968406  0.4981509776504325  0.5055474725732267
  0.2441316060042453  0.0022526187621281  0.2434179161721488
  0.2589253264041034  0.9974835426492348  0.7441812434237676
  0.2552858634620350  0.4923290242554401  0.2521729765981604
  0.2468696727603259  0.5046589737510061  0.7399863826940916
  0.7439634522284635  0.0006693801524520  0.2552181697426832
  0.7477556865521606  0.0074006286036052  0.7555472610024907
  0.7553828641114819  0.4988826117953025  0.2424233490021166
  0.7573933582435117  0.4982201233178003  0.7423626000912833
  0.2573878661437021  0.2531286624820268  0.0062764859045359
  0.2539095479191644  0.2570672118160147  0.5046333341562104
  0.2499984483746474  0.7412045002177408  0.9914133544451502
  0.2522570570628559  0.7545517543114286  0.4937804511248487
  0.7571359828788289  0.2524076208646591  0.0080759944507065
  0.7422021319902328  0.2428215900706618  0.4975145703947348
  0.7431777345933384  0.7492922653200935  0.9934542264162971
  0.7416901667903133  0.7526183945381746  0.4922923350087700
  0.2506113531228920  0.2590719109978252  0.2439452087776459
  0.2445099065358960  0.2523926082613457  0.7437022663571682
  0.2403357431941657  0.7468056138790686  0.2587456354557460
  0.2477771196329712  0.7402117154916681  0.7542091633342807
  0.7414230126699124  0.2520666518960937  0.2426612530622947
  0.7447504069561006  0.2426949804654797  0.7509144896879860
  0.7440103989225904  0.7507066584261466  0.2553414389007571
  0.7572227999025003  0.7502729648766433  0.7556587293178794
  0.0110445073602108  0.5038072405135381  0.6245874507986429
  0.0002617699056202  0.0050497605340780  0.3759210894672336
  0.0053639309806428  0.0019031937922591  0.8728458979244422
  0.4967073984849932  0.4815890430354628  0.3767448738046681
  0.4925541617926470  0.4884678512830263  0.8756724903111675
  0.9976838795488021  0.7448898224638612  0.1253851769116636
  0.0035474807591029  0.7450223763586195  0.6243854375617346
  0.5045645701130681  0.7404533318533240  0.6246286841705455
  0.9900519741921840  0.2481036590583940  0.3762515029574232
  0.2606842484430416  0.9916829270285774  0.1253008105210327
  0.2612926353715253  0.9976385550347757  0.6246338278073225
  0.2377921472399152  0.4871353408537686  0.6256367470890609
  0.7483918708858539  0.4880519516304105  0.1253454139374384
  0.7447058263391000  0.4898003053116895  0.6243997549391551
  0.7459827193366309  0.0028623481849337  0.3758618513039451
  0.7415332338304665  0.0030818219041251  0.8733676058217839
  0.2418918744144278  0.2581844618104867  0.1255177364691420
  0.2497782269987709  0.2557424370076902  0.6247218302212261
  0.7384969717489440  0.2636309003236619  0.1263551990728615
  0.2555637835074762  0.7382210231748658  0.3756167448790961
  0.2533958401367684  0.7426271769440476  0.8743942208680551
  0.7540548485030598  0.7481900825027665  0.3751826624107366
  0.7483034824653316  0.7485129610034562  0.8752980673890534
  0.1249371979050409  0.5088235305078044  0.9927339299525073
  0.6254864077027946  0.5111488066836500  0.9969169358456540
  0.1249263051112095  0.0036048261406805  0.2463734919437925
  0.6243392348756132  0.9993544158475842  0.2457944501684892
  0.6245434854906122  0.2623540737213830  0.4900051624108102
  0.6249888174369076  0.7391042089003577  0.0040837858078362
  0.6238412965672708  0.7675140529951463  0.4943871360596859
  0.1253245778359613  0.2538499236706073  0.7526694347840319
  0.1237778456544163  0.7516440118076133  0.2516987233975883
  0.6253921116249046  0.2461106775163984  0.2651637988093256
  0.6261820848230286  0.2547673607652001  0.7516619856062121
  0.6282320635439831  0.7589945792186512  0.2486970568903857
  0.3758003639764951  0.9956567382318511  0.9894745592935905
  0.3753240359839509  0.5087894615022037  0.5063786907877699
  0.8730718464767335  0.9989434049207304  0.9952873736506831
  0.8754627983519967  0.5081241725984569  0.5023981944307252
  0.3765359056607167  0.9984901732503957  0.7619740059351798
  0.3733524355651312  0.4946000512327728  0.2471908711717177
  0.8757150915532890  0.4970000175140754  0.2500767102118644
  0.8755028269528111  0.5109927002310215  0.7433728605516876
  0.3761509888262253  0.2514266536111478  0.0079620448838398
  0.8745547937765465  0.2525796976607353  0.0094120945896279
  0.8748226579418912  0.7417027486447836  0.7487533216007805
  0.5155178386205392  0.1219628015472196  0.4842679170425512
  0.9991164954796119  0.1263681463238413  0.7445036148839961
  0.4961142027185019  0.1247840879190818  0.2708298730527972
  0.5038001836359385  0.1240262038955606  0.7606401764573860
  0.5031078482193365  0.6247550473263317  0.7601290408012460
  0.0041787095754700  0.3761834660435639  0.0053646064761566
  0.0060073232057434  0.8752806029216558  0.0023569005624893
  0.9873463646372826  0.8750037411844644  0.4993927102150835
  0.5065043195386707  0.3739893585941871  0.0156452074791957
  0.5044353883894459  0.8756394384077311  0.0163398290103345
  0.0084163892702165  0.3743510631080511  0.2461676579257031
  0.2601820739936400  0.6261272977640999  0.0124375501127219
  0.7349076520734599  0.1253187016586992  0.5070428231890745
  0.2449652530784050  0.6242224300498478  0.7405626054354357
  0.7497421307406782  0.1252543658453504  0.7405643499569408
  0.2580882601205303  0.3729686494130888  0.4880343792471535
  0.2591833797923684  0.8749601035286361  0.4936634789141721
  0.2408639162301753  0.3748702656413627  0.2635401436398581
  0.9953747950855032  0.0033819296235791  0.1263070169757157
  0.9987687267294234  0.9980323875111949  0.6236160724340252
  0.0026600114259026  0.5111054588111159  0.1250427525696338
  0.4885998938456027  0.0221120549643459  0.1254453721291995
  0.4912988033269059  0.0116786783290337  0.6223877028580347
  0.5031632780618125  0.5145264510558860  0.1277232553295136
  0.5100889007534235  0.5074938566803695  0.6249518884494876
  0.0009187631690608  0.4943371294468548  0.3761716155706338
  0.9927689002793727  0.4963309567952692  0.8728965693591917
  0.5077288030399956  0.9775513371772178  0.3759685093960030
  0.5186175210375978  0.9859118687199242  0.8751251372897002
  0.0124344109859180  0.2450814467565010  0.1271309486189764
  0.0041094893953257  0.2578797358165019  0.6212523917855677
  0.5120093442192228  0.2289737976952750  0.1270016378711389
  0.5031828089522321  0.2341656651998676  0.6227802806876426
  0.4870534635931776  0.7388864839773035  0.1226841142613537
  0.9919830763549911  0.2518932507534402  0.8743203361758489
  0.9938139065076044  0.7521367918935837  0.3754991802102765
  0.0020574909690438  0.7522846299573516  0.8741177219543914
  0.4875520375811675  0.2695365864208341  0.3758170112403860
  0.4963028457812371  0.2646466476304923  0.8750233892207007
  0.4849153996796645  0.7665884585828167  0.3818887720021991
  0.4964264155375346  0.7643454467618369  0.8740310298630263
  0.2415735258708125  0.4863890180930568  0.1247275561772625
  0.7528020170898628  0.9999092157277900  0.1258940095585217
  0.7517049822445117  0.9928785892081891  0.6228922814503264
  0.2459450922910094  0.0069247239834525  0.3752127771241689
  0.2391247940692764  0.0010996197645952  0.8743448940752145
  0.2502290301938359  0.5184380314522699  0.3750666590678691
  0.2616817927191875  0.5087084151590844  0.8741137203107385
  0.7481838950391833  0.5100827231316387  0.3750881479613000
  0.7550190620882020  0.5096543140470757  0.8742487457220989
  0.2581972261411849  0.7685775546687026  0.1255283151941669
  0.2450627467265036  0.7581286952979411  0.6251274414516672
  0.7474782579480888  0.2645046308272825  0.6228021403745316
  0.7571085738612950  0.7519059156175629  0.1241218648991733
  0.7454937809404640  0.7522217526783663  0.6250446879653069
  0.2576787309418975  0.2375954168299188  0.3739032958287254
  0.2560248796041407  0.2446927632510167  0.8753557431910721
  0.7658332624287993  0.2389332090359986  0.3741984163221659
  0.7567792271223297  0.2405557949112733  0.8762385027380972
  0.1263857765424490  0.0055665020980697  0.0074571286849832
  0.1249903012508895  0.9940116184599077  0.5044169058503911
  0.1237998335957542  0.4938392498905486  0.4899446904100628
  0.6244155517175116  0.0052585590128302  0.0111266886932029
  0.6235273589394410  0.9793762964569268  0.5071019851432439
  0.6255206747356254  0.4869072773948062  0.4963611409086255
  0.1275678564411393  0.9984732691765359  0.7410718405586394
  0.1242755946272638  0.5094966213121239  0.2514010697833058
  0.1238117082067873  0.4911700181350653  0.7650104595050209
  0.6236185823952169  0.9943032857276393  0.7358746321616465
  0.6251219286272658  0.4976724116535394  0.2522693534912364
  0.6267989496720645  0.4902662932803921  0.7582712366164444
  0.1253239884427444  0.2479802414917600  0.9907441427047914
  0.1238955380755868  0.2534501571291159  0.4929426393784482
  0.1247941775082992  0.7398521682764780  0.0024412900919373
  0.1239587629666943  0.7582482727036677  0.4941488995715275
  0.6262756198871742  0.2464184950412331  0.9909409912012350
  0.1245087422349371  0.2366688352952835  0.2611345350631638
  0.1236857710652544  0.7563716652771575  0.7532993705563698
  0.6259141873691405  0.7570439520733458  0.7532184730826330
  0.3776939887298099  0.0135384050226577  0.4870217664728074
  0.3734501308102764  0.4928077625612204  0.0101670945867198
  0.8743246596568568  0.0166889137898352  0.5028614786446397
  0.8748818638664986  0.4948722990349097  0.0017458643314328
  0.3756641003608152  0.9983068686193661  0.2613261127401074
  0.3747733843244916  0.5007111454203965  0.7386204346888050
  0.8738522414378664  0.0027483082741213  0.2508329586439544
  0.8745257349941582  0.9962007066419503  0.7485188689340774
  0.3793162746031413  0.2349320733222910  0.5016771872885712
  0.3741050640629666  0.7679526491678459  0.0071155586873388
  0.3756327533139228  0.7370921719023400  0.5087777502317934
  0.8743211978632317  0.2410734117940549  0.5096168930848606
  0.8725340471103706  0.7604094723161907  0.9962221927852681
  0.8724287912419015  0.7356506379473586  0.5063381819451607
  0.3777959964967863  0.2568965466161828  0.2420557489298858
  0.3769505188100197  0.2477786256082410  0.7478682524535287
  0.3736960796689885  0.7560238795908845  0.2408721111897947
  0.3745675204247405  0.7524329101315388  0.7459774589465908
  0.8741701551676755  0.2567083249722160  0.2395839150296766
  0.8748204911955000  0.2524207000153922  0.7430940269953581
  0.8752244215428533  0.7460990772127474  0.2498820917340936
  0.0009989642758867  0.1274774130209977  0.0003868827142526
  0.0071639847277112  0.1257096901972758  0.5083029660371068
  0.9895357674370615  0.6260259077547445  0.9926280383508370
  0.0092462776395195  0.6268119749305328  0.4906932180614803
  0.5012385598803490  0.1245929821981449  0.9855089222699434
  0.4852633102314101  0.6288815243986434  0.9894984368240785
  0.5126634381684880  0.6255292290806622  0.4869019617073107
  0.9917522488088153  0.1282441677858728  0.2467258358704996
  0.9987287092717594  0.6236837187953270  0.2594221134953685
  0.0133987432672953  0.6248105410484612  0.7574136226650268
  0.5001399997466507  0.6211761673196108  0.2694343928094725
  0.9941975244305326  0.3740086111232586  0.4996359668495174
  0.4878362625126300  0.3700185487502949  0.5172831578403105
  0.4829728116106295  0.8791206932435713  0.5136851040940726
  0.9934597947614350  0.3750871359605270  0.7491996631571567
  0.9946185654816873  0.8764732590643973  0.2496899429722887
  0.9978700276375889  0.8756421108433301  0.7468053145228168
  0.5046537669832674  0.3706948732818773  0.2328144896017079
  0.4954066898483518  0.3729562744034638  0.7359638392969927
  0.4884716346998772  0.8814269905005361  0.2257534323925228
  0.5001104318729617  0.8758483677776638  0.7404504391420090
  0.2498544300559118  0.1250171612079072  0.0025003662307768
  0.2428851135549976  0.1239018175028619  0.5023446361151755
  0.2392800192820417  0.6262203414108143  0.5121664885033397
  0.7473815423771129  0.1267543492770500  0.0080889732059433
  0.7648428780728622  0.6257622644741261  0.0071050468054707
  0.7359026251728409  0.6252508921238515  0.5059176979429409
  0.2587029742182878  0.1266038460194352  0.2438419704411032
  0.2500087165560956  0.1246008205951981  0.7506523665011215
  0.2523121228502205  0.6248404396203000  0.2324796789534673
  0.7563486719705423  0.1266202275557262  0.2428078800475504
  0.7469482699774801  0.6246458822345886  0.2422262468978786
  0.7365007702633335  0.6247867974717281  0.7437605353275103
  0.2464454301086150  0.3772109887352357  0.9889768498898377
  0.2399952924031084  0.8736009249817087  0.9941319195808873
  0.7444186663599694  0.3754693283457300  0.9832084237556060
  0.7623221150169286  0.3723283782659763  0.4862757577921215
  0.7403606378824890  0.8753859361028731  0.0033446273998692
  0.7673710927767772  0.8769218779507497  0.4998327848080493
  0.2570064064868589  0.3761457934913395  0.7638811642867509
  0.2532122634412914  0.8753703179362375  0.2598788178466620
  0.2489156608423997  0.8731877704165001  0.7533883935361274
  0.7484175502386634  0.3744804024731323  0.2694003516493382
  0.7583909713550554  0.3741865798393391  0.7621455203224983
  0.7607589692578998  0.8766034486045271  0.2473963195496083
  0.7529842054194091  0.8754144154448227  0.7483128317021155
 
  0.00000000E+00  0.00000000E+00  0.00000000E+00
  0.00000000E+00  0.00000000E+00  0.00000000E+00
  0.00000000E+00  0.00000000E+00  0.00000000E+00
  0.00000000E+00  0.00000000E+00  0.00000000E+00
  0.00000000E+00  0.00000000E+00  0.00000000E+00
  0.00000000E+00  0.00000000E+00  0.00000000E+00
  0.00000000E+00  0.00000000E+00  0.00000000E+00
  0.00000000E+00  0.00000000E+00  0.00000000E+00
  0.00000000E+00  0.00000000E+00  0.00000000E+00
  0.00000000E+00  0.00000000E+00  0.00000000E+00
  0.00000000E+00  0.00000000E+00  0.00000000E+00
  0.00000000E+00  0.00000000E+00  0.00000000E+00
  0.00000000E+00  0.00000000E+00  0.00000000E+00
  0.00000000E+00  0.00000000E+00  0.00000000E+00
  0.00000000E+00  0.00000000E+00  0.00000000E+00
  0.00000000E+00  0.00000000E+00  0.00000000E+00
  0.00000000E+00  0.00000000E+00  0.00000000E+00
  0.00000000E+00  0.00000000E+00  0.00000000E+00
  0.00000000E+00  0.00000000E+00  0.00000000E+00
  0.00000000E+00  0.00000000E+00  0.00000000E+00
  0.00000000E+00  0.00000000E+00  0.00000000E+00
  0.00000000E+00  0.00000000E+00  0.00000000E+00
  0.00000000E+00  0.00000000E+00  0.00000000E+00
  0.00000000E+00  0.00000000E+00  0.00000000E+00
  0.00000000E+00  0.00000000E+00  0.00000000E+00
  0.00000000E+00  0.00000000E+00  0.00000000E+00
  0.00000000E+00  0.00000000E+00  0.00000000E+00
  0.00000000E+00  0.00000000E+00  0.00000000E+00
  0.00000000E+00  0.00000000E+00  0.00000000E+00
  0.00000000E+00  0.00000000E+00  0.00000000E+00
  0.00000000E+00  0.00000000E+00  0.00000000E+00
  0.00000000E+00  0.00000000E+00  0.00000000E+00
  0.00000000E+00  0.00000000E+00  0.00000000E+00
  0.00000000E+00  0.00000000E+00  0.00000000E+00
  0.00000000E+00  0.00000000E+00  0.00000000E+00
  0.00000000E+00  0.00000000E+00  0.00000000E+00
  0.00000000E+00  0.00000000E+00  0.00000000E+00
  0.00000000E+00  0.00000000E+00  0.00000000E+00
  0.00000000E+00  0.00000000E+00  0.00000000E+00
  0.00000000E+00  0.00000000E+00  0.00000000E+00
  0.00000000E+00  0.00000000E+00  0.00000000E+00
  0.00000000E+00  0.00000000E+00  0.00000000E+00
  0.00000000E+00  0.00000000E+00  0.00000000E+00
  0.00000000E+00  0.00000000E+00  0.00000000E+00
  0.00000000E+00  0.00000000E+00  0.00000000E+00
  0.00000000E+00  0.00000000E+00  0.00000000E+00
  0.00000000E+00  0.00000000E+00  0.00000000E+00
  0.00000000E+00  0.00000000E+00  0.00000000E+00
  0.00000000E+00  0.00000000E+00  0.00000000E+00
  0.00000000E+00  0.00000000E+00  0.00000000E+00
  0.00000000E+00  0.00000000E+00  0.00000000E+00
  0.00000000E+00  0.00000000E+00  0.00000000E+00
  0.00000000E+00  0.00000000E+00  0.00000000E+00
  0.00000000E+00  0.00000000E+00  0.00000000E+00
  0.00000000E+00  0.00000000E+00  0.00000000E+00
  0.00000000E+00  0.00000000E+00  0.00000000E+00
  0.00000000E+00  0.00000000E+00  0.00000000E+00
  0.00000000E+00  0.00000000E+00  0.00000000E+00
  0.00000000E+00  0.00000000E+00  0.00000000E+00
  0.00000000E+00  0.00000000E+00  0.00000000E+00
  0.00000000E+00  0.00000000E+00  0.00000000E+00
  0.00000000E+00  0.00000000E+00  0.00000000E+00
  0.00000000E+00  0.00000000E+00  0.00000000E+00
  0.00000000E+00  0.00000000E+00  0.00000000E+00
  0.00000000E+00  0.00000000E+00  0.00000000E+00
  0.00000000E+00  0.00000000E+00  0.00000000E+00
  0.00000000E+00  0.00000000E+00  0.00000000E+00
  0.00000000E+00  0.00000000E+00  0.00000000E+00
  0.00000000E+00  0.00000000E+00  0.00000000E+00
  0.00000000E+00  0.00000000E+00  0.00000000E+00
  0.00000000E+00  0.00000000E+00  0.00000000E+00
  0.00000000E+00  0.00000000E+00  0.00000000E+00
  0.00000000E+00  0.00000000E+00  0.00000000E+00
  0.00000000E+00  0.00000000E+00  0.00000000E+00
  0.00000000E+00  0.00000000E+00  0.00000000E+00
  0.00000000E+00  0.00000000E+00  0.00000000E+00
  0.00000000E+00  0.00000000E+00  0.00000000E+00
  0.00000000E+00  0.00000000E+00  0.00000000E+00
  0.00000000E+00  0.00000000E+00  0.00000000E+00
  0.00000000E+00  0.00000000E+00  0.00000000E+00
  0.00000000E+00  0.00000000E+00  0.00000000E+00
  0.00000000E+00  0.00000000E+00  0.00000000E+00
  0.00000000E+00  0.00000000E+00  0.00000000E+00
  0.00000000E+00  0.00000000E+00  0.00000000E+00
  0.00000000E+00  0.00000000E+00  0.00000000E+00
  0.00000000E+00  0.00000000E+00  0.00000000E+00
  0.00000000E+00  0.00000000E+00  0.00000000E+00
  0.00000000E+00  0.00000000E+00  0.00000000E+00
  0.00000000E+00  0.00000000E+00  0.00000000E+00
  0.00000000E+00  0.00000000E+00  0.00000000E+00
  0.00000000E+00  0.00000000E+00  0.00000000E+00
  0.00000000E+00  0.00000000E+00  0.00000000E+00
  0.00000000E+00  0.00000000E+00  0.00000000E+00
  0.00000000E+00  0.00000000E+00  0.00000000E+00
  0.00000000E+00  0.00000000E+00  0.00000000E+00
  0.00000000E+00  0.00000000E+00  0.00000000E+00
  0.00000000E+00  0.00000000E+00  0.00000000E+00
  0.00000000E+00  0.00000000E+00  0.00000000E+00
  0.00000000E+00  0.00000000E+00  0.00000000E+00
  0.00000000E+00  0.00000000E+00  0.00000000E+00
  0.00000000E+00  0.00000000E+00  0.00000000E+00
  0.00000000E+00  0.00000000E+00  0.00000000E+00
  0.00000000E+00  0.00000000E+00  0.00000000E+00
  0.00000000E+00  0.00000000E+00  0.00000000E+00
  0.00000000E+00  0.00000000E+00  0.00000000E+00
  0.00000000E+00  0.00000000E+00  0.00000000E+00
  0.00000000E+00  0.00000000E+00  0.00000000E+00
  0.00000000E+00  0.00000000E+00  0.00000000E+00
  0.00000000E+00  0.00000000E+00  0.00000000E+00
  0.00000000E+00  0.00000000E+00  0.00000000E+00
  0.00000000E+00  0.00000000E+00  0.00000000E+00
  0.00000000E+00  0.00000000E+00  0.00000000E+00
  0.00000000E+00  0.00000000E+00  0.00000000E+00
  0.00000000E+00  0.00000000E+00  0.00000000E+00
  0.00000000E+00  0.00000000E+00  0.00000000E+00
  0.00000000E+00  0.00000000E+00  0.00000000E+00
  0.00000000E+00  0.00000000E+00  0.00000000E+00
  0.00000000E+00  0.00000000E+00  0.00000000E+00
  0.00000000E+00  0.00000000E+00  0.00000000E+00
  0.00000000E+00  0.00000000E+00  0.00000000E+00
  0.00000000E+00  0.00000000E+00  0.00000000E+00
  0.00000000E+00  0.00000000E+00  0.00000000E+00
  0.00000000E+00  0.00000000E+00  0.00000000E+00
  0.00000000E+00  0.00000000E+00  0.00000000E+00
  0.00000000E+00  0.00000000E+00  0.00000000E+00
  0.00000000E+00  0.00000000E+00  0.00000000E+00
  0.00000000E+00  0.00000000E+00  0.00000000E+00
  0.00000000E+00  0.00000000E+00  0.00000000E+00
  0.00000000E+00  0.00000000E+00  0.00000000E+00
  0.00000000E+00  0.00000000E+00  0.00000000E+00
  0.00000000E+00  0.00000000E+00  0.00000000E+00
  0.00000000E+00  0.00000000E+00  0.00000000E+00
  0.00000000E+00  0.00000000E+00  0.00000000E+00
  0.00000000E+00  0.00000000E+00  0.00000000E+00
  0.00000000E+00  0.00000000E+00  0.00000000E+00
  0.00000000E+00  0.00000000E+00  0.00000000E+00
  0.00000000E+00  0.00000000E+00  0.00000000E+00
  0.00000000E+00  0.00000000E+00  0.00000000E+00
  0.00000000E+00  0.00000000E+00  0.00000000E+00
  0.00000000E+00  0.00000000E+00  0.00000000E+00
  0.00000000E+00  0.00000000E+00  0.00000000E+00
  0.00000000E+00  0.00000000E+00  0.00000000E+00
  0.00000000E+00  0.00000000E+00  0.00000000E+00
  0.00000000E+00  0.00000000E+00  0.00000000E+00
  0.00000000E+00  0.00000000E+00  0.00000000E+00
  0.00000000E+00  0.00000000E+00  0.00000000E+00
  0.00000000E+00  0.00000000E+00  0.00000000E+00
  0.00000000E+00  0.00000000E+00  0.00000000E+00
  0.00000000E+00  0.00000000E+00  0.00000000E+00
  0.00000000E+00  0.00000000E+00  0.00000000E+00
  0.00000000E+00  0.00000000E+00  0.00000000E+00
  0.00000000E+00  0.00000000E+00  0.00000000E+00
  0.00000000E+00  0.00000000E+00  0.00000000E+00
  0.00000000E+00  0.00000000E+00  0.00000000E+00
  0.00000000E+00  0.00000000E+00  0.00000000E+00
  0.00000000E+00  0.00000000E+00  0.00000000E+00
  0.00000000E+00  0.00000000E+00  0.00000000E+00
  0.00000000E+00  0.00000000E+00  0.00000000E+00
  0.00000000E+00  0.00000000E+00  0.00000000E+00
  0.00000000E+00  0.00000000E+00  0.00000000E+00
  0.00000000E+00  0.00000000E+00  0.00000000E+00
  0.00000000E+00  0.00000000E+00  0.00000000E+00
  0.00000000E+00  0.00000000E+00  0.00000000E+00
  0.00000000E+00  0.00000000E+00  0.00000000E+00
  0.00000000E+00  0.00000000E+00  0.00000000E+00
  0.00000000E+00  0.00000000E+00  0.00000000E+00
  0.00000000E+00  0.00000000E+00  0.00000000E+00
  0.00000000E+00  0.00000000E+00  0.00000000E+00
  0.00000000E+00  0.00000000E+00  0.00000000E+00
  0.00000000E+00  0.00000000E+00  0.00000000E+00
  0.00000000E+00  0.00000000E+00  0.00000000E+00
  0.00000000E+00  0.00000000E+00  0.00000000E+00
  0.00000000E+00  0.00000000E+00  0.00000000E+00
  0.00000000E+00  0.00000000E+00  0.00000000E+00
  0.00000000E+00  0.00000000E+00  0.00000000E+00
  0.00000000E+00  0.00000000E+00  0.00000000E+00
  0.00000000E+00  0.00000000E+00  0.00000000E+00
  0.00000000E+00  0.00000000E+00  0.00000000E+00
  0.00000000E+00  0.00000000E+00  0.00000000E+00
  0.00000000E+00  0.00000000E+00  0.00000000E+00
  0.00000000E+00  0.00000000E+00  0.00000000E+00
  0.00000000E+00  0.00000000E+00  0.00000000E+00
  0.00000000E+00  0.00000000E+00  0.00000000E+00
  0.00000000E+00  0.00000000E+00  0.00000000E+00
  0.00000000E+00  0.00000000E+00  0.00000000E+00
  0.00000000E+00  0.00000000E+00  0.00000000E+00
  0.00000000E+00  0.00000000E+00  0.00000000E+00
  0.00000000E+00  0.00000000E+00  0.00000000E+00
  0.00000000E+00  0.00000000E+00  0.00000000E+00
  0.00000000E+00  0.00000000E+00  0.00000000E+00
  0.00000000E+00  0.00000000E+00  0.00000000E+00
  0.00000000E+00  0.00000000E+00  0.00000000E+00
  0.00000000E+00  0.00000000E+00  0.00000000E+00
  0.00000000E+00  0.00000000E+00  0.00000000E+00
  0.00000000E+00  0.00000000E+00  0.00000000E+00
  0.00000000E+00  0.00000000E+00  0.00000000E+00
  0.00000000E+00  0.00000000E+00  0.00000000E+00
  0.00000000E+00  0.00000000E+00  0.00000000E+00
  0.00000000E+00  0.00000000E+00  0.00000000E+00
  0.00000000E+00  0.00000000E+00  0.00000000E+00
  0.00000000E+00  0.00000000E+00  0.00000000E+00
  0.00000000E+00  0.00000000E+00  0.00000000E+00
  0.00000000E+00  0.00000000E+00  0.00000000E+00
  0.00000000E+00  0.00000000E+00  0.00000000E+00
  0.00000000E+00  0.00000000E+00  0.00000000E+00
  0.00000000E+00  0.00000000E+00  0.00000000E+00
  0.00000000E+00  0.00000000E+00  0.00000000E+00
  0.00000000E+00  0.00000000E+00  0.00000000E+00
  0.00000000E+00  0.00000000E+00  0.00000000E+00
  0.00000000E+00  0.00000000E+00  0.00000000E+00
  0.00000000E+00  0.00000000E+00  0.00000000E+00
  0.00000000E+00  0.00000000E+00  0.00000000E+00
  0.00000000E+00  0.00000000E+00  0.00000000E+00
  0.00000000E+00  0.00000000E+00  0.00000000E+00
  0.00000000E+00  0.00000000E+00  0.00000000E+00
  0.00000000E+00  0.00000000E+00  0.00000000E+00
  0.00000000E+00  0.00000000E+00  0.00000000E+00
  0.00000000E+00  0.00000000E+00  0.00000000E+00
  0.00000000E+00  0.00000000E+00  0.00000000E+00
  0.00000000E+00  0.00000000E+00  0.00000000E+00
  0.00000000E+00  0.00000000E+00  0.00000000E+00
  0.00000000E+00  0.00000000E+00  0.00000000E+00
  0.00000000E+00  0.00000000E+00  0.00000000E+00
  0.00000000E+00  0.00000000E+00  0.00000000E+00
  0.00000000E+00  0.00000000E+00  0.00000000E+00
  0.00000000E+00  0.00000000E+00  0.00000000E+00
  0.00000000E+00  0.00000000E+00  0.00000000E+00
  0.00000000E+00  0.00000000E+00  0.00000000E+00
  0.00000000E+00  0.00000000E+00  0.00000000E+00
  0.00000000E+00  0.00000000E+00  0.00000000E+00
  0.00000000E+00  0.00000000E+00  0.00000000E+00
  0.00000000E+00  0.00000000E+00  0.00000000E+00
  0.00000000E+00  0.00000000E+00  0.00000000E+00
  0.00000000E+00  0.00000000E+00  0.00000000E+00
  0.00000000E+00  0.00000000E+00  0.00000000E+00
  0.00000000E+00  0.00000000E+00  0.00000000E+00
  0.00000000E+00  0.00000000E+00  0.00000000E+00
  0.00000000E+00  0.00000000E+00  0.00000000E+00
  0.00000000E+00  0.00000000E+00  0.00000000E+00
  0.00000000E+00  0.00000000E+00  0.00000000E+00
  0.00000000E+00  0.00000000E+00  0.00000000E+00
  0.00000000E+00  0.00000000E+00  0.00000000E+00
  0.00000000E+00  0.00000000E+00  0.00000000E+00
  0.00000000E+00  0.00000000E+00  0.00000000E+00
  0.00000000E+00  0.00000000E+00  0.00000000E+00
  0.00000000E+00  0.00000000E+00  0.00000000E+00
  0.00000000E+00  0.00000000E+00  0.00000000E+00
  0.00000000E+00  0.00000000E+00  0.00000000E+00
  0.00000000E+00  0.00000000E+00  0.00000000E+00
  0.00000000E+00  0.00000000E+00  0.00000000E+00
  0.00000000E+00  0.00000000E+00  0.00000000E+00
  0.00000000E+00  0.00000000E+00  0.00000000E+00
  0.00000000E+00  0.00000000E+00  0.00000000E+00
  0.00000000E+00  0.00000000E+00  0.00000000E+00
  0.00000000E+00  0.00000000E+00  0.00000000E+00
  0.00000000E+00  0.00000000E+00  0.00000000E+00
  0.00000000E+00  0.00000000E+00  0.00000000E+00
