config 23                               
   1.00000000000000     
    15.4263309999999993    0.0000000000000000    0.0000000000000000
     0.0000000000000000   15.4263309999999993    0.0000000000000000
     0.0000000000000000    0.0000000000000000   15.4263309999999993
   Li   Ti   O    F 
     1    64    64   128
Direct
  0.3421653084955238  0.3823307482625751  0.6083013720887109
  0.9958781025544070  0.9949247478451824  0.9948738036569438
  0.9987790184416454  0.9918177153791206  0.4939446032935066
  0.0059028573952347  0.4958717591091357  0.9967108001795850
  0.9932769930146819  0.5041663609010669  0.5069976161533489
  0.4948684492130937  0.9934396311355798  0.0012070958027905
  0.5036605172862565  0.0087467856471406  0.4992186883401573
  0.5038930451849382  0.4949278216425697  0.9969784037862084
  0.4917755016997631  0.4994771089733376  0.4952561453232178
  0.0067590677296394  0.0037093196466671  0.2562620074945130
  0.0026652848475877  0.0071018627771977  0.7570382326580543
  0.9931821949814292  0.4931911317560349  0.2506301065022996
  0.9927115053355493  0.4994692736404005  0.7406438199656762
  0.5056634476029487  0.0096076221674224  0.2523615721431156
  0.4938396161330871  0.0042150495347144  0.7533646530154456
  0.4917246878372197  0.4952419510893407  0.2570860458249271
  0.5018126956399769  0.5032089113110416  0.7599950347524498
  0.9959301154542999  0.2579682514481831  0.0006375021516476
  0.9992636836495663  0.2483402778753998  0.4914114071795979
  0.9980763070247889  0.7579333945284503  0.0059917989211584
  0.9961959312710533  0.7572378621012916  0.5055595399476260
  0.4956262661593840  0.2583809482774768  0.0018319071350987
  0.5071349819648816  0.2471367138154790  0.4994613984323735
  0.5072149712088887  0.7558462635558172  0.0001632897554629
  0.5068267207838488  0.7531729229403865  0.5087752745214047
  0.0005734556494090  0.2588146328166090  0.2549542910293852
  0.0071556208537586  0.2423955529100610  0.7463142861293122
  0.0061752395028805  0.7480833469896169  0.2430003421386573
  0.9927707451785324  0.7501888004225066  0.7426390163377619
  0.5073009096157008  0.2416085672873436  0.2530561453949858
  0.5077450843826270  0.2415546483689894  0.7506178113082669
  0.5059180113334634  0.7510810584372223  0.2520589536198301
  0.5019248641705829  0.7409432296249321  0.7439776177912947
  0.2569402023461365  0.9973995901662107  0.0058332503890952
  0.2528545090439778  0.9933331606860989  0.5058248285808133
  0.2437354735993864  0.5085184619082028  0.9976233885282184
  0.2541236659527755  0.4977235408622107  0.5043710295794810
  0.7570234607349420  0.0000124654201841  0.9946973272850101
  0.7490955466141145  0.0091318679191588  0.4957906287152696
  0.7412391872379729  0.5004886121255225  0.0044811760645800
  0.7552341811727175  0.4981299909064418  0.5055920560037634
  0.2450674129569563  0.0024968199282753  0.2437225195310475
  0.2592126841556563  0.9973567242537769  0.7443683373453780
  0.2539870502065753  0.4918411454043436  0.2506955315306811
  0.2469625537133382  0.5067297815435268  0.7407838292260251
  0.7444305726150375  0.0015972231098189  0.2567329410908954
  0.7484531115556479  0.0065058596044807  0.7563188559541842
  0.7545852171721137  0.4974015768445454  0.2421872255677755
  0.7572748484150580  0.4973456888284886  0.7419825956921429
  0.2575829374670136  0.2528882873175959  0.0048826527854899
  0.2542753608103752  0.2574704364170373  0.5038283022373449
  0.2521357625868248  0.7410916121837943  0.9948178184751200
  0.2525235485103181  0.7562573925593625  0.4924600147199456
  0.7575787282349680  0.2519356259047782  0.0070500360893249
  0.7402073592028344  0.2444589523932876  0.4984888818053790
  0.7413325449811481  0.7482585802441761  0.9944988659298986
  0.7411816076255278  0.7532346304777420  0.4944180099946607
  0.2506236000118207  0.2591291440748833  0.2429357421566891
  0.2452765786686726  0.2526991968092958  0.7439717407126878
  0.2433735172856188  0.7471158161360449  0.2562186412080081
  0.2481637251301905  0.7414085927680176  0.7561783770505599
  0.7423731216611671  0.2506519664120077  0.2423634036643634
  0.7446112586296110  0.2417316107047824  0.7496014864151590
  0.7450143669451066  0.7493238372489373  0.2573127417588381
  0.7574503408598545  0.7494951321868371  0.7570725260684767
  0.0125359254294963  0.5030936348002939  0.6239610410587773
  0.9979224308171908  0.0055923061771566  0.3764699296516483
  0.0034014638811328  0.0016692853736586  0.8728735464316841
  0.4940653313939478  0.4859898546147008  0.3761555495205045
  0.4904081088400787  0.4900716379189021  0.8754191872058001
  0.9995448317292244  0.7444783942108302  0.1254529411906447
  0.0030403736116256  0.7450125943156820  0.6238106952832396
  0.5038456510146929  0.7441780654418935  0.6249387221146634
  0.0019153749982834  0.2483707130530206  0.3763658442677240
  0.2565631476143011  0.9948820557306277  0.1255584898236179
  0.2589943349610024  0.9947197898004205  0.6249949507622645
  0.2455411596747581  0.4790091423849887  0.6252867670924687
  0.7457423155958836  0.4877835467655487  0.1253595440936621
  0.7421264818711037  0.4897411808550558  0.6241235684492423
  0.7491746271427004  0.0030820930025897  0.3760531005723493
  0.7437948452889387  0.0022958999612470  0.8741567211065089
  0.2483683476471867  0.2597394966651336  0.1248065806558856
  0.2682556183655578  0.2685256556742601  0.6250799023536047
  0.7478059799983967  0.2634831201640040  0.1259214723441247
  0.2547535252550688  0.7381965541072759  0.3750803773987101
  0.2529493185763769  0.7398369682372419  0.8746161727996835
  0.7525092798670130  0.7474069322451484  0.3745121116336634
  0.7496091447391890  0.7470619919968726  0.8757747335895161
  0.1248355484731789  0.5090840180264067  0.9898476837083123
  0.6253323336184167  0.5113011065039572  0.9947698662162949
  0.1254957288269267  0.0079549377056551  0.2501029625718232
  0.6246021135783693  0.0078615292806887  0.2483223746374890
  0.6283979306062690  0.2702825186904292  0.4999050521770343
  0.6241116883084530  0.7362308372973843  0.0021469740741082
  0.6241949566010945  0.7690026088362245  0.4951012412336198
  0.1270763185850114  0.2529581568187567  0.7402810781400291
  0.1248966680053130  0.7463623334428391  0.2528673534228787
  0.6257271808325271  0.2385702659383639  0.2557040030753157
  0.6263041907250013  0.2533617430314195  0.7414979373783908
  0.6220368151586655  0.7481707917496507  0.2522854656042028
  0.3762625034734484  0.9946751660947726  0.9907542453543527
  0.3742091283576059  0.5145532974044826  0.5093519129818986
  0.8733323339919323  0.9964439863467689  0.9977664984655661
  0.8749870745824921  0.5135458315772894  0.5044761165839446
  0.3765480782072927  0.9969015245005508  0.7613511772296491
  0.3729424043417424  0.4913642686557509  0.2450539936379954
  0.8750007665547699  0.4909260543295417  0.2484515199330630
  0.8753978070833952  0.5087083238136287  0.7405358465942271
  0.3757518291812758  0.2534273233261004  0.9987965596780768
  0.8749789764502367  0.2536000513113734  0.9996283464168130
  0.8749406568714946  0.7419323994126046  0.7477288629403631
  0.5223185922793121  0.1184156434924546  0.4894187809253978
  0.9994106328689369  0.1263193942831151  0.7443040678517150
  0.4899291370108330  0.1254112781143704  0.2707453751600823
  0.5037112135187556  0.1225106456098004  0.7591282647860140
  0.5008340129410271  0.6241308080331862  0.7572794561576117
  0.0053594005092634  0.3759571394075607  0.0043855468708642
  0.0068373754234656  0.8747294060576252  0.0022761419170010
  0.9835879579345601  0.8751000065656598  0.4994242298903515
  0.5070533623997022  0.3742693558535990  0.0142834133143026
  0.5086043272709588  0.8745315993010578  0.0118920780297600
  0.0130757140009763  0.3743295783136702  0.2461800366670559
  0.2601124166896369  0.6249726463490575  0.0126685477446600
  0.7315302435493365  0.1245498181811868  0.5075328656090363
  0.2472271790821807  0.6238917417109704  0.7360499281757740
  0.7510589560218577  0.1242988114814025  0.7410143664625295
  0.2692606040587222  0.3745816917868368  0.4901796844680462
  0.2638014983550931  0.8758903742340109  0.4914337538939435
  0.2369785823539488  0.3750899987761827  0.2632668098133593
  0.9984894364373957  0.0036967338940315  0.1266817333934114
  0.0017271549705029  0.9983018465354405  0.6237234096739925
  0.0044096167461518  0.5101993761732544  0.1246971484826673
  0.4903050267306526  0.0151059734223296  0.1273109596520854
  0.4937001982416120  0.0019767332530023  0.6250768882522379
  0.5042840685639618  0.5139370726009176  0.1279150945694383
  0.5111097425492730  0.5069735053241828  0.6248158709706146
  0.9994068590758687  0.4951675864765051  0.3761080007414037
  0.9914778235560746  0.4964195954160857  0.8719789067231929
  0.5055822602510815  0.9793055201195244  0.3760327146875113
  0.5183820358384281  0.9894172020715502  0.8762933096775427
  0.0033583334367364  0.2450996405551962  0.1267397463654447
  0.9939822806216227  0.2581934136235731  0.6214455069301081
  0.5013271971139517  0.2314356468884924  0.1270523882582637
  0.4844966736762899  0.2367205583371543  0.6278715854995340
  0.4958844916968914  0.7369332917568769  0.1272147146685683
  0.0038348336835270  0.2518306192460997  0.8732518665311630
  0.9927538936642222  0.7510020951134493  0.3751358163432315
  0.0000760175628471  0.7519222870186866  0.8736610386054195
  0.4957391403233231  0.2749855968992208  0.3718349360254152
  0.5074411757075907  0.2621549744275384  0.8751892701202166
  0.4905100031017184  0.7607314041412465  0.3754870267197106
  0.4969760112459909  0.7580716564267220  0.8748062618901216
  0.2389325370710367  0.4849625760495186  0.1238336046746227
  0.7515169742650158  0.9986134926234413  0.1265147853950239
  0.7514827199657717  0.9911227445841320  0.6237575475216630
  0.2498447357555946  0.0114710731124958  0.3764749120668824
  0.2408313474474042  0.0048879359395144  0.8740302950578851
  0.2517975007759077  0.5180954978269554  0.3745940265593646
  0.2639674024683956  0.5109301328799702  0.8723776685488005
  0.7493974004009587  0.5089174063493118  0.3752352710925777
  0.7571150531240818  0.5093122116247528  0.8739854192087435
  0.2493976484185154  0.7625741199698837  0.1248756157159647
  0.2476392145453445  0.7599429919770557  0.6247069569116519
  0.7600849781021637  0.2631111073612260  0.6236599641816341
  0.7508272911100349  0.7513791718691820  0.1259542558861995
  0.7460298635603948  0.7515177825582100  0.6246234194755900
  0.2462452734274052  0.2394410498471657  0.3751147762371545
  0.2461933265949270  0.2420731892931798  0.8739160096446454
  0.7589695084883274  0.2396373781785002  0.3735409635202060
  0.7471640792770131  0.2405157968749236  0.8756654472952548
  0.1265459731675094  0.0058753710855584  0.0046002392465354
  0.1257834972550853  0.9885393067225223  0.5009226121342394
  0.1247139794124621  0.4883880452175049  0.4900376508164328
  0.6248924692107636  0.0070756699514334  0.0110310199197130
  0.6255366932396527  0.9733961220077347  0.5055798308159254
  0.6241670221060716  0.4831036353344729  0.4947019592074398
  0.1279413134258576  0.9998436371609003  0.7437464003059873
  0.1238161555208066  0.5128006986650604  0.2529668964023202
  0.1245559870183470  0.4931184359696132  0.7634465154269776
  0.6243744281410670  0.9933495269483501  0.7384049269294550
  0.6240064780740369  0.5048867416720526  0.2543916606547683
  0.6269012761837516  0.4905100081444118  0.7606063182116714
  0.1255442911025426  0.2462530962089176  0.9980249355615101
  0.1251348558277456  0.2634196876214148  0.5063988959498289
  0.1249785095097096  0.7390095746194234  0.9989178929376195
  0.1240413307240260  0.7633799804388275  0.4942165928814219
  0.6262884951495380  0.2443016674208138  0.9997372199994814
  0.1247742342403413  0.2320037298938971  0.2507840381723554
  0.1238372571465192  0.7538381192427224  0.7524109018501193
  0.6261550690071118  0.7539527413197931  0.7525611252765430
  0.3777039906253066  0.0186809753422494  0.4927735912037505
  0.3727124583320318  0.4905443745397946  0.0109596292407801
  0.8752672655205416  0.0205203643334713  0.5058330731681551
  0.8746732612058565  0.4930690130016373  0.0031262346635899
  0.3764878023380973  0.9918903644762480  0.2588053246649906
  0.3754776461404319  0.4949034197196198  0.7343463542273767
  0.8741751549261281  0.9938554388155225  0.2486987467312360
  0.8752109281192517  0.9947204734316060  0.7468157328364171
  0.3766044325526252  0.2295306651643330  0.4900624489370884
  0.3757594133828164  0.7620989547179846  0.0026422742835450
  0.3764565735191638  0.7326484684496464  0.5041825007015248
  0.8766118351294949  0.2342502040541916  0.4999467512178128
  0.8718819418346939  0.7604447038258755  0.0001071317612258
  0.8723063933578104  0.7318308586034590  0.5045612698063806
  0.3768485777504011  0.2625876759816705  0.2491758765087582
  0.3767196816935723  0.2502402136741537  0.7612954632675581
  0.3757055139697201  0.7531315049314813  0.2461720739622493
  0.3748013543057311  0.7536896276997069  0.7468719216840825
  0.8749535671264610  0.2629149572993512  0.2488510380409181
  0.8760297256474487  0.2524963245643903  0.7528831080113747
  0.8731918305929227  0.7530527581029816  0.2479702201385194
  0.9997160032059256  0.1270955643589247  0.9999022648012073
  0.0156701469464053  0.1263279052761135  0.5083252695659866
  0.9884839000950620  0.6253247405486064  0.9926764794112586
  0.0144208905374228  0.6266439257888479  0.4911711800992578
  0.4997614093568572  0.1242995556005795  0.9896570147680848
  0.4846173322710285  0.6267279753628472  0.9937681174395792
  0.5156430948190476  0.6261151476761029  0.4889207614343292
  0.9862711165355762  0.1281217086189343  0.2475798991978806
  0.9921315463874834  0.6232303758227005  0.2582660242377273
  0.0120963167805783  0.6242364316419113  0.7567022878583956
  0.4943344949906816  0.6253535536715304  0.2634430640594019
  0.9879753424267932  0.3745205238856713  0.4989718984511100
  0.4717022927069650  0.3755438782206184  0.5223588545282425
  0.4788223382455215  0.8754598878817177  0.5066848850925467
  0.9963243110809898  0.3748642651059484  0.7493586614788441
  0.0010794620628332  0.8760343772608437  0.2503541152434039
  0.9998239832241964  0.8753487679100331  0.7464698210483363
  0.5094916910448219  0.3724591019842762  0.2318598816088127
  0.4943700663416308  0.3732350294799858  0.7361168205571502
  0.5011272666362956  0.8756085982665383  0.2374508213852380
  0.5015908479575657  0.8737678454455420  0.7474962577816910
  0.2519818359649477  0.1251354510124543  0.0030871330513094
  0.2370162197999903  0.1268527911218200  0.5090977546417506
  0.2341861475870175  0.6262041302063110  0.5135123797389554
  0.7505058602879942  0.1261782392899775  0.0081544480133573
  0.7657402895118040  0.6249577596383702  0.0083222191410002
  0.7323872135218608  0.6251435993236640  0.5050273050629883
  0.2641911117471309  0.1274084337396317  0.2452371027694369
  0.2526452114337019  0.1256987735978257  0.7435556495409514
  0.2551811809724995  0.6235883881496562  0.2331739181820183
  0.7656662893494754  0.1264015443077398  0.2424458649484507
  0.7529177550385100  0.6242545054149886  0.2428925028579414
  0.7376555825211639  0.6238682418235015  0.7434903128263031
  0.2444143214003276  0.3767816935493116  0.9856588102880437
  0.2403102234891676  0.8732746389904662  0.9925484883617273
  0.7422954626002394  0.3751198627997212  0.9831094270544725
  0.7698708514540371  0.3734148516284748  0.4874185557690325
  0.7380901097328376  0.8744136885774410  0.0033575091008160
  0.7706023175949070  0.8755681916638594  0.4992327129319989
  0.2565488674673375  0.3766769863698514  0.7667351768148478
  0.2482758285630169  0.8756842504414806  0.2611218460648956
  0.2472989512168482  0.8729763068073737  0.7565314916842567
  0.7397281045942989  0.3740513081569006  0.2684927920050342
  0.7571340900588837  0.3736289387197473  0.7618061629622446
  0.7470250433278522  0.8751557291300571  0.2481932871361963
  0.7523773892860675  0.8742818900045393  0.7491335233464227
 
  0.00000000E+00  0.00000000E+00  0.00000000E+00
  0.00000000E+00  0.00000000E+00  0.00000000E+00
  0.00000000E+00  0.00000000E+00  0.00000000E+00
  0.00000000E+00  0.00000000E+00  0.00000000E+00
  0.00000000E+00  0.00000000E+00  0.00000000E+00
  0.00000000E+00  0.00000000E+00  0.00000000E+00
  0.00000000E+00  0.00000000E+00  0.00000000E+00
  0.00000000E+00  0.00000000E+00  0.00000000E+00
  0.00000000E+00  0.00000000E+00  0.00000000E+00
  0.00000000E+00  0.00000000E+00  0.00000000E+00
  0.00000000E+00  0.00000000E+00  0.00000000E+00
  0.00000000E+00  0.00000000E+00  0.00000000E+00
  0.00000000E+00  0.00000000E+00  0.00000000E+00
  0.00000000E+00  0.00000000E+00  0.00000000E+00
  0.00000000E+00  0.00000000E+00  0.00000000E+00
  0.00000000E+00  0.00000000E+00  0.00000000E+00
  0.00000000E+00  0.00000000E+00  0.00000000E+00
  0.00000000E+00  0.00000000E+00  0.00000000E+00
  0.00000000E+00  0.00000000E+00  0.00000000E+00
  0.00000000E+00  0.00000000E+00  0.00000000E+00
  0.00000000E+00  0.00000000E+00  0.00000000E+00
  0.00000000E+00  0.00000000E+00  0.00000000E+00
  0.00000000E+00  0.00000000E+00  0.00000000E+00
  0.00000000E+00  0.00000000E+00  0.00000000E+00
  0.00000000E+00  0.00000000E+00  0.00000000E+00
  0.00000000E+00  0.00000000E+00  0.00000000E+00
  0.00000000E+00  0.00000000E+00  0.00000000E+00
  0.00000000E+00  0.00000000E+00  0.00000000E+00
  0.00000000E+00  0.00000000E+00  0.00000000E+00
  0.00000000E+00  0.00000000E+00  0.00000000E+00
  0.00000000E+00  0.00000000E+00  0.00000000E+00
  0.00000000E+00  0.00000000E+00  0.00000000E+00
  0.00000000E+00  0.00000000E+00  0.00000000E+00
  0.00000000E+00  0.00000000E+00  0.00000000E+00
  0.00000000E+00  0.00000000E+00  0.00000000E+00
  0.00000000E+00  0.00000000E+00  0.00000000E+00
  0.00000000E+00  0.00000000E+00  0.00000000E+00
  0.00000000E+00  0.00000000E+00  0.00000000E+00
  0.00000000E+00  0.00000000E+00  0.00000000E+00
  0.00000000E+00  0.00000000E+00  0.00000000E+00
  0.00000000E+00  0.00000000E+00  0.00000000E+00
  0.00000000E+00  0.00000000E+00  0.00000000E+00
  0.00000000E+00  0.00000000E+00  0.00000000E+00
  0.00000000E+00  0.00000000E+00  0.00000000E+00
  0.00000000E+00  0.00000000E+00  0.00000000E+00
  0.00000000E+00  0.00000000E+00  0.00000000E+00
  0.00000000E+00  0.00000000E+00  0.00000000E+00
  0.00000000E+00  0.00000000E+00  0.00000000E+00
  0.00000000E+00  0.00000000E+00  0.00000000E+00
  0.00000000E+00  0.00000000E+00  0.00000000E+00
  0.00000000E+00  0.00000000E+00  0.00000000E+00
  0.00000000E+00  0.00000000E+00  0.00000000E+00
  0.00000000E+00  0.00000000E+00  0.00000000E+00
  0.00000000E+00  0.00000000E+00  0.00000000E+00
  0.00000000E+00  0.00000000E+00  0.00000000E+00
  0.00000000E+00  0.00000000E+00  0.00000000E+00
  0.00000000E+00  0.00000000E+00  0.00000000E+00
  0.00000000E+00  0.00000000E+00  0.00000000E+00
  0.00000000E+00  0.00000000E+00  0.00000000E+00
  0.00000000E+00  0.00000000E+00  0.00000000E+00
  0.00000000E+00  0.00000000E+00  0.00000000E+00
  0.00000000E+00  0.00000000E+00  0.00000000E+00
  0.00000000E+00  0.00000000E+00  0.00000000E+00
  0.00000000E+00  0.00000000E+00  0.00000000E+00
  0.00000000E+00  0.00000000E+00  0.00000000E+00
  0.00000000E+00  0.00000000E+00  0.00000000E+00
  0.00000000E+00  0.00000000E+00  0.00000000E+00
  0.00000000E+00  0.00000000E+00  0.00000000E+00
  0.00000000E+00  0.00000000E+00  0.00000000E+00
  0.00000000E+00  0.00000000E+00  0.00000000E+00
  0.00000000E+00  0.00000000E+00  0.00000000E+00
  0.00000000E+00  0.00000000E+00  0.00000000E+00
  0.00000000E+00  0.00000000E+00  0.00000000E+00
  0.00000000E+00  0.00000000E+00  0.00000000E+00
  0.00000000E+00  0.00000000E+00  0.00000000E+00
  0.00000000E+00  0.00000000E+00  0.00000000E+00
  0.00000000E+00  0.00000000E+00  0.00000000E+00
  0.00000000E+00  0.00000000E+00  0.00000000E+00
  0.00000000E+00  0.00000000E+00  0.00000000E+00
  0.00000000E+00  0.00000000E+00  0.00000000E+00
  0.00000000E+00  0.00000000E+00  0.00000000E+00
  0.00000000E+00  0.00000000E+00  0.00000000E+00
  0.00000000E+00  0.00000000E+00  0.00000000E+00
  0.00000000E+00  0.00000000E+00  0.00000000E+00
  0.00000000E+00  0.00000000E+00  0.00000000E+00
  0.00000000E+00  0.00000000E+00  0.00000000E+00
  0.00000000E+00  0.00000000E+00  0.00000000E+00
  0.00000000E+00  0.00000000E+00  0.00000000E+00
  0.00000000E+00  0.00000000E+00  0.00000000E+00
  0.00000000E+00  0.00000000E+00  0.00000000E+00
  0.00000000E+00  0.00000000E+00  0.00000000E+00
  0.00000000E+00  0.00000000E+00  0.00000000E+00
  0.00000000E+00  0.00000000E+00  0.00000000E+00
  0.00000000E+00  0.00000000E+00  0.00000000E+00
  0.00000000E+00  0.00000000E+00  0.00000000E+00
  0.00000000E+00  0.00000000E+00  0.00000000E+00
  0.00000000E+00  0.00000000E+00  0.00000000E+00
  0.00000000E+00  0.00000000E+00  0.00000000E+00
  0.00000000E+00  0.00000000E+00  0.00000000E+00
  0.00000000E+00  0.00000000E+00  0.00000000E+00
  0.00000000E+00  0.00000000E+00  0.00000000E+00
  0.00000000E+00  0.00000000E+00  0.00000000E+00
  0.00000000E+00  0.00000000E+00  0.00000000E+00
  0.00000000E+00  0.00000000E+00  0.00000000E+00
  0.00000000E+00  0.00000000E+00  0.00000000E+00
  0.00000000E+00  0.00000000E+00  0.00000000E+00
  0.00000000E+00  0.00000000E+00  0.00000000E+00
  0.00000000E+00  0.00000000E+00  0.00000000E+00
  0.00000000E+00  0.00000000E+00  0.00000000E+00
  0.00000000E+00  0.00000000E+00  0.00000000E+00
  0.00000000E+00  0.00000000E+00  0.00000000E+00
  0.00000000E+00  0.00000000E+00  0.00000000E+00
  0.00000000E+00  0.00000000E+00  0.00000000E+00
  0.00000000E+00  0.00000000E+00  0.00000000E+00
  0.00000000E+00  0.00000000E+00  0.00000000E+00
  0.00000000E+00  0.00000000E+00  0.00000000E+00
  0.00000000E+00  0.00000000E+00  0.00000000E+00
  0.00000000E+00  0.00000000E+00  0.00000000E+00
  0.00000000E+00  0.00000000E+00  0.00000000E+00
  0.00000000E+00  0.00000000E+00  0.00000000E+00
  0.00000000E+00  0.00000000E+00  0.00000000E+00
  0.00000000E+00  0.00000000E+00  0.00000000E+00
  0.00000000E+00  0.00000000E+00  0.00000000E+00
  0.00000000E+00  0.00000000E+00  0.00000000E+00
  0.00000000E+00  0.00000000E+00  0.00000000E+00
  0.00000000E+00  0.00000000E+00  0.00000000E+00
  0.00000000E+00  0.00000000E+00  0.00000000E+00
  0.00000000E+00  0.00000000E+00  0.00000000E+00
  0.00000000E+00  0.00000000E+00  0.00000000E+00
  0.00000000E+00  0.00000000E+00  0.00000000E+00
  0.00000000E+00  0.00000000E+00  0.00000000E+00
  0.00000000E+00  0.00000000E+00  0.00000000E+00
  0.00000000E+00  0.00000000E+00  0.00000000E+00
  0.00000000E+00  0.00000000E+00  0.00000000E+00
  0.00000000E+00  0.00000000E+00  0.00000000E+00
  0.00000000E+00  0.00000000E+00  0.00000000E+00
  0.00000000E+00  0.00000000E+00  0.00000000E+00
  0.00000000E+00  0.00000000E+00  0.00000000E+00
  0.00000000E+00  0.00000000E+00  0.00000000E+00
  0.00000000E+00  0.00000000E+00  0.00000000E+00
  0.00000000E+00  0.00000000E+00  0.00000000E+00
  0.00000000E+00  0.00000000E+00  0.00000000E+00
  0.00000000E+00  0.00000000E+00  0.00000000E+00
  0.00000000E+00  0.00000000E+00  0.00000000E+00
  0.00000000E+00  0.00000000E+00  0.00000000E+00
  0.00000000E+00  0.00000000E+00  0.00000000E+00
  0.00000000E+00  0.00000000E+00  0.00000000E+00
  0.00000000E+00  0.00000000E+00  0.00000000E+00
  0.00000000E+00  0.00000000E+00  0.00000000E+00
  0.00000000E+00  0.00000000E+00  0.00000000E+00
  0.00000000E+00  0.00000000E+00  0.00000000E+00
  0.00000000E+00  0.00000000E+00  0.00000000E+00
  0.00000000E+00  0.00000000E+00  0.00000000E+00
  0.00000000E+00  0.00000000E+00  0.00000000E+00
  0.00000000E+00  0.00000000E+00  0.00000000E+00
  0.00000000E+00  0.00000000E+00  0.00000000E+00
  0.00000000E+00  0.00000000E+00  0.00000000E+00
  0.00000000E+00  0.00000000E+00  0.00000000E+00
  0.00000000E+00  0.00000000E+00  0.00000000E+00
  0.00000000E+00  0.00000000E+00  0.00000000E+00
  0.00000000E+00  0.00000000E+00  0.00000000E+00
  0.00000000E+00  0.00000000E+00  0.00000000E+00
  0.00000000E+00  0.00000000E+00  0.00000000E+00
  0.00000000E+00  0.00000000E+00  0.00000000E+00
  0.00000000E+00  0.00000000E+00  0.00000000E+00
  0.00000000E+00  0.00000000E+00  0.00000000E+00
  0.00000000E+00  0.00000000E+00  0.00000000E+00
  0.00000000E+00  0.00000000E+00  0.00000000E+00
  0.00000000E+00  0.00000000E+00  0.00000000E+00
  0.00000000E+00  0.00000000E+00  0.00000000E+00
  0.00000000E+00  0.00000000E+00  0.00000000E+00
  0.00000000E+00  0.00000000E+00  0.00000000E+00
  0.00000000E+00  0.00000000E+00  0.00000000E+00
  0.00000000E+00  0.00000000E+00  0.00000000E+00
  0.00000000E+00  0.00000000E+00  0.00000000E+00
  0.00000000E+00  0.00000000E+00  0.00000000E+00
  0.00000000E+00  0.00000000E+00  0.00000000E+00
  0.00000000E+00  0.00000000E+00  0.00000000E+00
  0.00000000E+00  0.00000000E+00  0.00000000E+00
  0.00000000E+00  0.00000000E+00  0.00000000E+00
  0.00000000E+00  0.00000000E+00  0.00000000E+00
  0.00000000E+00  0.00000000E+00  0.00000000E+00
  0.00000000E+00  0.00000000E+00  0.00000000E+00
  0.00000000E+00  0.00000000E+00  0.00000000E+00
  0.00000000E+00  0.00000000E+00  0.00000000E+00
  0.00000000E+00  0.00000000E+00  0.00000000E+00
  0.00000000E+00  0.00000000E+00  0.00000000E+00
  0.00000000E+00  0.00000000E+00  0.00000000E+00
  0.00000000E+00  0.00000000E+00  0.00000000E+00
  0.00000000E+00  0.00000000E+00  0.00000000E+00
  0.00000000E+00  0.00000000E+00  0.00000000E+00
  0.00000000E+00  0.00000000E+00  0.00000000E+00
  0.00000000E+00  0.00000000E+00  0.00000000E+00
  0.00000000E+00  0.00000000E+00  0.00000000E+00
  0.00000000E+00  0.00000000E+00  0.00000000E+00
  0.00000000E+00  0.00000000E+00  0.00000000E+00
  0.00000000E+00  0.00000000E+00  0.00000000E+00
  0.00000000E+00  0.00000000E+00  0.00000000E+00
  0.00000000E+00  0.00000000E+00  0.00000000E+00
  0.00000000E+00  0.00000000E+00  0.00000000E+00
  0.00000000E+00  0.00000000E+00  0.00000000E+00
  0.00000000E+00  0.00000000E+00  0.00000000E+00
  0.00000000E+00  0.00000000E+00  0.00000000E+00
  0.00000000E+00  0.00000000E+00  0.00000000E+00
  0.00000000E+00  0.00000000E+00  0.00000000E+00
  0.00000000E+00  0.00000000E+00  0.00000000E+00
  0.00000000E+00  0.00000000E+00  0.00000000E+00
  0.00000000E+00  0.00000000E+00  0.00000000E+00
  0.00000000E+00  0.00000000E+00  0.00000000E+00
  0.00000000E+00  0.00000000E+00  0.00000000E+00
  0.00000000E+00  0.00000000E+00  0.00000000E+00
  0.00000000E+00  0.00000000E+00  0.00000000E+00
  0.00000000E+00  0.00000000E+00  0.00000000E+00
  0.00000000E+00  0.00000000E+00  0.00000000E+00
  0.00000000E+00  0.00000000E+00  0.00000000E+00
  0.00000000E+00  0.00000000E+00  0.00000000E+00
  0.00000000E+00  0.00000000E+00  0.00000000E+00
  0.00000000E+00  0.00000000E+00  0.00000000E+00
  0.00000000E+00  0.00000000E+00  0.00000000E+00
  0.00000000E+00  0.00000000E+00  0.00000000E+00
  0.00000000E+00  0.00000000E+00  0.00000000E+00
  0.00000000E+00  0.00000000E+00  0.00000000E+00
  0.00000000E+00  0.00000000E+00  0.00000000E+00
  0.00000000E+00  0.00000000E+00  0.00000000E+00
  0.00000000E+00  0.00000000E+00  0.00000000E+00
  0.00000000E+00  0.00000000E+00  0.00000000E+00
  0.00000000E+00  0.00000000E+00  0.00000000E+00
  0.00000000E+00  0.00000000E+00  0.00000000E+00
  0.00000000E+00  0.00000000E+00  0.00000000E+00
  0.00000000E+00  0.00000000E+00  0.00000000E+00
  0.00000000E+00  0.00000000E+00  0.00000000E+00
  0.00000000E+00  0.00000000E+00  0.00000000E+00
  0.00000000E+00  0.00000000E+00  0.00000000E+00
  0.00000000E+00  0.00000000E+00  0.00000000E+00
  0.00000000E+00  0.00000000E+00  0.00000000E+00
  0.00000000E+00  0.00000000E+00  0.00000000E+00
  0.00000000E+00  0.00000000E+00  0.00000000E+00
  0.00000000E+00  0.00000000E+00  0.00000000E+00
  0.00000000E+00  0.00000000E+00  0.00000000E+00
  0.00000000E+00  0.00000000E+00  0.00000000E+00
  0.00000000E+00  0.00000000E+00  0.00000000E+00
  0.00000000E+00  0.00000000E+00  0.00000000E+00
  0.00000000E+00  0.00000000E+00  0.00000000E+00
  0.00000000E+00  0.00000000E+00  0.00000000E+00
  0.00000000E+00  0.00000000E+00  0.00000000E+00
  0.00000000E+00  0.00000000E+00  0.00000000E+00
  0.00000000E+00  0.00000000E+00  0.00000000E+00
  0.00000000E+00  0.00000000E+00  0.00000000E+00
  0.00000000E+00  0.00000000E+00  0.00000000E+00
  0.00000000E+00  0.00000000E+00  0.00000000E+00
  0.00000000E+00  0.00000000E+00  0.00000000E+00
  0.00000000E+00  0.00000000E+00  0.00000000E+00
  0.00000000E+00  0.00000000E+00  0.00000000E+00
  0.00000000E+00  0.00000000E+00  0.00000000E+00
  0.00000000E+00  0.00000000E+00  0.00000000E+00
  0.00000000E+00  0.00000000E+00  0.00000000E+00
  0.00000000E+00  0.00000000E+00  0.00000000E+00
