TiOF2 2x2x2 config 0013                 
   1.00000000000000     
     7.9272626446784074   -0.0014330984168475    0.0001292285764417
    -0.0014110793834341    7.8225279111391863    0.0000925523116262
     0.0001221110375971    0.0000902738399348    7.5453968321025009
   Ti   O    F 
     8     8    16
Direct
  0.9999999829796025  0.9999989653723844  0.9999998594840633
  0.0000000922130425  0.0000001955972380  0.5000001316218032
  0.0000000908864095  0.4999990552220979  0.9999999143976694
  0.0000002429862747  0.5000003078905380  0.4999999652243829
  0.4999999293349546  0.9999950875975188  0.0000002955920166
  0.4999997281075039  0.0000203894743791  0.5000001921828101
  0.5000004252110770  0.5000003034517988  0.9999992604092114
  0.5000001414991360  0.5000038085522860  0.4999995476581702
  0.4999903546779692  0.2480341107275734  0.5000001831317178
  0.5000044830588664  0.7519612458886087  0.4999998524378952
  0.0000007181411803  0.5000022867732525  0.2509465783173255
  0.9999994578804845  0.4999981150107189  0.7490533389040266
  0.4999979133135426  0.9999766123049270  0.2459762602430047
  0.5000000246279086  0.9999771844541812  0.7540238370299477
  0.5000003450376340  0.5000238689317200  0.2463232616611464
  0.5000034180781796  0.5000255562275271  0.7536781922196809
  0.2450834601384457  0.9999125685151853  0.0000024358529203
  0.2364833809188411  0.9999939993562634  0.5000019128833699
  0.2477923438978493  0.4999847699425644  0.9999994482018550
  0.2436117393180552  0.4999887337668696  0.4999992563480617
  0.7549165520653247  0.0000879308234474  0.9999973174774652
  0.7635164682724351  0.0000021249436486  0.4999978900683573
  0.7522082414216484  0.5000121139170801  0.0000006636824565
  0.7563884801654339  0.5000068203282666  0.5000013199245572
  0.9999141624561076  0.2518206638763303  0.0000097748018746
  0.0000055048507477  0.2425449181751134  0.4999994571020636
  0.0000860051651941  0.7481777982603575  0.9999897749589550
  0.9999947091679147  0.7574556899469940  0.5000002772028083
  0.4999825233112247  0.2491347998053470  0.0000000029232297
  0.5000188933013803  0.7508611098685734  0.0000002766564364
  0.0000069388545043  0.9999978730660786  0.2561465237770690
  0.9999932486611272  0.0000009919311310  0.7438529976236552
 
  0.00000000E+00  0.00000000E+00  0.00000000E+00
  0.00000000E+00  0.00000000E+00  0.00000000E+00
  0.00000000E+00  0.00000000E+00  0.00000000E+00
  0.00000000E+00  0.00000000E+00  0.00000000E+00
  0.00000000E+00  0.00000000E+00  0.00000000E+00
  0.00000000E+00  0.00000000E+00  0.00000000E+00
  0.00000000E+00  0.00000000E+00  0.00000000E+00
  0.00000000E+00  0.00000000E+00  0.00000000E+00
  0.00000000E+00  0.00000000E+00  0.00000000E+00
  0.00000000E+00  0.00000000E+00  0.00000000E+00
  0.00000000E+00  0.00000000E+00  0.00000000E+00
  0.00000000E+00  0.00000000E+00  0.00000000E+00
  0.00000000E+00  0.00000000E+00  0.00000000E+00
  0.00000000E+00  0.00000000E+00  0.00000000E+00
  0.00000000E+00  0.00000000E+00  0.00000000E+00
  0.00000000E+00  0.00000000E+00  0.00000000E+00
  0.00000000E+00  0.00000000E+00  0.00000000E+00
  0.00000000E+00  0.00000000E+00  0.00000000E+00
  0.00000000E+00  0.00000000E+00  0.00000000E+00
  0.00000000E+00  0.00000000E+00  0.00000000E+00
  0.00000000E+00  0.00000000E+00  0.00000000E+00
  0.00000000E+00  0.00000000E+00  0.00000000E+00
  0.00000000E+00  0.00000000E+00  0.00000000E+00
  0.00000000E+00  0.00000000E+00  0.00000000E+00
  0.00000000E+00  0.00000000E+00  0.00000000E+00
  0.00000000E+00  0.00000000E+00  0.00000000E+00
  0.00000000E+00  0.00000000E+00  0.00000000E+00
  0.00000000E+00  0.00000000E+00  0.00000000E+00
  0.00000000E+00  0.00000000E+00  0.00000000E+00
  0.00000000E+00  0.00000000E+00  0.00000000E+00
  0.00000000E+00  0.00000000E+00  0.00000000E+00
  0.00000000E+00  0.00000000E+00  0.00000000E+00
