config 32                               
   1.00000000000000     
    15.4263309999999993    0.0000000000000000    0.0000000000000000
     0.0000000000000000   15.4263309999999993    0.0000000000000000
     0.0000000000000000    0.0000000000000000   15.4263309999999993
   Li   Ti   O    F 
     1    64    64   128
Direct
  0.3404616336537760  0.8990412132629707  0.8778630864412957
  0.9944610807462715  0.9951545063545878  0.9943107485445219
  0.0003501820124587  0.9920374248604127  0.4938982168405703
  0.0061349343119371  0.4959666837462675  0.9974144102645582
  0.9946168383514887  0.5034199525012657  0.5074886936109888
  0.4939631593538256  0.9924729736895839  0.9979472585971171
  0.5006506025323169  0.0079842425351052  0.4995830356508640
  0.5042576457846752  0.4958687799822190  0.9957353739707463
  0.4919919983910113  0.4997889374903925  0.4957445862906692
  0.0073852985662160  0.0032495316175035  0.2556766764261082
  0.0021322701251010  0.0077361072905549  0.7571031284270713
  0.9940564388371563  0.4933884799343980  0.2513411543249347
  0.9932931866836640  0.4987794769299184  0.7417624118328486
  0.5054873504191184  0.0076936444938164  0.2489560536615765
  0.4936649609818749  0.0010236313595709  0.7506341498894433
  0.4928803881104362  0.4963394552868030  0.2571281871804329
  0.5003900601804600  0.5030282300651803  0.7581486474279180
  0.9952783744921313  0.2578996396973335  0.0020391077049736
  0.9982160288414463  0.2481081363690314  0.4915751322096702
  0.9995748325883642  0.7583512714686839  0.0058229786444978
  0.9984082639480645  0.7569270647450549  0.5059006795313183
  0.4948988689943480  0.2581756399889072  0.0009482735843538
  0.5085392069384868  0.2454909464941297  0.4991701058055250
  0.5090503010773935  0.7542564154735849  0.9979398143688571
  0.5085288195769081  0.7541400849494655  0.5079975627891579
  0.9996842347714632  0.2582642352351417  0.2553500843358005
  0.0051963681462425  0.2415328893897453  0.7477585971901288
  0.0083732716368328  0.7481711034633236  0.2432119115698577
  0.9941592658994900  0.7510773879059850  0.7426357769728357
  0.5080505139194993  0.2411585119338653  0.2514131849260354
  0.5045905045351067  0.2400561197796940  0.7497943170946584
  0.5076200314476434  0.7507313059660441  0.2525539309170915
  0.5026129314112541  0.7409534823926865  0.7421528028117923
  0.2551454509118736  0.0001226230460517  0.0097843557735431
  0.2532077090831373  0.9950266297260039  0.5076164630281186
  0.2441735314448052  0.5089345136086609  0.9958291599660782
  0.2547746209230877  0.4959038067406732  0.5078992202408291
  0.7552506605452967  0.9992340985927829  0.9929574889907342
  0.7486334926539229  0.0070441521161292  0.4943348223050504
  0.7415623812611416  0.5008200787127978  0.0046115005895295
  0.7555556649940556  0.4977906657449941  0.5053925650083756
  0.2456628889333292  0.0033798932235265  0.2454473398623209
  0.2597521928703088  0.9976508038743271  0.7432992921064852
  0.2551175601442706  0.4921043276989115  0.2506882261085546
  0.2472482524574646  0.5078991370410953  0.7425173451837099
  0.7434732396386888  0.0006547109822790  0.2547930265385610
  0.7480272358450718  0.0068133674863985  0.7553964777194854
  0.7556251481113483  0.4977978698376936  0.2424569926518559
  0.7571352747676648  0.4972273919984039  0.7422922705726137
  0.2566164034440741  0.2521062266004989  0.0064566034801567
  0.2534614581664920  0.2565982461025035  0.5067353595442421
  0.2537306803407247  0.7438062713438113  0.9921382400364750
  0.2536427264223847  0.7565882618897241  0.4935399535011331
  0.7563522970843911  0.2513827243155202  0.0077803480917986
  0.7419444439152882  0.2427058490652054  0.4977077912753309
  0.7431595951642757  0.7483309359700426  0.9932445791147479
  0.7424539700807589  0.7525671329232075  0.4933355600013851
  0.2506700635534969  0.2572829436691308  0.2431976758174824
  0.2433380385903164  0.2502102741579394  0.7444344248291155
  0.2454864420466550  0.7486905293422537  0.2564805094276781
  0.2494072027325211  0.7435783250155744  0.7576771652637925
  0.7415813510095317  0.2504854104596637  0.2428942842328023
  0.7432726956240119  0.2416819037575861  0.7510500004276518
  0.7469823372379933  0.7494648311022548  0.2568396402233550
  0.7584821920459149  0.7507638634700247  0.7557888128610604
  0.0114593406201132  0.5028132060842432  0.6247348425916514
  0.0062467108221630  0.0058887958227098  0.3760638842858022
  0.0080275190744869  0.0026234480245021  0.8734859726886223
  0.4971456448624103  0.4970979819002670  0.3752341193040252
  0.4912799062318453  0.5012246410516940  0.8748962841993896
  0.0063431165627618  0.7444564660226561  0.1252233181242527
  0.0095095981221643  0.7460683213327376  0.6241818215316967
  0.5098331096929930  0.7597197550729374  0.6240384731512058
  0.9912822861664553  0.2468402639102070  0.3765865893127822
  0.2655944375324959  0.0109750982407030  0.1266203261967217
  0.2695144800894893  0.0106776029083882  0.6237549605442870
  0.2364296848712706  0.5065875056573134  0.6271641195532403
  0.7483996565764429  0.4891187973335609  0.1253894014246343
  0.7437032616688699  0.4911398917914754  0.6240557633105490
  0.7404147723894936  0.0002861191210949  0.3755638349688313
  0.7376114512718018  0.9998475809015487  0.8738288163810440
  0.2430165867715805  0.2424513862127030  0.1257692083565558
  0.2503013671843983  0.2424766261653675  0.6255976770213604
  0.7382509482734498  0.2605832038095323  0.1267178019502935
  0.2610231686305277  0.7529028215798108  0.3746383775798768
  0.2673900518727098  0.7741810391079350  0.8747379588904018
  0.7585933385031308  0.7495079961639505  0.3739488421134243
  0.7558799570117265  0.7508763460569821  0.8752552064393536
  0.1251688510145356  0.5103786172708523  0.9914574570973325
  0.6257547981906878  0.5134415130629728  0.9963068018773561
  0.1264444655266872  0.0060403254767590  0.2430713863620270
  0.6243295048156835  0.0042316007930074  0.2393481543655712
  0.6243579624631339  0.2617897623077014  0.4907322715117344
  0.6253704953753522  0.7335990633861931  0.9955932306734888
  0.6254309214648416  0.7665732536545846  0.4887327994719526
  0.1242246903571671  0.2443689187563400  0.7520245323070406
  0.1266885469180315  0.7499116315585711  0.2568493589497589
  0.6254366311064964  0.2400477161832134  0.2655615043707780
  0.6258154397707207  0.2477493284706961  0.7497882476288324
  0.6236586325915696  0.7515044954650602  0.2565619985364934
  0.3735281909536930  0.9838487252909476  0.9800106805806929
  0.3755336410622118  0.5100012820140752  0.5074628136606831
  0.8720808954600807  0.9945505459702869  0.9927188322680195
  0.8755802735545848  0.5067136027276099  0.5024698383898984
  0.3688603793849812  0.9752917536470902  0.7748360316227464
  0.3738981843140817  0.4921366147504125  0.2461003789366124
  0.8758156024847712  0.4938950376520737  0.2503814993505508
  0.8755657753505344  0.5040087669326706  0.7429758630960853
  0.3751120085158431  0.2549450590997559  0.0066518779285571
  0.8737599033776957  0.2545860089393326  0.0090042470169088
  0.8756593316945309  0.7479229857548541  0.7417683162611145
  0.5141289420398364  0.1229113871583702  0.5004006383447743
  0.9898021976074516  0.1256692878981190  0.7439914044925452
  0.4905681117080000  0.1244105094861864  0.2567214197004642
  0.4928835577558046  0.1256787448676736  0.7416907972379868
  0.4976297001848247  0.6243607728211422  0.7438363416511590
  0.0063242089098307  0.3756921166624295  0.0051410941390467
  0.0088886594184869  0.8750062152053873  0.0022502975647133
  0.9908309852654583  0.8751570375906067  0.4983620821019404
  0.5080536984683752  0.3742502747703043  0.0041721939210796
  0.5113206820745353  0.8736825914112392  0.9961903229964115
  0.0107320403859024  0.3738021749552896  0.2471436875012798
  0.2624564162449622  0.6271320789948510  0.9871624763086417
  0.7359160501991316  0.1248934371063585  0.5056071658303468
  0.2536288598657477  0.6266320746734784  0.7634151080577504
  0.7566979541134746  0.1241340496972201  0.7429357036131704
  0.2563356338321127  0.3739506730627477  0.5021374908183990
  0.2591524242721388  0.8758455759015599  0.5060288969630073
  0.2379287886401648  0.3745627824074961  0.2488945470548218
  0.9924700411161618  0.0024126236243537  0.1269144937556344
  0.9943742736574929  0.9970372607496409  0.6238079014197656
  0.0028701208359257  0.5101437850065427  0.1250945668773123
  0.4809957552300909  0.9981415100202184  0.1259419340285000
  0.4779398823929519  0.9894614035210086  0.6183227164243636
  0.5043391598103304  0.5051029927473274  0.1271566810334775
  0.5106779597443230  0.4959180101733525  0.6242107279006381
  0.0015375290764680  0.4951532105051038  0.3761989759801863
  0.9920791713965690  0.4962892505307861  0.8731258753784460
  0.5184366742692013  0.9948185163142030  0.3760708466358287
  0.5219901503680032  0.0074843567980509  0.8784696738857871
  0.0109299560380426  0.2448261935423791  0.1275786947236052
  0.0023632381834569  0.2584575512922279  0.6215628177397472
  0.5129074681612290  0.2423327921219664  0.1267057236233149
  0.4985009893952478  0.2553836035798748  0.6223112075814520
  0.5038522174000715  0.7504758873792861  0.1265474567178732
  0.9927868648086543  0.2507397348333010  0.8749138646774371
  0.9902070556165263  0.7510028339963023  0.3750214672350279
  0.9934136074370945  0.7523416160723304  0.8740341923152829
  0.4873383710190990  0.2580114108214333  0.3754945257064377
  0.4974727442777604  0.2468042213906643  0.8755564194794662
  0.4874258066685618  0.7479907686981511  0.3754597027130198
  0.4878573079353938  0.7447999603277266  0.8740118140953105
  0.2425908611399020  0.5054135182416442  0.1236613745969679
  0.7574029729155332  0.0009520760346486  0.1262965048191681
  0.7590021055729128  0.9940109867693320  0.6222446158225886
  0.2415067740280191  0.9947105753443911  0.3753734506004526
  0.2351713826665977  0.9793902159820735  0.8768791729190900
  0.2508055749952355  0.5049565958307111  0.3753387086182033
  0.2625559623939612  0.4877355230429930  0.8737472411274025
  0.7484406174004838  0.5084250109434518  0.3747726399545930
  0.7556423895189796  0.5075441730126107  0.8743051588586455
  0.2470527010734037  0.7455980563439440  0.1229257296060682
  0.2434783916192561  0.7430408709944326  0.6264639367979069
  0.7487514929682931  0.2628192663777825  0.6227054893282830
  0.7470861152910280  0.7486856173223494  0.1255507175544323
  0.7412546357549129  0.7503457520903876  0.6238713406327330
  0.2558533398055569  0.2505696513941922  0.3746285159638530
  0.2524378261517229  0.2584088557359336  0.8760198218506597
  0.7656490973533496  0.2405318458850242  0.3743705905503811
  0.7550651820580568  0.2422320850644157  0.8767733124101580
  0.1265720143791152  0.0092263552595044  0.0114233359983030
  0.1260319330270593  0.9973177415865632  0.5111303405633214
  0.1239578147486987  0.4954564764935458  0.4904417351078426
  0.6233408253501318  0.0069135683862206  0.0174213852740619
  0.6232891733060441  0.9799853938429297  0.5144759695459190
  0.6255500007381696  0.4884781716374925  0.4951662704453283
  0.1268968626770828  0.0091365453065631  0.7387998852035553
  0.1242669145377973  0.5107963101792039  0.2513622983645261
  0.1237376010395761  0.4987874510146046  0.7667686329714241
  0.6262335566326452  0.9997028163300694  0.7293194576426266
  0.6252112516174878  0.5021875093878970  0.2518069212296899
  0.6265976288691943  0.4963080794082171  0.7588614519882660
  0.1246157526733324  0.2439442794149444  0.9926859471333168
  0.1236267095813330  0.2517030115866625  0.4952499936221159
  0.1265102131754131  0.7392866768187292  0.9890364802408658
  0.1252040912650711  0.7569616103831207  0.4898984967934393
  0.6252951874454183  0.2415993135169474  0.9921162151507318
  0.1244712144338244  0.2335552774744343  0.2603650811289167
  0.1242584159644597  0.7472414441871825  0.7633090804240787
  0.6266917834750766  0.7476086355219478  0.7583258560865874
  0.3778875146243698  0.0128809401650534  0.4774204907410630
  0.3729492179984301  0.4908467440501215  0.0103805999533681
  0.8746002692458532  0.0140927858984932  0.4954270389210331
  0.8750263922920887  0.4920541209214807  0.0017647358132221
  0.3771874194495811  0.9928214060544469  0.2673774048726272
  0.3741340102245883  0.4949041467652950  0.7374601363833906
  0.8739229415330292  0.9964715537876339  0.2558931584374627
  0.8747289522625646  0.9875267315198168  0.7538451467399030
  0.3785813368217926  0.2364822644891661  0.5005910558352723
  0.3770038542980907  0.7665366094161737  0.0091204280345899
  0.3781323813115570  0.7382011964968815  0.5093112430520520
  0.8741539408391316  0.2428430685257249  0.5085405420217524
  0.8728527139207557  0.7620872129159953  0.0060667809199496
  0.8733003518106986  0.7379051951907977  0.5096568954183812
  0.3779247703640087  0.2613433996448819  0.2424494636402220
  0.3746208479872890  0.2567537238038138  0.7516855525131285
  0.3776694449290735  0.7507638136547307  0.2411505983143874
  0.3754027221079966  0.7612134299203535  0.7394472215686376
  0.8741144691376483  0.2597695555850464  0.2408377547313992
  0.8744570290575395  0.2584142380310056  0.7450128966443205
  0.8746461747506499  0.7498424902044165  0.2430557183004931
  0.9971002741564433  0.1268594882716768  0.0016009916323782
  0.0048908697950146  0.1256279958419052  0.5099626573226785
  0.9885366535518517  0.6255755861696712  0.9933799671726153
  0.0079353884504909  0.6268470340284905  0.4913964142891442
  0.4932505414670991  0.1226275318694769  0.0039332004441026
  0.4829805410624529  0.6273497280892938  0.0039676606383727
  0.5141630853579050  0.6269309638381917  0.5014493586207416
  0.9882972818205689  0.1275022600478384  0.2465366350826768
  0.9961360651805657  0.6234500034344705  0.2585851948069456
  0.0066627352951225  0.6246117894277837  0.7567227094111153
  0.4985188899964385  0.6255897252598104  0.2513606518045869
  0.9961725736628032  0.3739669430830630  0.4986154149467356
  0.4871648561159059  0.3721772162514943  0.5018856556090592
  0.4835428634373237  0.8775002977784062  0.4904833826634376
  0.0011231531624841  0.3743873281504234  0.7505503496940449
  0.9986032378092161  0.8759940538362743  0.2504086519925519
  0.0070360499160461  0.8756082060006919  0.7472324008013242
  0.5088838341824220  0.3714095458564682  0.2432269451910456
  0.4997842429838231  0.3742759919039437  0.7490076401702355
  0.4985809839087552  0.8754998284322059  0.2511295808965952
  0.5076415951870544  0.8708885444187406  0.7623258646962214
  0.2547877214991544  0.1244222082597614  0.9854611158518838
  0.2441218581272559  0.1244485565967112  0.4907615518391391
  0.2413971633555369  0.6273002206976791  0.4981530395100268
  0.7501410141660230  0.1255560494029811  0.0057386771780516
  0.7683519172802595  0.6251344518119691  0.0055249916372270
  0.7379402075409961  0.6255175396810794  0.5033167203486626
  0.2635677689795662  0.1265518675929722  0.2606473856734900
  0.2598064377261523  0.1237351485846895  0.7655637216302432
  0.2550905458315939  0.6240500657848981  0.2477846033977877
  0.7623948978120842  0.1259073941425373  0.2455215943329634
  0.7502917390250236  0.6244438688991749  0.2446627841464793
  0.7433841565670409  0.6245367147007838  0.7450915597738946
  0.2413880300031678  0.3769675054237769  0.0059812820611440
  0.2379306976263254  0.8747326926678939  0.0134892919443550
  0.7402366300569121  0.3748027163343851  0.9856536858248574
  0.7610451959334862  0.3722724132873212  0.4870517742808474
  0.7360224402525132  0.8740195343743853  0.0065566548914331
  0.7666470593817785  0.8762852864745513  0.5008719183320371
  0.2466031551856173  0.3762772253673169  0.7470468595600341
  0.2528161188568738  0.8759627027975946  0.2426839312441589
  0.2340521596271948  0.8734988529489544  0.7344817227979872
  0.7434030625258604  0.3737183569098336  0.2678040390979746
  0.7519642196273297  0.3736805800629664  0.7609831129558398
  0.7517759629060151  0.8750104985069446  0.2447150395665957
  0.7461701753097761  0.8744594270865602  0.7452083494329889
 
  0.00000000E+00  0.00000000E+00  0.00000000E+00
  0.00000000E+00  0.00000000E+00  0.00000000E+00
  0.00000000E+00  0.00000000E+00  0.00000000E+00
  0.00000000E+00  0.00000000E+00  0.00000000E+00
  0.00000000E+00  0.00000000E+00  0.00000000E+00
  0.00000000E+00  0.00000000E+00  0.00000000E+00
  0.00000000E+00  0.00000000E+00  0.00000000E+00
  0.00000000E+00  0.00000000E+00  0.00000000E+00
  0.00000000E+00  0.00000000E+00  0.00000000E+00
  0.00000000E+00  0.00000000E+00  0.00000000E+00
  0.00000000E+00  0.00000000E+00  0.00000000E+00
  0.00000000E+00  0.00000000E+00  0.00000000E+00
  0.00000000E+00  0.00000000E+00  0.00000000E+00
  0.00000000E+00  0.00000000E+00  0.00000000E+00
  0.00000000E+00  0.00000000E+00  0.00000000E+00
  0.00000000E+00  0.00000000E+00  0.00000000E+00
  0.00000000E+00  0.00000000E+00  0.00000000E+00
  0.00000000E+00  0.00000000E+00  0.00000000E+00
  0.00000000E+00  0.00000000E+00  0.00000000E+00
  0.00000000E+00  0.00000000E+00  0.00000000E+00
  0.00000000E+00  0.00000000E+00  0.00000000E+00
  0.00000000E+00  0.00000000E+00  0.00000000E+00
  0.00000000E+00  0.00000000E+00  0.00000000E+00
  0.00000000E+00  0.00000000E+00  0.00000000E+00
  0.00000000E+00  0.00000000E+00  0.00000000E+00
  0.00000000E+00  0.00000000E+00  0.00000000E+00
  0.00000000E+00  0.00000000E+00  0.00000000E+00
  0.00000000E+00  0.00000000E+00  0.00000000E+00
  0.00000000E+00  0.00000000E+00  0.00000000E+00
  0.00000000E+00  0.00000000E+00  0.00000000E+00
  0.00000000E+00  0.00000000E+00  0.00000000E+00
  0.00000000E+00  0.00000000E+00  0.00000000E+00
  0.00000000E+00  0.00000000E+00  0.00000000E+00
  0.00000000E+00  0.00000000E+00  0.00000000E+00
  0.00000000E+00  0.00000000E+00  0.00000000E+00
  0.00000000E+00  0.00000000E+00  0.00000000E+00
  0.00000000E+00  0.00000000E+00  0.00000000E+00
  0.00000000E+00  0.00000000E+00  0.00000000E+00
  0.00000000E+00  0.00000000E+00  0.00000000E+00
  0.00000000E+00  0.00000000E+00  0.00000000E+00
  0.00000000E+00  0.00000000E+00  0.00000000E+00
  0.00000000E+00  0.00000000E+00  0.00000000E+00
  0.00000000E+00  0.00000000E+00  0.00000000E+00
  0.00000000E+00  0.00000000E+00  0.00000000E+00
  0.00000000E+00  0.00000000E+00  0.00000000E+00
  0.00000000E+00  0.00000000E+00  0.00000000E+00
  0.00000000E+00  0.00000000E+00  0.00000000E+00
  0.00000000E+00  0.00000000E+00  0.00000000E+00
  0.00000000E+00  0.00000000E+00  0.00000000E+00
  0.00000000E+00  0.00000000E+00  0.00000000E+00
  0.00000000E+00  0.00000000E+00  0.00000000E+00
  0.00000000E+00  0.00000000E+00  0.00000000E+00
  0.00000000E+00  0.00000000E+00  0.00000000E+00
  0.00000000E+00  0.00000000E+00  0.00000000E+00
  0.00000000E+00  0.00000000E+00  0.00000000E+00
  0.00000000E+00  0.00000000E+00  0.00000000E+00
  0.00000000E+00  0.00000000E+00  0.00000000E+00
  0.00000000E+00  0.00000000E+00  0.00000000E+00
  0.00000000E+00  0.00000000E+00  0.00000000E+00
  0.00000000E+00  0.00000000E+00  0.00000000E+00
  0.00000000E+00  0.00000000E+00  0.00000000E+00
  0.00000000E+00  0.00000000E+00  0.00000000E+00
  0.00000000E+00  0.00000000E+00  0.00000000E+00
  0.00000000E+00  0.00000000E+00  0.00000000E+00
  0.00000000E+00  0.00000000E+00  0.00000000E+00
  0.00000000E+00  0.00000000E+00  0.00000000E+00
  0.00000000E+00  0.00000000E+00  0.00000000E+00
  0.00000000E+00  0.00000000E+00  0.00000000E+00
  0.00000000E+00  0.00000000E+00  0.00000000E+00
  0.00000000E+00  0.00000000E+00  0.00000000E+00
  0.00000000E+00  0.00000000E+00  0.00000000E+00
  0.00000000E+00  0.00000000E+00  0.00000000E+00
  0.00000000E+00  0.00000000E+00  0.00000000E+00
  0.00000000E+00  0.00000000E+00  0.00000000E+00
  0.00000000E+00  0.00000000E+00  0.00000000E+00
  0.00000000E+00  0.00000000E+00  0.00000000E+00
  0.00000000E+00  0.00000000E+00  0.00000000E+00
  0.00000000E+00  0.00000000E+00  0.00000000E+00
  0.00000000E+00  0.00000000E+00  0.00000000E+00
  0.00000000E+00  0.00000000E+00  0.00000000E+00
  0.00000000E+00  0.00000000E+00  0.00000000E+00
  0.00000000E+00  0.00000000E+00  0.00000000E+00
  0.00000000E+00  0.00000000E+00  0.00000000E+00
  0.00000000E+00  0.00000000E+00  0.00000000E+00
  0.00000000E+00  0.00000000E+00  0.00000000E+00
  0.00000000E+00  0.00000000E+00  0.00000000E+00
  0.00000000E+00  0.00000000E+00  0.00000000E+00
  0.00000000E+00  0.00000000E+00  0.00000000E+00
  0.00000000E+00  0.00000000E+00  0.00000000E+00
  0.00000000E+00  0.00000000E+00  0.00000000E+00
  0.00000000E+00  0.00000000E+00  0.00000000E+00
  0.00000000E+00  0.00000000E+00  0.00000000E+00
  0.00000000E+00  0.00000000E+00  0.00000000E+00
  0.00000000E+00  0.00000000E+00  0.00000000E+00
  0.00000000E+00  0.00000000E+00  0.00000000E+00
  0.00000000E+00  0.00000000E+00  0.00000000E+00
  0.00000000E+00  0.00000000E+00  0.00000000E+00
  0.00000000E+00  0.00000000E+00  0.00000000E+00
  0.00000000E+00  0.00000000E+00  0.00000000E+00
  0.00000000E+00  0.00000000E+00  0.00000000E+00
  0.00000000E+00  0.00000000E+00  0.00000000E+00
  0.00000000E+00  0.00000000E+00  0.00000000E+00
  0.00000000E+00  0.00000000E+00  0.00000000E+00
  0.00000000E+00  0.00000000E+00  0.00000000E+00
  0.00000000E+00  0.00000000E+00  0.00000000E+00
  0.00000000E+00  0.00000000E+00  0.00000000E+00
  0.00000000E+00  0.00000000E+00  0.00000000E+00
  0.00000000E+00  0.00000000E+00  0.00000000E+00
  0.00000000E+00  0.00000000E+00  0.00000000E+00
  0.00000000E+00  0.00000000E+00  0.00000000E+00
  0.00000000E+00  0.00000000E+00  0.00000000E+00
  0.00000000E+00  0.00000000E+00  0.00000000E+00
  0.00000000E+00  0.00000000E+00  0.00000000E+00
  0.00000000E+00  0.00000000E+00  0.00000000E+00
  0.00000000E+00  0.00000000E+00  0.00000000E+00
  0.00000000E+00  0.00000000E+00  0.00000000E+00
  0.00000000E+00  0.00000000E+00  0.00000000E+00
  0.00000000E+00  0.00000000E+00  0.00000000E+00
  0.00000000E+00  0.00000000E+00  0.00000000E+00
  0.00000000E+00  0.00000000E+00  0.00000000E+00
  0.00000000E+00  0.00000000E+00  0.00000000E+00
  0.00000000E+00  0.00000000E+00  0.00000000E+00
  0.00000000E+00  0.00000000E+00  0.00000000E+00
  0.00000000E+00  0.00000000E+00  0.00000000E+00
  0.00000000E+00  0.00000000E+00  0.00000000E+00
  0.00000000E+00  0.00000000E+00  0.00000000E+00
  0.00000000E+00  0.00000000E+00  0.00000000E+00
  0.00000000E+00  0.00000000E+00  0.00000000E+00
  0.00000000E+00  0.00000000E+00  0.00000000E+00
  0.00000000E+00  0.00000000E+00  0.00000000E+00
  0.00000000E+00  0.00000000E+00  0.00000000E+00
  0.00000000E+00  0.00000000E+00  0.00000000E+00
  0.00000000E+00  0.00000000E+00  0.00000000E+00
  0.00000000E+00  0.00000000E+00  0.00000000E+00
  0.00000000E+00  0.00000000E+00  0.00000000E+00
  0.00000000E+00  0.00000000E+00  0.00000000E+00
  0.00000000E+00  0.00000000E+00  0.00000000E+00
  0.00000000E+00  0.00000000E+00  0.00000000E+00
  0.00000000E+00  0.00000000E+00  0.00000000E+00
  0.00000000E+00  0.00000000E+00  0.00000000E+00
  0.00000000E+00  0.00000000E+00  0.00000000E+00
  0.00000000E+00  0.00000000E+00  0.00000000E+00
  0.00000000E+00  0.00000000E+00  0.00000000E+00
  0.00000000E+00  0.00000000E+00  0.00000000E+00
  0.00000000E+00  0.00000000E+00  0.00000000E+00
  0.00000000E+00  0.00000000E+00  0.00000000E+00
  0.00000000E+00  0.00000000E+00  0.00000000E+00
  0.00000000E+00  0.00000000E+00  0.00000000E+00
  0.00000000E+00  0.00000000E+00  0.00000000E+00
  0.00000000E+00  0.00000000E+00  0.00000000E+00
  0.00000000E+00  0.00000000E+00  0.00000000E+00
  0.00000000E+00  0.00000000E+00  0.00000000E+00
  0.00000000E+00  0.00000000E+00  0.00000000E+00
  0.00000000E+00  0.00000000E+00  0.00000000E+00
  0.00000000E+00  0.00000000E+00  0.00000000E+00
  0.00000000E+00  0.00000000E+00  0.00000000E+00
  0.00000000E+00  0.00000000E+00  0.00000000E+00
  0.00000000E+00  0.00000000E+00  0.00000000E+00
  0.00000000E+00  0.00000000E+00  0.00000000E+00
  0.00000000E+00  0.00000000E+00  0.00000000E+00
  0.00000000E+00  0.00000000E+00  0.00000000E+00
  0.00000000E+00  0.00000000E+00  0.00000000E+00
  0.00000000E+00  0.00000000E+00  0.00000000E+00
  0.00000000E+00  0.00000000E+00  0.00000000E+00
  0.00000000E+00  0.00000000E+00  0.00000000E+00
  0.00000000E+00  0.00000000E+00  0.00000000E+00
  0.00000000E+00  0.00000000E+00  0.00000000E+00
  0.00000000E+00  0.00000000E+00  0.00000000E+00
  0.00000000E+00  0.00000000E+00  0.00000000E+00
  0.00000000E+00  0.00000000E+00  0.00000000E+00
  0.00000000E+00  0.00000000E+00  0.00000000E+00
  0.00000000E+00  0.00000000E+00  0.00000000E+00
  0.00000000E+00  0.00000000E+00  0.00000000E+00
  0.00000000E+00  0.00000000E+00  0.00000000E+00
  0.00000000E+00  0.00000000E+00  0.00000000E+00
  0.00000000E+00  0.00000000E+00  0.00000000E+00
  0.00000000E+00  0.00000000E+00  0.00000000E+00
  0.00000000E+00  0.00000000E+00  0.00000000E+00
  0.00000000E+00  0.00000000E+00  0.00000000E+00
  0.00000000E+00  0.00000000E+00  0.00000000E+00
  0.00000000E+00  0.00000000E+00  0.00000000E+00
  0.00000000E+00  0.00000000E+00  0.00000000E+00
  0.00000000E+00  0.00000000E+00  0.00000000E+00
  0.00000000E+00  0.00000000E+00  0.00000000E+00
  0.00000000E+00  0.00000000E+00  0.00000000E+00
  0.00000000E+00  0.00000000E+00  0.00000000E+00
  0.00000000E+00  0.00000000E+00  0.00000000E+00
  0.00000000E+00  0.00000000E+00  0.00000000E+00
  0.00000000E+00  0.00000000E+00  0.00000000E+00
  0.00000000E+00  0.00000000E+00  0.00000000E+00
  0.00000000E+00  0.00000000E+00  0.00000000E+00
  0.00000000E+00  0.00000000E+00  0.00000000E+00
  0.00000000E+00  0.00000000E+00  0.00000000E+00
  0.00000000E+00  0.00000000E+00  0.00000000E+00
  0.00000000E+00  0.00000000E+00  0.00000000E+00
  0.00000000E+00  0.00000000E+00  0.00000000E+00
  0.00000000E+00  0.00000000E+00  0.00000000E+00
  0.00000000E+00  0.00000000E+00  0.00000000E+00
  0.00000000E+00  0.00000000E+00  0.00000000E+00
  0.00000000E+00  0.00000000E+00  0.00000000E+00
  0.00000000E+00  0.00000000E+00  0.00000000E+00
  0.00000000E+00  0.00000000E+00  0.00000000E+00
  0.00000000E+00  0.00000000E+00  0.00000000E+00
  0.00000000E+00  0.00000000E+00  0.00000000E+00
  0.00000000E+00  0.00000000E+00  0.00000000E+00
  0.00000000E+00  0.00000000E+00  0.00000000E+00
  0.00000000E+00  0.00000000E+00  0.00000000E+00
  0.00000000E+00  0.00000000E+00  0.00000000E+00
  0.00000000E+00  0.00000000E+00  0.00000000E+00
  0.00000000E+00  0.00000000E+00  0.00000000E+00
  0.00000000E+00  0.00000000E+00  0.00000000E+00
  0.00000000E+00  0.00000000E+00  0.00000000E+00
  0.00000000E+00  0.00000000E+00  0.00000000E+00
  0.00000000E+00  0.00000000E+00  0.00000000E+00
  0.00000000E+00  0.00000000E+00  0.00000000E+00
  0.00000000E+00  0.00000000E+00  0.00000000E+00
  0.00000000E+00  0.00000000E+00  0.00000000E+00
  0.00000000E+00  0.00000000E+00  0.00000000E+00
  0.00000000E+00  0.00000000E+00  0.00000000E+00
  0.00000000E+00  0.00000000E+00  0.00000000E+00
  0.00000000E+00  0.00000000E+00  0.00000000E+00
  0.00000000E+00  0.00000000E+00  0.00000000E+00
  0.00000000E+00  0.00000000E+00  0.00000000E+00
  0.00000000E+00  0.00000000E+00  0.00000000E+00
  0.00000000E+00  0.00000000E+00  0.00000000E+00
  0.00000000E+00  0.00000000E+00  0.00000000E+00
  0.00000000E+00  0.00000000E+00  0.00000000E+00
  0.00000000E+00  0.00000000E+00  0.00000000E+00
  0.00000000E+00  0.00000000E+00  0.00000000E+00
  0.00000000E+00  0.00000000E+00  0.00000000E+00
  0.00000000E+00  0.00000000E+00  0.00000000E+00
  0.00000000E+00  0.00000000E+00  0.00000000E+00
  0.00000000E+00  0.00000000E+00  0.00000000E+00
  0.00000000E+00  0.00000000E+00  0.00000000E+00
  0.00000000E+00  0.00000000E+00  0.00000000E+00
  0.00000000E+00  0.00000000E+00  0.00000000E+00
  0.00000000E+00  0.00000000E+00  0.00000000E+00
  0.00000000E+00  0.00000000E+00  0.00000000E+00
  0.00000000E+00  0.00000000E+00  0.00000000E+00
  0.00000000E+00  0.00000000E+00  0.00000000E+00
  0.00000000E+00  0.00000000E+00  0.00000000E+00
  0.00000000E+00  0.00000000E+00  0.00000000E+00
  0.00000000E+00  0.00000000E+00  0.00000000E+00
  0.00000000E+00  0.00000000E+00  0.00000000E+00
  0.00000000E+00  0.00000000E+00  0.00000000E+00
  0.00000000E+00  0.00000000E+00  0.00000000E+00
  0.00000000E+00  0.00000000E+00  0.00000000E+00
  0.00000000E+00  0.00000000E+00  0.00000000E+00
  0.00000000E+00  0.00000000E+00  0.00000000E+00
  0.00000000E+00  0.00000000E+00  0.00000000E+00
  0.00000000E+00  0.00000000E+00  0.00000000E+00
  0.00000000E+00  0.00000000E+00  0.00000000E+00
  0.00000000E+00  0.00000000E+00  0.00000000E+00
  0.00000000E+00  0.00000000E+00  0.00000000E+00
  0.00000000E+00  0.00000000E+00  0.00000000E+00
  0.00000000E+00  0.00000000E+00  0.00000000E+00
  0.00000000E+00  0.00000000E+00  0.00000000E+00
