config 44                               
   1.00000000000000     
    15.4263309999999993    0.0000000000000000    0.0000000000000000
     0.0000000000000000   15.4263309999999993    0.0000000000000000
     0.0000000000000000    0.0000000000000000   15.4263309999999993
   Li   Ti   O    F 
     1    64    64   128
Direct
  0.6365080852359464  0.6252077261324737  0.9127288776372335
  0.9963567671987019  0.9955349595619786  0.9949815708714477
  0.9999479432763776  0.9918826699075738  0.4937222681079291
  0.0070124020579427  0.4964384450251106  0.9971436538764011
  0.9939049632759358  0.5024645103468075  0.5067835741329774
  0.4959074178612873  0.9928833863654681  0.9994666328912002
  0.5008520089968107  0.0076357974904166  0.5002083410103640
  0.5043488909480512  0.4948731469730291  0.9959666116411293
  0.4915180622259743  0.4989975238107079  0.4948495032512696
  0.0070349579743106  0.0031643464988204  0.2564371339946254
  0.0011289187004585  0.0075834694589435  0.7568869182630701
  0.9937840377702676  0.4939210575048279  0.2509131354337331
  0.9925064202350271  0.4993429856604529  0.7417938430858025
  0.5063725148259638  0.0084728809492700  0.2502430319592025
  0.4926496438334711  0.0051887994227913  0.7518748579347079
  0.4929228892188116  0.4969321837323555  0.2568460170967940
  0.5001273650937108  0.5045324627658032  0.7569282865313655
  0.9961436055715069  0.2583623043666793  0.0011668447010879
  0.9988759210220183  0.2481127654361360  0.4913241564533458
  0.0001771896906778  0.7588869429811217  0.0059610459801942
  0.9974451282175600  0.7564350045533814  0.5063006161963589
  0.4956989370619344  0.2575875237737486  0.0005306154256289
  0.5083964262521394  0.2453187307622165  0.4992662556394070
  0.5081740313800961  0.7549343774103715  0.9983020633156293
  0.5060442263672361  0.7529337921363431  0.5076248092622718
  0.9999561343781488  0.2582307128478618  0.2549437115807215
  0.0064464024671106  0.2424502599415405  0.7470474724261356
  0.0065574007747672  0.7486818105895369  0.2432050416038616
  0.9913452250903230  0.7506121943328694  0.7438892328686173
  0.5084587176393811  0.2422810632442347  0.2512574346319886
  0.5068456830953615  0.2429270885359932  0.7494795842573174
  0.5066324052150103  0.7516016374778030  0.2516125625343527
  0.4999547707853998  0.7432699900035649  0.7416060834658335
  0.2574377801135878  0.9980876193703654  0.0057637066272268
  0.2496848792920786  0.9938415841575691  0.5064135244453752
  0.2448497828259812  0.5085578363082627  0.9972644701420060
  0.2536456967405832  0.4942140402014480  0.5064272684956702
  0.7575675012374038  0.0003096337107848  0.9954769195392863
  0.7508301906575966  0.0060102752924529  0.4951986051488298
  0.7435335448997803  0.5002262643795420  0.0074598063205899
  0.7551876776469262  0.4969449395717249  0.5051757823899227
  0.2453410617250850  0.0025156123234485  0.2436791000376516
  0.2574106758758480  0.9979290970432141  0.7443342814619101
  0.2552117775517315  0.4923934637916554  0.2513083476293138
  0.2461692173781082  0.5060792148763106  0.7409423527579817
  0.7451589387678279  0.0004711091165330  0.2563161893982308
  0.7481548389867133  0.0050866238495197  0.7571743104944126
  0.7555143290104340  0.4989941425699060  0.2443755316525633
  0.7571566966829423  0.4971068795517424  0.7415589796522631
  0.2574311682734534  0.2520597819604088  0.0056876606202395
  0.2531088494175048  0.2565343716871049  0.5053725738325880
  0.2530935213360347  0.7428217875321623  0.9934477972838844
  0.2509672592848121  0.7550575598649314  0.4925371059852230
  0.7573529150993402  0.2517510241516026  0.0068034501028058
  0.7433981442527929  0.2422741740932811  0.4979151042717763
  0.7455951780400787  0.7506982967577501  0.9985173133669645
  0.7413607299917553  0.7519402095344304  0.4956180766933760
  0.2514451677153537  0.2577604062934235  0.2436609668715429
  0.2443322472090842  0.2515011223225873  0.7437754862248811
  0.2437606642316694  0.7481568857448972  0.2553842407775510
  0.2464630879649620  0.7418667938854322  0.7563120295673318
  0.7426301523585638  0.2509195926463884  0.2423888984591916
  0.7443717035770050  0.2412163724216347  0.7506006522564659
  0.7455683396085667  0.7506112818982650  0.2586168953208476
  0.7555441402062242  0.7485092187884178  0.7581409121174335
  0.0075846278477192  0.5017189238116747  0.6244112332926091
  0.9947425848514794  0.0066066827881303  0.3762980953095054
  0.9993669773525778  0.0028733221554195  0.8729464781223372
  0.4985402447154961  0.4937044229623080  0.3748204242861219
  0.4954684147803838  0.5006649060418418  0.8740123594827987
  0.9982120100683802  0.7459085434008459  0.1257746852960464
  0.0002488076941580  0.7459419954541321  0.6239772970516476
  0.4981428565257131  0.7560879055619548  0.6234637022468329
  0.9952113384135232  0.2469325136647457  0.3762381769321349
  0.2555913341523001  0.0032897376720468  0.1255105771309445
  0.2539474768461917  0.0038236277596551  0.6252902510877294
  0.2378926567108000  0.4947025245543148  0.6255477410428859
  0.7473194253937556  0.4897987400339824  0.1260732932697878
  0.7458714028049791  0.4895719091099984  0.6234105287359002
  0.7514470705392009  0.9976229143311013  0.3767471522706021
  0.7466391639532408  0.9982609575713092  0.8743152610031423
  0.2466922023295200  0.2500705030018540  0.1254976391155503
  0.2537965551488273  0.2497279035421429  0.6250474944639156
  0.7428330397986787  0.2584307127107711  0.1261248264660570
  0.2547404774433958  0.7462253005543756  0.3742968321635166
  0.2507465882423291  0.7524317396045825  0.8749474290719532
  0.7523082158397925  0.7535885885239676  0.3754966386869674
  0.7397080816457422  0.7373377157016083  0.8717758736115316
  0.1249840765325985  0.5091135731682223  0.9938551671137454
  0.6261581171549691  0.5211192608879085  0.9920985422443701
  0.1257339170618781  0.0038189925764471  0.2527218010767271
  0.6252511939083013  0.0011676131647769  0.2502291554235659
  0.6246076135631020  0.2548488655233934  0.4962399513714502
  0.6195606018472857  0.7252566186340209  0.9929296574015209
  0.6237568794692027  0.7608042925311421  0.4963967899682118
  0.1248956700435197  0.2507751045065820  0.7486139165996005
  0.1252931511126701  0.7516675003460115  0.2517610226108562
  0.6258893574447763  0.2451737015652072  0.2614204522663441
  0.6253683276102061  0.2524814188660331  0.7453840485163432
  0.6226178748558987  0.7547121725132416  0.2531992924768134
  0.3766228518491765  0.9943566370366189  0.9921898465429748
  0.3749783813308873  0.5037774634215932  0.5046214788852963
  0.8738812264747081  0.9965572042361368  0.0013616955788006
  0.8751273135313047  0.4997699561431247  0.4990627608685558
  0.3760107550537178  0.9962606685135723  0.7569279373622992
  0.3740689975489557  0.4958662091450707  0.2471171780956268
  0.8748446249775208  0.4979075934436261  0.2512347083556960
  0.8746782681468933  0.5085313129978487  0.7464278492164879
  0.3766286837549944  0.2547067665434639  0.0030119202292225
  0.8743961482350535  0.2549712611498904  0.0048531781830966
  0.8748725414752520  0.7428963439739570  0.7519740877904681
  0.5086202518035433  0.1223647836934526  0.4979232438809346
  0.9953874071697686  0.1262210519601898  0.7431051536101820
  0.4950123873769869  0.1254301566140719  0.2611135189722957
  0.5009414930727523  0.1236460764822480  0.7445488364910795
  0.5045406468357148  0.6255664323417152  0.7482116894616823
  0.0056449763512762  0.3759310174550755  0.0043268830296501
  0.0100465014143772  0.8756727929832889  0.0018993546379123
  0.9996522417929765  0.8749894975512490  0.4979497091101283
  0.5104523543522603  0.3746136886626946  0.0052239126784260
  0.5123316530600617  0.8754688530626680  0.0018112154441978
  0.0070022903975215  0.3742746147671370  0.2468088607259345
  0.2623998785510681  0.6249809732833086  0.0017730602498110
  0.7445931313930230  0.1246699562128576  0.5037053784292173
  0.2462245785603499  0.6243542074582952  0.7496845494767320
  0.7512650437262816  0.1241211320145731  0.7452285191021757
  0.2500878519841096  0.3730618216865067  0.4931623897741477
  0.2498756059969772  0.8756252565138075  0.4998342432975013
  0.2413424353965186  0.3747083477478975  0.2566100059034932
  0.0009421740543231  0.0029493447388506  0.1271574713493758
  0.0057233580919049  0.9973854701039823  0.6236598219584500
  0.9993801807919561  0.5094206786080258  0.1246943150669098
  0.4936896432992230  0.0057024942379463  0.1264602065127509
  0.4970291246606853  0.9909965477649512  0.6231232947775837
  0.5045590663472471  0.5075034594358104  0.1263037567988808
  0.5078777662843358  0.4990495507816103  0.6243119926949239
  0.0026514253490500  0.4953113494695061  0.3754400701366901
  0.9943402118583495  0.4974694578500661  0.8727854975910941
  0.5039644383888435  0.9920056019923027  0.3769705264448838
  0.5157137598527562  0.0036020405551595  0.8747837031157100
  0.0079215758596256  0.2457863066674678  0.1271008183872458
  0.9990686967095240  0.2593830177654732  0.6212015845852830
  0.5084549363705716  0.2401106150763522  0.1264820528757447
  0.4932336308319150  0.2500115125117027  0.6227095539672792
  0.4986339235686680  0.7466369007885190  0.1265098690976827
  0.9962208999581076  0.2507317003591547  0.8740799464508560
  0.9937968111713766  0.7506365013598666  0.3748992257079649
  0.0048148903356720  0.7509954991155368  0.8741420233269240
  0.4930109410708144  0.2622343266621113  0.3757936960872073
  0.5022063506438984  0.2499976410348373  0.8742508497969874
  0.4909211218855870  0.7522723288275105  0.3752812202639561
  0.4955405624533000  0.7484705449097668  0.8721250477615764
  0.2443069030625929  0.4940077619930043  0.1242298023297153
  0.7498581989379072  0.0087017936914078  0.1276941599414310
  0.7454126617458134  0.9957249878835803  0.6237367290484893
  0.2532009182314405  0.0012242292644118  0.3757161790041961
  0.2433535744171002  0.9940163652279522  0.8744016689560732
  0.2482642457873808  0.5117516855063889  0.3747373637247523
  0.2604978391992191  0.4978917423873651  0.8733367697502753
  0.7461179580991110  0.5060007401619102  0.3745676171149014
  0.7479628222794636  0.5136707237766907  0.8728369525645593
  0.2517465246622070  0.7542713761579302  0.1248503520126047
  0.2482144853007425  0.7507477175027776  0.6245813061168469
  0.7526384197916764  0.2610647838447263  0.6229902159536357
  0.7514000473848969  0.7471048323986725  0.1293176258512129
  0.7485043335436707  0.7480831577926517  0.6233981325709478
  0.2520670307821276  0.2435152541726380  0.3742522632872528
  0.2515593275199925  0.2516104650389417  0.8752737905338834
  0.7623549149836680  0.2438297174754233  0.3743308583367821
  0.7514039136046419  0.2452450187813288  0.8758327786043175
  0.1269977229025583  0.0079534782927064  0.0020145629823378
  0.1249121232002347  0.0084705683111178  0.4970803457500958
  0.1231106657443519  0.5018510965824786  0.4913487792481439
  0.6250639677467924  0.0105649128601933  0.0085416203438996
  0.6239001418934853  0.9844856247408019  0.5023412330983099
  0.6249683814188853  0.4942286483287679  0.4970313606006607
  0.1269027977297877  0.0021447558273181  0.7480110241437528
  0.1236819367903171  0.5077043126944566  0.2485989954711402
  0.1227724167713963  0.4923087643877326  0.7633115559201118
  0.6234555612093110  0.9943276777431241  0.7415703457028060
  0.6249839523340847  0.4990890381683470  0.2509333572709597
  0.6258954477408126  0.4919185684686571  0.7557203565995365
  0.1255475166713476  0.2461436390789011  0.9947987216640668
  0.1237078315880444  0.2432088276711445  0.4993913023132511
  0.1261855489353154  0.7378413355233768  0.0018047068113945
  0.1237811724302194  0.7470221372343271  0.4951267852733620
  0.6264082278998591  0.2438891510560495  0.9951184202229130
  0.1247411430505962  0.2366117076388929  0.2560030155238881
  0.1227389727556659  0.7542493099897072  0.7495280874466114
  0.6242153225838621  0.7556496018709410  0.7454731751884732
  0.3773995650079620  0.0057521788350032  0.4962338382493064
  0.3740487256462608  0.4883188382092815  0.0076090129783557
  0.8748345234290027  0.0041116601391941  0.5106502164991187
  0.8734483487220623  0.4897367169634854  0.9982390788717449
  0.3776009347681917  0.9961122637300432  0.2570832313710343
  0.3743310228935071  0.4999553892587297  0.7394239277209788
  0.8740577061224282  0.9987334311973225  0.2468467963883759
  0.8741182291197264  0.9932048991105512  0.7418908525760957
  0.3789195136311761  0.2435967476668270  0.4959344007404058
  0.3759438577700229  0.7643854505079967  0.0019599811881064
  0.3762049364548662  0.7435832456838226  0.5018747609674234
  0.8744297405274915  0.2523553751797239  0.5047597753726738
  0.8758660002650953  0.7639500323127592  0.9952117297649345
  0.8722422205863469  0.7442327011082310  0.5025006728905840
  0.3783983199567978  0.2586119493357242  0.2471947403763625
  0.3763850016848584  0.2496725573800075  0.7537295032263975
  0.3770549713269513  0.7480471535474190  0.2459140057138123
  0.3735713243821360  0.7537298756821370  0.7475109956192173
  0.8744594112718628  0.2563744020861730  0.2439338992968043
  0.8740745601044406  0.2540464356033989  0.7471280447947980
  0.8734390199762166  0.7469616974701072  0.2498290494799629
  0.9995667033503804  0.1277336719858691  0.0013781737824742
  0.9950818866591141  0.1259543848024193  0.5099526605732623
  0.9881986044126334  0.6250817461812672  0.9941977910396053
  1.0000327338485959  0.6260735066104656  0.4918162829470745
  0.4987537574807466  0.1253821183463780  0.9981646905300271
  0.4801728215092720  0.6258590795819688  0.9978719177144548
  0.5073431292783509  0.6263463702271441  0.4980412475891559
  0.9910707951549491  0.1279612523658547  0.2463155988238581
  0.9986795381883263  0.6233068975946742  0.2578008510868964
  0.0112351923938333  0.6242057752821161  0.7554011173808491
  0.5016696796255266  0.6258296097600076  0.2544881698941716
  0.0045959746462844  0.3737944596009208  0.4975936679399670
  0.4944971514681681  0.3719679999260201  0.5062634516633807
  0.4879872603745297  0.8777888743721033  0.4948784179989196
  0.9950387541283018  0.3746312978160246  0.7508157826410168
  0.9956279713534520  0.8761856519817003  0.2512946539597841
  0.9997198236407525  0.8759001475560152  0.7477351676352277
  0.5050662871070946  0.3720716860258605  0.2395441731393613
  0.4956910722933459  0.3735707412616234  0.7462903581995490
  0.4959160079212954  0.8762708474392662  0.2470405936704715
  0.5015754944041673  0.8750104155472933  0.7560789003349712
  0.2528194460963449  0.1251868231870825  0.9931541055838162
  0.2517996176996799  0.1245568367211522  0.4968362767424808
  0.2463541375874077  0.6260743067969684  0.5051640683966465
  0.7509009839627868  0.1271366682375642  0.0012174259335348
  0.7686063995538150  0.6216049594756895  0.0047576412315919
  0.7437088655382988  0.6246998641935883  0.5014486679068350
  0.2611491536360742  0.1267821011838088  0.2532394782859026
  0.2525967480665191  0.1246320245728139  0.7580101490453335
  0.2511716780571525  0.6235729265434115  0.2403303724588019
  0.7594073596060341  0.1264447117178376  0.2514326626202336
  0.7458176646969650  0.6248351975436134  0.2491776282354408
  0.7348459085386020  0.6226266010966635  0.7395712721334717
  0.2433752966417325  0.3763635536148305  0.9970198820906252
  0.2393403683388118  0.8738513950046192  0.0035072057412845
  0.7390438373682786  0.3756194465184688  0.9858783410550199
  0.7529783818120289  0.3719808736055647  0.4873633959556684
  0.7352225954673967  0.8793314635450269  0.0117970430630115
  0.7604012969340626  0.8760585275296207  0.5053393277583733
  0.2543326880404035  0.3759538088450732  0.7560064595260714
  0.2545046559624699  0.8756287368253519  0.2511450318869110
  0.2459093211093458  0.8735406829087341  0.7453814256375225
  0.7476001111119794  0.3742365269164026  0.2651734241790820
  0.7548693342933990  0.3737034053165606  0.7609124728790501
  0.7544034940506018  0.8756542071384834  0.2416953719682171
  0.7509464153604350  0.8740353679560284  0.7474147444189281
 
  0.00000000E+00  0.00000000E+00  0.00000000E+00
  0.00000000E+00  0.00000000E+00  0.00000000E+00
  0.00000000E+00  0.00000000E+00  0.00000000E+00
  0.00000000E+00  0.00000000E+00  0.00000000E+00
  0.00000000E+00  0.00000000E+00  0.00000000E+00
  0.00000000E+00  0.00000000E+00  0.00000000E+00
  0.00000000E+00  0.00000000E+00  0.00000000E+00
  0.00000000E+00  0.00000000E+00  0.00000000E+00
  0.00000000E+00  0.00000000E+00  0.00000000E+00
  0.00000000E+00  0.00000000E+00  0.00000000E+00
  0.00000000E+00  0.00000000E+00  0.00000000E+00
  0.00000000E+00  0.00000000E+00  0.00000000E+00
  0.00000000E+00  0.00000000E+00  0.00000000E+00
  0.00000000E+00  0.00000000E+00  0.00000000E+00
  0.00000000E+00  0.00000000E+00  0.00000000E+00
  0.00000000E+00  0.00000000E+00  0.00000000E+00
  0.00000000E+00  0.00000000E+00  0.00000000E+00
  0.00000000E+00  0.00000000E+00  0.00000000E+00
  0.00000000E+00  0.00000000E+00  0.00000000E+00
  0.00000000E+00  0.00000000E+00  0.00000000E+00
  0.00000000E+00  0.00000000E+00  0.00000000E+00
  0.00000000E+00  0.00000000E+00  0.00000000E+00
  0.00000000E+00  0.00000000E+00  0.00000000E+00
  0.00000000E+00  0.00000000E+00  0.00000000E+00
  0.00000000E+00  0.00000000E+00  0.00000000E+00
  0.00000000E+00  0.00000000E+00  0.00000000E+00
  0.00000000E+00  0.00000000E+00  0.00000000E+00
  0.00000000E+00  0.00000000E+00  0.00000000E+00
  0.00000000E+00  0.00000000E+00  0.00000000E+00
  0.00000000E+00  0.00000000E+00  0.00000000E+00
  0.00000000E+00  0.00000000E+00  0.00000000E+00
  0.00000000E+00  0.00000000E+00  0.00000000E+00
  0.00000000E+00  0.00000000E+00  0.00000000E+00
  0.00000000E+00  0.00000000E+00  0.00000000E+00
  0.00000000E+00  0.00000000E+00  0.00000000E+00
  0.00000000E+00  0.00000000E+00  0.00000000E+00
  0.00000000E+00  0.00000000E+00  0.00000000E+00
  0.00000000E+00  0.00000000E+00  0.00000000E+00
  0.00000000E+00  0.00000000E+00  0.00000000E+00
  0.00000000E+00  0.00000000E+00  0.00000000E+00
  0.00000000E+00  0.00000000E+00  0.00000000E+00
  0.00000000E+00  0.00000000E+00  0.00000000E+00
  0.00000000E+00  0.00000000E+00  0.00000000E+00
  0.00000000E+00  0.00000000E+00  0.00000000E+00
  0.00000000E+00  0.00000000E+00  0.00000000E+00
  0.00000000E+00  0.00000000E+00  0.00000000E+00
  0.00000000E+00  0.00000000E+00  0.00000000E+00
  0.00000000E+00  0.00000000E+00  0.00000000E+00
  0.00000000E+00  0.00000000E+00  0.00000000E+00
  0.00000000E+00  0.00000000E+00  0.00000000E+00
  0.00000000E+00  0.00000000E+00  0.00000000E+00
  0.00000000E+00  0.00000000E+00  0.00000000E+00
  0.00000000E+00  0.00000000E+00  0.00000000E+00
  0.00000000E+00  0.00000000E+00  0.00000000E+00
  0.00000000E+00  0.00000000E+00  0.00000000E+00
  0.00000000E+00  0.00000000E+00  0.00000000E+00
  0.00000000E+00  0.00000000E+00  0.00000000E+00
  0.00000000E+00  0.00000000E+00  0.00000000E+00
  0.00000000E+00  0.00000000E+00  0.00000000E+00
  0.00000000E+00  0.00000000E+00  0.00000000E+00
  0.00000000E+00  0.00000000E+00  0.00000000E+00
  0.00000000E+00  0.00000000E+00  0.00000000E+00
  0.00000000E+00  0.00000000E+00  0.00000000E+00
  0.00000000E+00  0.00000000E+00  0.00000000E+00
  0.00000000E+00  0.00000000E+00  0.00000000E+00
  0.00000000E+00  0.00000000E+00  0.00000000E+00
  0.00000000E+00  0.00000000E+00  0.00000000E+00
  0.00000000E+00  0.00000000E+00  0.00000000E+00
  0.00000000E+00  0.00000000E+00  0.00000000E+00
  0.00000000E+00  0.00000000E+00  0.00000000E+00
  0.00000000E+00  0.00000000E+00  0.00000000E+00
  0.00000000E+00  0.00000000E+00  0.00000000E+00
  0.00000000E+00  0.00000000E+00  0.00000000E+00
  0.00000000E+00  0.00000000E+00  0.00000000E+00
  0.00000000E+00  0.00000000E+00  0.00000000E+00
  0.00000000E+00  0.00000000E+00  0.00000000E+00
  0.00000000E+00  0.00000000E+00  0.00000000E+00
  0.00000000E+00  0.00000000E+00  0.00000000E+00
  0.00000000E+00  0.00000000E+00  0.00000000E+00
  0.00000000E+00  0.00000000E+00  0.00000000E+00
  0.00000000E+00  0.00000000E+00  0.00000000E+00
  0.00000000E+00  0.00000000E+00  0.00000000E+00
  0.00000000E+00  0.00000000E+00  0.00000000E+00
  0.00000000E+00  0.00000000E+00  0.00000000E+00
  0.00000000E+00  0.00000000E+00  0.00000000E+00
  0.00000000E+00  0.00000000E+00  0.00000000E+00
  0.00000000E+00  0.00000000E+00  0.00000000E+00
  0.00000000E+00  0.00000000E+00  0.00000000E+00
  0.00000000E+00  0.00000000E+00  0.00000000E+00
  0.00000000E+00  0.00000000E+00  0.00000000E+00
  0.00000000E+00  0.00000000E+00  0.00000000E+00
  0.00000000E+00  0.00000000E+00  0.00000000E+00
  0.00000000E+00  0.00000000E+00  0.00000000E+00
  0.00000000E+00  0.00000000E+00  0.00000000E+00
  0.00000000E+00  0.00000000E+00  0.00000000E+00
  0.00000000E+00  0.00000000E+00  0.00000000E+00
  0.00000000E+00  0.00000000E+00  0.00000000E+00
  0.00000000E+00  0.00000000E+00  0.00000000E+00
  0.00000000E+00  0.00000000E+00  0.00000000E+00
  0.00000000E+00  0.00000000E+00  0.00000000E+00
  0.00000000E+00  0.00000000E+00  0.00000000E+00
  0.00000000E+00  0.00000000E+00  0.00000000E+00
  0.00000000E+00  0.00000000E+00  0.00000000E+00
  0.00000000E+00  0.00000000E+00  0.00000000E+00
  0.00000000E+00  0.00000000E+00  0.00000000E+00
  0.00000000E+00  0.00000000E+00  0.00000000E+00
  0.00000000E+00  0.00000000E+00  0.00000000E+00
  0.00000000E+00  0.00000000E+00  0.00000000E+00
  0.00000000E+00  0.00000000E+00  0.00000000E+00
  0.00000000E+00  0.00000000E+00  0.00000000E+00
  0.00000000E+00  0.00000000E+00  0.00000000E+00
  0.00000000E+00  0.00000000E+00  0.00000000E+00
  0.00000000E+00  0.00000000E+00  0.00000000E+00
  0.00000000E+00  0.00000000E+00  0.00000000E+00
  0.00000000E+00  0.00000000E+00  0.00000000E+00
  0.00000000E+00  0.00000000E+00  0.00000000E+00
  0.00000000E+00  0.00000000E+00  0.00000000E+00
  0.00000000E+00  0.00000000E+00  0.00000000E+00
  0.00000000E+00  0.00000000E+00  0.00000000E+00
  0.00000000E+00  0.00000000E+00  0.00000000E+00
  0.00000000E+00  0.00000000E+00  0.00000000E+00
  0.00000000E+00  0.00000000E+00  0.00000000E+00
  0.00000000E+00  0.00000000E+00  0.00000000E+00
  0.00000000E+00  0.00000000E+00  0.00000000E+00
  0.00000000E+00  0.00000000E+00  0.00000000E+00
  0.00000000E+00  0.00000000E+00  0.00000000E+00
  0.00000000E+00  0.00000000E+00  0.00000000E+00
  0.00000000E+00  0.00000000E+00  0.00000000E+00
  0.00000000E+00  0.00000000E+00  0.00000000E+00
  0.00000000E+00  0.00000000E+00  0.00000000E+00
  0.00000000E+00  0.00000000E+00  0.00000000E+00
  0.00000000E+00  0.00000000E+00  0.00000000E+00
  0.00000000E+00  0.00000000E+00  0.00000000E+00
  0.00000000E+00  0.00000000E+00  0.00000000E+00
  0.00000000E+00  0.00000000E+00  0.00000000E+00
  0.00000000E+00  0.00000000E+00  0.00000000E+00
  0.00000000E+00  0.00000000E+00  0.00000000E+00
  0.00000000E+00  0.00000000E+00  0.00000000E+00
  0.00000000E+00  0.00000000E+00  0.00000000E+00
  0.00000000E+00  0.00000000E+00  0.00000000E+00
  0.00000000E+00  0.00000000E+00  0.00000000E+00
  0.00000000E+00  0.00000000E+00  0.00000000E+00
  0.00000000E+00  0.00000000E+00  0.00000000E+00
  0.00000000E+00  0.00000000E+00  0.00000000E+00
  0.00000000E+00  0.00000000E+00  0.00000000E+00
  0.00000000E+00  0.00000000E+00  0.00000000E+00
  0.00000000E+00  0.00000000E+00  0.00000000E+00
  0.00000000E+00  0.00000000E+00  0.00000000E+00
  0.00000000E+00  0.00000000E+00  0.00000000E+00
  0.00000000E+00  0.00000000E+00  0.00000000E+00
  0.00000000E+00  0.00000000E+00  0.00000000E+00
  0.00000000E+00  0.00000000E+00  0.00000000E+00
  0.00000000E+00  0.00000000E+00  0.00000000E+00
  0.00000000E+00  0.00000000E+00  0.00000000E+00
  0.00000000E+00  0.00000000E+00  0.00000000E+00
  0.00000000E+00  0.00000000E+00  0.00000000E+00
  0.00000000E+00  0.00000000E+00  0.00000000E+00
  0.00000000E+00  0.00000000E+00  0.00000000E+00
  0.00000000E+00  0.00000000E+00  0.00000000E+00
  0.00000000E+00  0.00000000E+00  0.00000000E+00
  0.00000000E+00  0.00000000E+00  0.00000000E+00
  0.00000000E+00  0.00000000E+00  0.00000000E+00
  0.00000000E+00  0.00000000E+00  0.00000000E+00
  0.00000000E+00  0.00000000E+00  0.00000000E+00
  0.00000000E+00  0.00000000E+00  0.00000000E+00
  0.00000000E+00  0.00000000E+00  0.00000000E+00
  0.00000000E+00  0.00000000E+00  0.00000000E+00
  0.00000000E+00  0.00000000E+00  0.00000000E+00
  0.00000000E+00  0.00000000E+00  0.00000000E+00
  0.00000000E+00  0.00000000E+00  0.00000000E+00
  0.00000000E+00  0.00000000E+00  0.00000000E+00
  0.00000000E+00  0.00000000E+00  0.00000000E+00
  0.00000000E+00  0.00000000E+00  0.00000000E+00
  0.00000000E+00  0.00000000E+00  0.00000000E+00
  0.00000000E+00  0.00000000E+00  0.00000000E+00
  0.00000000E+00  0.00000000E+00  0.00000000E+00
  0.00000000E+00  0.00000000E+00  0.00000000E+00
  0.00000000E+00  0.00000000E+00  0.00000000E+00
  0.00000000E+00  0.00000000E+00  0.00000000E+00
  0.00000000E+00  0.00000000E+00  0.00000000E+00
  0.00000000E+00  0.00000000E+00  0.00000000E+00
  0.00000000E+00  0.00000000E+00  0.00000000E+00
  0.00000000E+00  0.00000000E+00  0.00000000E+00
  0.00000000E+00  0.00000000E+00  0.00000000E+00
  0.00000000E+00  0.00000000E+00  0.00000000E+00
  0.00000000E+00  0.00000000E+00  0.00000000E+00
  0.00000000E+00  0.00000000E+00  0.00000000E+00
  0.00000000E+00  0.00000000E+00  0.00000000E+00
  0.00000000E+00  0.00000000E+00  0.00000000E+00
  0.00000000E+00  0.00000000E+00  0.00000000E+00
  0.00000000E+00  0.00000000E+00  0.00000000E+00
  0.00000000E+00  0.00000000E+00  0.00000000E+00
  0.00000000E+00  0.00000000E+00  0.00000000E+00
  0.00000000E+00  0.00000000E+00  0.00000000E+00
  0.00000000E+00  0.00000000E+00  0.00000000E+00
  0.00000000E+00  0.00000000E+00  0.00000000E+00
  0.00000000E+00  0.00000000E+00  0.00000000E+00
  0.00000000E+00  0.00000000E+00  0.00000000E+00
  0.00000000E+00  0.00000000E+00  0.00000000E+00
  0.00000000E+00  0.00000000E+00  0.00000000E+00
  0.00000000E+00  0.00000000E+00  0.00000000E+00
  0.00000000E+00  0.00000000E+00  0.00000000E+00
  0.00000000E+00  0.00000000E+00  0.00000000E+00
  0.00000000E+00  0.00000000E+00  0.00000000E+00
  0.00000000E+00  0.00000000E+00  0.00000000E+00
  0.00000000E+00  0.00000000E+00  0.00000000E+00
  0.00000000E+00  0.00000000E+00  0.00000000E+00
  0.00000000E+00  0.00000000E+00  0.00000000E+00
  0.00000000E+00  0.00000000E+00  0.00000000E+00
  0.00000000E+00  0.00000000E+00  0.00000000E+00
  0.00000000E+00  0.00000000E+00  0.00000000E+00
  0.00000000E+00  0.00000000E+00  0.00000000E+00
  0.00000000E+00  0.00000000E+00  0.00000000E+00
  0.00000000E+00  0.00000000E+00  0.00000000E+00
  0.00000000E+00  0.00000000E+00  0.00000000E+00
  0.00000000E+00  0.00000000E+00  0.00000000E+00
  0.00000000E+00  0.00000000E+00  0.00000000E+00
  0.00000000E+00  0.00000000E+00  0.00000000E+00
  0.00000000E+00  0.00000000E+00  0.00000000E+00
  0.00000000E+00  0.00000000E+00  0.00000000E+00
  0.00000000E+00  0.00000000E+00  0.00000000E+00
  0.00000000E+00  0.00000000E+00  0.00000000E+00
  0.00000000E+00  0.00000000E+00  0.00000000E+00
  0.00000000E+00  0.00000000E+00  0.00000000E+00
  0.00000000E+00  0.00000000E+00  0.00000000E+00
  0.00000000E+00  0.00000000E+00  0.00000000E+00
  0.00000000E+00  0.00000000E+00  0.00000000E+00
  0.00000000E+00  0.00000000E+00  0.00000000E+00
  0.00000000E+00  0.00000000E+00  0.00000000E+00
  0.00000000E+00  0.00000000E+00  0.00000000E+00
  0.00000000E+00  0.00000000E+00  0.00000000E+00
  0.00000000E+00  0.00000000E+00  0.00000000E+00
  0.00000000E+00  0.00000000E+00  0.00000000E+00
  0.00000000E+00  0.00000000E+00  0.00000000E+00
  0.00000000E+00  0.00000000E+00  0.00000000E+00
  0.00000000E+00  0.00000000E+00  0.00000000E+00
  0.00000000E+00  0.00000000E+00  0.00000000E+00
  0.00000000E+00  0.00000000E+00  0.00000000E+00
  0.00000000E+00  0.00000000E+00  0.00000000E+00
  0.00000000E+00  0.00000000E+00  0.00000000E+00
  0.00000000E+00  0.00000000E+00  0.00000000E+00
  0.00000000E+00  0.00000000E+00  0.00000000E+00
  0.00000000E+00  0.00000000E+00  0.00000000E+00
  0.00000000E+00  0.00000000E+00  0.00000000E+00
  0.00000000E+00  0.00000000E+00  0.00000000E+00
  0.00000000E+00  0.00000000E+00  0.00000000E+00
  0.00000000E+00  0.00000000E+00  0.00000000E+00
  0.00000000E+00  0.00000000E+00  0.00000000E+00
  0.00000000E+00  0.00000000E+00  0.00000000E+00
  0.00000000E+00  0.00000000E+00  0.00000000E+00
  0.00000000E+00  0.00000000E+00  0.00000000E+00
  0.00000000E+00  0.00000000E+00  0.00000000E+00
  0.00000000E+00  0.00000000E+00  0.00000000E+00
  0.00000000E+00  0.00000000E+00  0.00000000E+00
  0.00000000E+00  0.00000000E+00  0.00000000E+00
  0.00000000E+00  0.00000000E+00  0.00000000E+00
  0.00000000E+00  0.00000000E+00  0.00000000E+00
