config 25                               
   1.00000000000000     
    15.4263309999999993    0.0000000000000000    0.0000000000000000
     0.0000000000000000   15.4263309999999993    0.0000000000000000
     0.0000000000000000    0.0000000000000000   15.4263309999999993
   Li   Ti   O    F 
     1    64    64   128
Direct
  0.3928213721531369  0.6009826921180399  0.0881224666466362
  0.9964122022741967  0.9942130616644080  0.9949071884537112
  0.9984060240640023  0.9916624862279815  0.4940711292790213
  0.0056969100560718  0.4963065471469993  0.9969458730662573
  0.9937958717878416  0.5037332479321012  0.5073621541844850
  0.4952534018492636  0.9935849528228945  0.0013538701644723
  0.5015888864220378  0.0086736228865491  0.4986504789498702
  0.5082854464485224  0.4911005261777497  0.9928079238017798
  0.4908117854932217  0.4984973012100347  0.4958194658932056
  0.0065984025142305  0.0030155742875473  0.2563213801255371
  0.0023400968583807  0.0076015871028523  0.7571670544116734
  0.9928076857170604  0.4945803056564776  0.2509494306119677
  0.9932414891561223  0.4998743739459987  0.7409047365119280
  0.5061466074181803  0.0076496065022528  0.2504933868814320
  0.4935282625167523  0.0055703585849154  0.7536407281559349
  0.4921482355764051  0.4965281177530437  0.2588638430726681
  0.5012025790942429  0.5036051634049052  0.7574406443768146
  0.9964636047032218  0.2584256669349416  0.0017360224500036
  0.9982896332181066  0.2482642614422951  0.4911799488630462
  0.9982138671964608  0.7577827483672180  0.0063942786034994
  0.9959028610040451  0.7569426476655443  0.5064370831954476
  0.4963258972832027  0.2566709645716053  0.0023962891941388
  0.5090817821334556  0.2453926728241146  0.4976967855194547
  0.5084113043012156  0.7573606013890356  0.0002611535662584
  0.5067564797093402  0.7532291302280816  0.5071329317707712
  0.9988793845130098  0.2588509802694492  0.2550529374106725
  0.0076006422847583  0.2430281354578475  0.7475835515987291
  0.0031400298066498  0.7490134747788778  0.2435200993760986
  0.9925687525864598  0.7503073917529708  0.7434947228702771
  0.5077651307624746  0.2414223994434367  0.2525225762700298
  0.5079304313023935  0.2434069821324489  0.7515074486358785
  0.5018520988423489  0.7526845391238962  0.2519910083461009
  0.5017513735926855  0.7412425965859789  0.7426589808479328
  0.2570075750658188  0.9966309043052648  0.0063283243208904
  0.2513062686139726  0.9923406049773495  0.5061921374550622
  0.2421469855862333  0.5092321255647648  0.9978889220976191
  0.2540165824582651  0.4935768382626542  0.5067044111157795
  0.7574825015953163  0.9997024081231990  0.9942324092218358
  0.7494864534601134  0.0075290027160275  0.4948418645410720
  0.7431339944317304  0.5010187622052775  0.0041557538218373
  0.7546790772612051  0.4982215675159873  0.5052662742918294
  0.2447759988695140  0.0015395756956888  0.2440162969097031
  0.2586527164773695  0.9970448294998726  0.7449056787496222
  0.2548302863980116  0.4931398800985828  0.2522286504935419
  0.2466781853397656  0.5045456226863565  0.7398482359948108
  0.7445430650124401  0.0006932328109317  0.2557295116376386
  0.7480866493512103  0.0071725134393362  0.7560298323077831
  0.7548107385937303  0.4994539971392295  0.2416793453144725
  0.7575380730854968  0.4980331692680269  0.7415019389843844
  0.2578184782380157  0.2530009135061786  0.0065125883744557
  0.2538786771542692  0.2570322539995974  0.5050381569363027
  0.2516471098802504  0.7407055455393071  0.9951782117891630
  0.2516767334053523  0.7541454177413340  0.4933110000358147
  0.7576860701290798  0.2524919832576681  0.0079014923598093
  0.7420142761804669  0.2428105858984273  0.4973697275099767
  0.7415776918791329  0.7484350769951225  0.9937238288261510
  0.7413191905715854  0.7526902696721171  0.4922706608615944
  0.2511173553480466  0.2589439641324980  0.2441243714786195
  0.2448273212632317  0.2525708947699366  0.7440650796752175
  0.2403137584528665  0.7482960009454467  0.2571050926826448
  0.2473447151477091  0.7396998986023087  0.7565322292959120
  0.7412297148356169  0.2524374439735365  0.2424446456944847
  0.7450502370717975  0.2425210865254693  0.7507954117926392
  0.7411016964312183  0.7509799503799940  0.2550219000655415
  0.7570886424507686  0.7500057863645646  0.7559398543480998
  0.0134389798071768  0.5031789768850686  0.6242934944341600
  0.9971484398057500  0.0054404293743429  0.3765534503569509
  0.0028325012600980  0.0020208981533666  0.8733526147274168
  0.4913253308617340  0.4823694843051641  0.3757594133953277
  0.4904852453651991  0.4866690940587839  0.8739152861337108
  0.9980666740317747  0.7448895125094229  0.1255995536354688
  0.0027756586974406  0.7450012920530679  0.6247757890708058
  0.5018042640783761  0.7422035557573257  0.6249637330893744
  0.9898046680193270  0.2479999991611269  0.3762923216746381
  0.2565890457867633  0.9936234625016455  0.1256814883090376
  0.2584699993442098  0.9958981223028824  0.6257199564407077
  0.2353246325596824  0.4856698451313775  0.6257714468967274
  0.7465498771076319  0.4885534380783805  0.1242689183572756
  0.7417832226459700  0.4894687647648482  0.6238241263116693
  0.7489120429865876  0.0032727242578174  0.3764186419523067
  0.7442653855681400  0.0032509283251586  0.8738219792462378
  0.2420050757855795  0.2592296437456147  0.1255481393605631
  0.2500989662897198  0.2573550855507412  0.6251171377401051
  0.7385886184761306  0.2635296220419057  0.1258191070425819
  0.2530171676458816  0.7383669492611764  0.3757967725375425
  0.2504633846141283  0.7376753365639581  0.8771427320898973
  0.7521162214450438  0.7482891417086750  0.3754089341427986
  0.7479426169718443  0.7477555034432986  0.8752698441266287
  0.1251685946783900  0.5159210714458111  0.9896348970911722
  0.6269503413030252  0.5142727840423822  0.9933919214964656
  0.1251534701141037  0.0005296532441900  0.2504332506834308
  0.6250464413266336  0.9997059420098722  0.2484014563679427
  0.6244667853302313  0.2633123196069926  0.4896399016559539
  0.6241836630068144  0.7330996244918656  0.0038719010958087
  0.6232583853132317  0.7677051186506465  0.4964350393822927
  0.1257282979044662  0.2543771571253227  0.7529913195243124
  0.1226498756089978  0.7550954172055210  0.2536313947596620
  0.6253370544759134  0.2503759733346482  0.2649494666358665
  0.6265106551763732  0.2551236929124696  0.7521140059172804
  0.6259286708437249  0.7595482954949243  0.2479882067659549
  0.3768149643894135  0.9917375425801699  0.9918506761624076
  0.3748780663154671  0.5094222663689079  0.5093389015992134
  0.8735224326047184  0.9921768867963221  0.9979619286936782
  0.8747376732218139  0.5086957167742050  0.5045581449097913
  0.3767416284089576  0.9990819109343856  0.7606265612523250
  0.3727449272302113  0.5038436781124035  0.2389711709521798
  0.8749067548313196  0.5002785034574955  0.2468289153598621
  0.8756923258154339  0.5105845915795547  0.7399715761548045
  0.3769685965128214  0.2556361857650085  0.0084112028202388
  0.8754880724594160  0.2587561903803399  0.0092587436280207
  0.8746894287787771  0.7409820829844448  0.7490806688878082
  0.5160601239733240  0.1226754564515392  0.4858163945732135
  1.0000476566965824  0.1263918842207666  0.7448400385579877
  0.4985745960932776  0.1257436354108165  0.2710739353166393
  0.5042893013181413  0.1241899693161742  0.7599290225544720
  0.5033714618064193  0.6237144541341446  0.7583482607463955
  0.0102397046470810  0.3769267241036762  0.0042600005675446
  0.0114670859886149  0.8743424298293953  0.0021364985008133
  0.9858063887757621  0.8751138617886773  0.4999277334867094
  0.5122318585521273  0.3726462350049268  0.0154602690155220
  0.5119482751339723  0.8753182216776443  0.0153479267097565
  0.0046229155336156  0.3746414040401418  0.2462580702596800
  0.2721000517100304  0.6243402246306349  0.0208458027463634
  0.7341776120570842  0.1255215837516546  0.5070383051924684
  0.2445157919481357  0.6236812309630894  0.7397859901701224
  0.7494530307337403  0.1251966428817767  0.7407150460675499
  0.2584685353528824  0.3731551972607182  0.4877426383748305
  0.2598082557097420  0.8751101625625261  0.4935579599371342
  0.2468087070277434  0.3754168935727867  0.2639722018360550
  0.9984515459611966  0.0030543198306755  0.1265909788752122
  0.0017886888649129  0.9981175911126642  0.6240990134395842
  0.0057225052444122  0.5104999319897539  0.1246716375800336
  0.4919207986539005  0.0220876527642811  0.1259912646305778
  0.4945489731901718  0.0099188081614927  0.6234555946443796
  0.4990524329787356  0.5216755632604968  0.1242870047202945
  0.5122627204484386  0.5065644343805185  0.6242400995285090
  0.9967826450618250  0.4945630724752516  0.3760885694732060
  0.9904949198891282  0.4967348016082029  0.8727790733648627
  0.5051753857027599  0.9801166857194992  0.3770484115323640
  0.5175593004625342  0.9875305063185151  0.8761062091182218
  0.0128959981827356  0.2459881147469308  0.1270108040379926
  0.0042970785343566  0.2580735220910975  0.6213318371053193
  0.5126300835611813  0.2290217856420048  0.1268579466454942
  0.5033908350660172  0.2357769640060553  0.6227272399672669
  0.4874644167354222  0.7269457517001802  0.1215696382606870
  0.9925551664728761  0.2520563528990213  0.8744785336992912
  0.9923212419136902  0.7515793865642391  0.3762083612212136
  0.0014620939609190  0.7510619505366531  0.8744695099858965
  0.4870946020305370  0.2702611343190890  0.3756635969142308
  0.4967550853742005  0.2641903516562821  0.8751681738541224
  0.4868016493772791  0.7671634604020088  0.3813804695531371
  0.4989130250083067  0.7599766330351645  0.8749972084203036
  0.2376389217046606  0.4852046172829753  0.1243775539726041
  0.7509480503465901  0.9990110706329258  0.1261069481152491
  0.7491717139565333  0.9927337159904388  0.6233027621168228
  0.2491687674378925  0.0084232377560663  0.3761831305092010
  0.2415683028835938  0.0024351259118958  0.8753063778193496
  0.2543784619592798  0.5182967882554274  0.3750390235895163
  0.2649575582896824  0.5112869606585406  0.8750186539636274
  0.7488510536683338  0.5097075133360213  0.3740955443724152
  0.7585211514215822  0.5087542259943234  0.8738411084370324
  0.2490958732118336  0.7630762621267939  0.1255634232335313
  0.2464551009945847  0.7587403347160586  0.6265739876247786
  0.7473829933841012  0.2644788443307083  0.6227131601375746
  0.7557190159423911  0.7518909849440913  0.1240206726347916
  0.7459875944365261  0.7519457395584395  0.6252372121968294
  0.2576008940383320  0.2375157259317332  0.3741381698490975
  0.2565798727893467  0.2444494924452993  0.8759432102776707
  0.7655985993773228  0.2391439173146464  0.3739412598139673
  0.7578647428545139  0.2409680906314311  0.8762001416751412
  0.1268504551795713  0.0091662703215690  0.0047969276365699
  0.1247878645439799  0.9930949991331471  0.5014851890197665
  0.1234526451768879  0.4933710458798585  0.4870997893084156
  0.6250989569731542  0.0110285482527857  0.0095860532606695
  0.6236645284224631  0.9790848683631691  0.5049089348552925
  0.6244302574701932  0.4867347555394573  0.4929148515457600
  0.1275351815695848  0.9972569680701127  0.7446866606279362
  0.1239063775978183  0.5050625175984046  0.2547455388862364
  0.1240433720072329  0.4910641223479727  0.7673001423222942
  0.6238386281076005  0.9933684896695796  0.7387943169326413
  0.6233909207627346  0.4939581773853378  0.2510386283940435
  0.6269021058276762  0.4899487847191673  0.7600842996211116
  0.1260986639851778  0.2443711506080562  0.9910476975774863
  0.1237978352041880  0.2548063394330586  0.4930161653930785
  0.1251016124969295  0.7317466626259854  0.0017960864307368
  0.1232373947354618  0.7592491775080333  0.4955749564774739
  0.6271378419658140  0.2406235333730625  0.9906158469074480
  0.1246598777638574  0.2411973435522212  0.2615158323782237
  0.1234244013679820  0.7567747311223760  0.7534881905579700
  0.6258019626622340  0.7565271136699823  0.7516661273119184
  0.3776985395311275  0.0153783404578414  0.4918524717350439
  0.3750907101953879  0.4920622987646607  0.0172760543317931
  0.8743157809411115  0.0177893188380192  0.5068888734586281
  0.8755007519249139  0.4894404497935236  0.0036498637569501
  0.3759806586259309  0.0022325226605587  0.2595854994699625
  0.3747908892544596  0.5004513894179586  0.7358726316444200
  0.8739875735728310  0.0050061508418550  0.2484281711871348
  0.8746522025272402  0.9967440764366706  0.7458103639929792
  0.3792090506970499  0.2347909377763351  0.5018021738388124
  0.3753692169445202  0.7653285848789885  0.0007379619438898
  0.3753017042551011  0.7361774209027097  0.5068804207813550
  0.8742608782493613  0.2404532684740614  0.5096909514257733
  0.8723211105112219  0.7647195164537975  0.9972386941780749
  0.8718253388445225  0.7347602632560117  0.5063966281688016
  0.3777965285880509  0.2536619048190275  0.2414788643874785
  0.3771699720687504  0.2477730309075390  0.7483813277612067
  0.3718684459655299  0.7425933587033234  0.2452847261202509
  0.3743893936024564  0.7512531719224494  0.7501028349234704
  0.8740545784904141  0.2538761660272740  0.2390491760018116
  0.8752241723192496  0.2521246997903830  0.7429785521270814
  0.8739838015909379  0.7435638857799370  0.2497713323053044
  0.9963339781764328  0.1277403074757763  0.0008348835327634
  0.0081870825581531  0.1259619072805002  0.5084998981203160
  0.9844358926635982  0.6250409759827543  0.9934771378100410
  0.0094775711579911  0.6266454199792281  0.4912758856277119
  0.4969977319937638  0.1246742071674795  0.9860595844813130
  0.4766739056608695  0.6249521681590480  0.9926514328997477
  0.5124237142512783  0.6255547161169309  0.4875797452792708
  0.9951944212478409  0.1283417871395922  0.2465739944321503
  0.0015789739402368  0.6234175186136766  0.2591396890203755
  0.0136373926163506  0.6244237605362187  0.7571500034699646
  0.5046632690800058  0.6211001700253957  0.2680283421342629
  0.9930819703523224  0.3741270620484601  0.4995223716489271
  0.4870809025171671  0.3707565478134150  0.5162532960068269
  0.4821134164035668  0.8796662622910648  0.5129102509909921
  0.9937719052820005  0.3751394357495783  0.7495040060479372
  0.9911214815359624  0.8765982390031303  0.2503149552971656
  0.9970399788851881  0.8755332927008096  0.7475015636474075
  0.4995312234794423  0.3720861661592076  0.2311724812836991
  0.4955539212722156  0.3728547996717549  0.7351347769711178
  0.4912214116110601  0.8827914029442191  0.2317755080642040
  0.4996799204325398  0.8752730209706422  0.7437015038624492
  0.2556636783277951  0.1249462930674408  0.0034903969969496
  0.2417721457008455  0.1244026797809100  0.5043723699500459
  0.2381214657303663  0.6257099385469974  0.5129274017162834
  0.7560234504445896  0.1264893670361060  0.0083102309681751
  0.7693565342671838  0.6251659961158775  0.0064514731674288
  0.7348024724423172  0.6249643446930113  0.5054685726318451
  0.2552652394613550  0.1269785753411933  0.2439911017517338
  0.2496191483096652  0.1246911435531993  0.7498320931331151
  0.2452010312062131  0.6242015681986841  0.2316149648451059
  0.7541791150672519  0.1270138218123959  0.2425818285536614
  0.7427290026641705  0.6243676127967562  0.2420862853199740
  0.7364520220509428  0.6241921318276733  0.7437990400636844
  0.2440504518235017  0.3782432925960443  0.9884015823162715
  0.2372869167727477  0.8722433092699443  0.9938987008036576
  0.7394308336538427  0.3752796483313807  0.9832308402390804
  0.7625729044021087  0.3725011988397636  0.4861010566350932
  0.7337659966193856  0.8747996028744892  0.0026224387700343
  0.7676556662492569  0.8770088678922413  0.5000807740739673
  0.2574674322056195  0.3764606557267438  0.7658934720205647
  0.2563354641460288  0.8755422330665877  0.2612639009687732
  0.2500013803809720  0.8725671270946362  0.7576917384777694
  0.7518724186812487  0.3749010119928241  0.2682933229392347
  0.7588799067344707  0.3741597938206256  0.7615552681711152
  0.7611329410829943  0.8766239554818053  0.2481054466955255
  0.7535254420217927  0.8752734314607492  0.7489594226937752
 
  0.00000000E+00  0.00000000E+00  0.00000000E+00
  0.00000000E+00  0.00000000E+00  0.00000000E+00
  0.00000000E+00  0.00000000E+00  0.00000000E+00
  0.00000000E+00  0.00000000E+00  0.00000000E+00
  0.00000000E+00  0.00000000E+00  0.00000000E+00
  0.00000000E+00  0.00000000E+00  0.00000000E+00
  0.00000000E+00  0.00000000E+00  0.00000000E+00
  0.00000000E+00  0.00000000E+00  0.00000000E+00
  0.00000000E+00  0.00000000E+00  0.00000000E+00
  0.00000000E+00  0.00000000E+00  0.00000000E+00
  0.00000000E+00  0.00000000E+00  0.00000000E+00
  0.00000000E+00  0.00000000E+00  0.00000000E+00
  0.00000000E+00  0.00000000E+00  0.00000000E+00
  0.00000000E+00  0.00000000E+00  0.00000000E+00
  0.00000000E+00  0.00000000E+00  0.00000000E+00
  0.00000000E+00  0.00000000E+00  0.00000000E+00
  0.00000000E+00  0.00000000E+00  0.00000000E+00
  0.00000000E+00  0.00000000E+00  0.00000000E+00
  0.00000000E+00  0.00000000E+00  0.00000000E+00
  0.00000000E+00  0.00000000E+00  0.00000000E+00
  0.00000000E+00  0.00000000E+00  0.00000000E+00
  0.00000000E+00  0.00000000E+00  0.00000000E+00
  0.00000000E+00  0.00000000E+00  0.00000000E+00
  0.00000000E+00  0.00000000E+00  0.00000000E+00
  0.00000000E+00  0.00000000E+00  0.00000000E+00
  0.00000000E+00  0.00000000E+00  0.00000000E+00
  0.00000000E+00  0.00000000E+00  0.00000000E+00
  0.00000000E+00  0.00000000E+00  0.00000000E+00
  0.00000000E+00  0.00000000E+00  0.00000000E+00
  0.00000000E+00  0.00000000E+00  0.00000000E+00
  0.00000000E+00  0.00000000E+00  0.00000000E+00
  0.00000000E+00  0.00000000E+00  0.00000000E+00
  0.00000000E+00  0.00000000E+00  0.00000000E+00
  0.00000000E+00  0.00000000E+00  0.00000000E+00
  0.00000000E+00  0.00000000E+00  0.00000000E+00
  0.00000000E+00  0.00000000E+00  0.00000000E+00
  0.00000000E+00  0.00000000E+00  0.00000000E+00
  0.00000000E+00  0.00000000E+00  0.00000000E+00
  0.00000000E+00  0.00000000E+00  0.00000000E+00
  0.00000000E+00  0.00000000E+00  0.00000000E+00
  0.00000000E+00  0.00000000E+00  0.00000000E+00
  0.00000000E+00  0.00000000E+00  0.00000000E+00
  0.00000000E+00  0.00000000E+00  0.00000000E+00
  0.00000000E+00  0.00000000E+00  0.00000000E+00
  0.00000000E+00  0.00000000E+00  0.00000000E+00
  0.00000000E+00  0.00000000E+00  0.00000000E+00
  0.00000000E+00  0.00000000E+00  0.00000000E+00
  0.00000000E+00  0.00000000E+00  0.00000000E+00
  0.00000000E+00  0.00000000E+00  0.00000000E+00
  0.00000000E+00  0.00000000E+00  0.00000000E+00
  0.00000000E+00  0.00000000E+00  0.00000000E+00
  0.00000000E+00  0.00000000E+00  0.00000000E+00
  0.00000000E+00  0.00000000E+00  0.00000000E+00
  0.00000000E+00  0.00000000E+00  0.00000000E+00
  0.00000000E+00  0.00000000E+00  0.00000000E+00
  0.00000000E+00  0.00000000E+00  0.00000000E+00
  0.00000000E+00  0.00000000E+00  0.00000000E+00
  0.00000000E+00  0.00000000E+00  0.00000000E+00
  0.00000000E+00  0.00000000E+00  0.00000000E+00
  0.00000000E+00  0.00000000E+00  0.00000000E+00
  0.00000000E+00  0.00000000E+00  0.00000000E+00
  0.00000000E+00  0.00000000E+00  0.00000000E+00
  0.00000000E+00  0.00000000E+00  0.00000000E+00
  0.00000000E+00  0.00000000E+00  0.00000000E+00
  0.00000000E+00  0.00000000E+00  0.00000000E+00
  0.00000000E+00  0.00000000E+00  0.00000000E+00
  0.00000000E+00  0.00000000E+00  0.00000000E+00
  0.00000000E+00  0.00000000E+00  0.00000000E+00
  0.00000000E+00  0.00000000E+00  0.00000000E+00
  0.00000000E+00  0.00000000E+00  0.00000000E+00
  0.00000000E+00  0.00000000E+00  0.00000000E+00
  0.00000000E+00  0.00000000E+00  0.00000000E+00
  0.00000000E+00  0.00000000E+00  0.00000000E+00
  0.00000000E+00  0.00000000E+00  0.00000000E+00
  0.00000000E+00  0.00000000E+00  0.00000000E+00
  0.00000000E+00  0.00000000E+00  0.00000000E+00
  0.00000000E+00  0.00000000E+00  0.00000000E+00
  0.00000000E+00  0.00000000E+00  0.00000000E+00
  0.00000000E+00  0.00000000E+00  0.00000000E+00
  0.00000000E+00  0.00000000E+00  0.00000000E+00
  0.00000000E+00  0.00000000E+00  0.00000000E+00
  0.00000000E+00  0.00000000E+00  0.00000000E+00
  0.00000000E+00  0.00000000E+00  0.00000000E+00
  0.00000000E+00  0.00000000E+00  0.00000000E+00
  0.00000000E+00  0.00000000E+00  0.00000000E+00
  0.00000000E+00  0.00000000E+00  0.00000000E+00
  0.00000000E+00  0.00000000E+00  0.00000000E+00
  0.00000000E+00  0.00000000E+00  0.00000000E+00
  0.00000000E+00  0.00000000E+00  0.00000000E+00
  0.00000000E+00  0.00000000E+00  0.00000000E+00
  0.00000000E+00  0.00000000E+00  0.00000000E+00
  0.00000000E+00  0.00000000E+00  0.00000000E+00
  0.00000000E+00  0.00000000E+00  0.00000000E+00
  0.00000000E+00  0.00000000E+00  0.00000000E+00
  0.00000000E+00  0.00000000E+00  0.00000000E+00
  0.00000000E+00  0.00000000E+00  0.00000000E+00
  0.00000000E+00  0.00000000E+00  0.00000000E+00
  0.00000000E+00  0.00000000E+00  0.00000000E+00
  0.00000000E+00  0.00000000E+00  0.00000000E+00
  0.00000000E+00  0.00000000E+00  0.00000000E+00
  0.00000000E+00  0.00000000E+00  0.00000000E+00
  0.00000000E+00  0.00000000E+00  0.00000000E+00
  0.00000000E+00  0.00000000E+00  0.00000000E+00
  0.00000000E+00  0.00000000E+00  0.00000000E+00
  0.00000000E+00  0.00000000E+00  0.00000000E+00
  0.00000000E+00  0.00000000E+00  0.00000000E+00
  0.00000000E+00  0.00000000E+00  0.00000000E+00
  0.00000000E+00  0.00000000E+00  0.00000000E+00
  0.00000000E+00  0.00000000E+00  0.00000000E+00
  0.00000000E+00  0.00000000E+00  0.00000000E+00
  0.00000000E+00  0.00000000E+00  0.00000000E+00
  0.00000000E+00  0.00000000E+00  0.00000000E+00
  0.00000000E+00  0.00000000E+00  0.00000000E+00
  0.00000000E+00  0.00000000E+00  0.00000000E+00
  0.00000000E+00  0.00000000E+00  0.00000000E+00
  0.00000000E+00  0.00000000E+00  0.00000000E+00
  0.00000000E+00  0.00000000E+00  0.00000000E+00
  0.00000000E+00  0.00000000E+00  0.00000000E+00
  0.00000000E+00  0.00000000E+00  0.00000000E+00
  0.00000000E+00  0.00000000E+00  0.00000000E+00
  0.00000000E+00  0.00000000E+00  0.00000000E+00
  0.00000000E+00  0.00000000E+00  0.00000000E+00
  0.00000000E+00  0.00000000E+00  0.00000000E+00
  0.00000000E+00  0.00000000E+00  0.00000000E+00
  0.00000000E+00  0.00000000E+00  0.00000000E+00
  0.00000000E+00  0.00000000E+00  0.00000000E+00
  0.00000000E+00  0.00000000E+00  0.00000000E+00
  0.00000000E+00  0.00000000E+00  0.00000000E+00
  0.00000000E+00  0.00000000E+00  0.00000000E+00
  0.00000000E+00  0.00000000E+00  0.00000000E+00
  0.00000000E+00  0.00000000E+00  0.00000000E+00
  0.00000000E+00  0.00000000E+00  0.00000000E+00
  0.00000000E+00  0.00000000E+00  0.00000000E+00
  0.00000000E+00  0.00000000E+00  0.00000000E+00
  0.00000000E+00  0.00000000E+00  0.00000000E+00
  0.00000000E+00  0.00000000E+00  0.00000000E+00
  0.00000000E+00  0.00000000E+00  0.00000000E+00
  0.00000000E+00  0.00000000E+00  0.00000000E+00
  0.00000000E+00  0.00000000E+00  0.00000000E+00
  0.00000000E+00  0.00000000E+00  0.00000000E+00
  0.00000000E+00  0.00000000E+00  0.00000000E+00
  0.00000000E+00  0.00000000E+00  0.00000000E+00
  0.00000000E+00  0.00000000E+00  0.00000000E+00
  0.00000000E+00  0.00000000E+00  0.00000000E+00
  0.00000000E+00  0.00000000E+00  0.00000000E+00
  0.00000000E+00  0.00000000E+00  0.00000000E+00
  0.00000000E+00  0.00000000E+00  0.00000000E+00
  0.00000000E+00  0.00000000E+00  0.00000000E+00
  0.00000000E+00  0.00000000E+00  0.00000000E+00
  0.00000000E+00  0.00000000E+00  0.00000000E+00
  0.00000000E+00  0.00000000E+00  0.00000000E+00
  0.00000000E+00  0.00000000E+00  0.00000000E+00
  0.00000000E+00  0.00000000E+00  0.00000000E+00
  0.00000000E+00  0.00000000E+00  0.00000000E+00
  0.00000000E+00  0.00000000E+00  0.00000000E+00
  0.00000000E+00  0.00000000E+00  0.00000000E+00
  0.00000000E+00  0.00000000E+00  0.00000000E+00
  0.00000000E+00  0.00000000E+00  0.00000000E+00
  0.00000000E+00  0.00000000E+00  0.00000000E+00
  0.00000000E+00  0.00000000E+00  0.00000000E+00
  0.00000000E+00  0.00000000E+00  0.00000000E+00
  0.00000000E+00  0.00000000E+00  0.00000000E+00
  0.00000000E+00  0.00000000E+00  0.00000000E+00
  0.00000000E+00  0.00000000E+00  0.00000000E+00
  0.00000000E+00  0.00000000E+00  0.00000000E+00
  0.00000000E+00  0.00000000E+00  0.00000000E+00
  0.00000000E+00  0.00000000E+00  0.00000000E+00
  0.00000000E+00  0.00000000E+00  0.00000000E+00
  0.00000000E+00  0.00000000E+00  0.00000000E+00
  0.00000000E+00  0.00000000E+00  0.00000000E+00
  0.00000000E+00  0.00000000E+00  0.00000000E+00
  0.00000000E+00  0.00000000E+00  0.00000000E+00
  0.00000000E+00  0.00000000E+00  0.00000000E+00
  0.00000000E+00  0.00000000E+00  0.00000000E+00
  0.00000000E+00  0.00000000E+00  0.00000000E+00
  0.00000000E+00  0.00000000E+00  0.00000000E+00
  0.00000000E+00  0.00000000E+00  0.00000000E+00
  0.00000000E+00  0.00000000E+00  0.00000000E+00
  0.00000000E+00  0.00000000E+00  0.00000000E+00
  0.00000000E+00  0.00000000E+00  0.00000000E+00
  0.00000000E+00  0.00000000E+00  0.00000000E+00
  0.00000000E+00  0.00000000E+00  0.00000000E+00
  0.00000000E+00  0.00000000E+00  0.00000000E+00
  0.00000000E+00  0.00000000E+00  0.00000000E+00
  0.00000000E+00  0.00000000E+00  0.00000000E+00
  0.00000000E+00  0.00000000E+00  0.00000000E+00
  0.00000000E+00  0.00000000E+00  0.00000000E+00
  0.00000000E+00  0.00000000E+00  0.00000000E+00
  0.00000000E+00  0.00000000E+00  0.00000000E+00
  0.00000000E+00  0.00000000E+00  0.00000000E+00
  0.00000000E+00  0.00000000E+00  0.00000000E+00
  0.00000000E+00  0.00000000E+00  0.00000000E+00
  0.00000000E+00  0.00000000E+00  0.00000000E+00
  0.00000000E+00  0.00000000E+00  0.00000000E+00
  0.00000000E+00  0.00000000E+00  0.00000000E+00
  0.00000000E+00  0.00000000E+00  0.00000000E+00
  0.00000000E+00  0.00000000E+00  0.00000000E+00
  0.00000000E+00  0.00000000E+00  0.00000000E+00
  0.00000000E+00  0.00000000E+00  0.00000000E+00
  0.00000000E+00  0.00000000E+00  0.00000000E+00
  0.00000000E+00  0.00000000E+00  0.00000000E+00
  0.00000000E+00  0.00000000E+00  0.00000000E+00
  0.00000000E+00  0.00000000E+00  0.00000000E+00
  0.00000000E+00  0.00000000E+00  0.00000000E+00
  0.00000000E+00  0.00000000E+00  0.00000000E+00
  0.00000000E+00  0.00000000E+00  0.00000000E+00
  0.00000000E+00  0.00000000E+00  0.00000000E+00
  0.00000000E+00  0.00000000E+00  0.00000000E+00
  0.00000000E+00  0.00000000E+00  0.00000000E+00
  0.00000000E+00  0.00000000E+00  0.00000000E+00
  0.00000000E+00  0.00000000E+00  0.00000000E+00
  0.00000000E+00  0.00000000E+00  0.00000000E+00
  0.00000000E+00  0.00000000E+00  0.00000000E+00
  0.00000000E+00  0.00000000E+00  0.00000000E+00
  0.00000000E+00  0.00000000E+00  0.00000000E+00
  0.00000000E+00  0.00000000E+00  0.00000000E+00
  0.00000000E+00  0.00000000E+00  0.00000000E+00
  0.00000000E+00  0.00000000E+00  0.00000000E+00
  0.00000000E+00  0.00000000E+00  0.00000000E+00
  0.00000000E+00  0.00000000E+00  0.00000000E+00
  0.00000000E+00  0.00000000E+00  0.00000000E+00
  0.00000000E+00  0.00000000E+00  0.00000000E+00
  0.00000000E+00  0.00000000E+00  0.00000000E+00
  0.00000000E+00  0.00000000E+00  0.00000000E+00
  0.00000000E+00  0.00000000E+00  0.00000000E+00
  0.00000000E+00  0.00000000E+00  0.00000000E+00
  0.00000000E+00  0.00000000E+00  0.00000000E+00
  0.00000000E+00  0.00000000E+00  0.00000000E+00
  0.00000000E+00  0.00000000E+00  0.00000000E+00
  0.00000000E+00  0.00000000E+00  0.00000000E+00
  0.00000000E+00  0.00000000E+00  0.00000000E+00
  0.00000000E+00  0.00000000E+00  0.00000000E+00
  0.00000000E+00  0.00000000E+00  0.00000000E+00
  0.00000000E+00  0.00000000E+00  0.00000000E+00
  0.00000000E+00  0.00000000E+00  0.00000000E+00
  0.00000000E+00  0.00000000E+00  0.00000000E+00
  0.00000000E+00  0.00000000E+00  0.00000000E+00
  0.00000000E+00  0.00000000E+00  0.00000000E+00
  0.00000000E+00  0.00000000E+00  0.00000000E+00
  0.00000000E+00  0.00000000E+00  0.00000000E+00
  0.00000000E+00  0.00000000E+00  0.00000000E+00
  0.00000000E+00  0.00000000E+00  0.00000000E+00
  0.00000000E+00  0.00000000E+00  0.00000000E+00
  0.00000000E+00  0.00000000E+00  0.00000000E+00
  0.00000000E+00  0.00000000E+00  0.00000000E+00
  0.00000000E+00  0.00000000E+00  0.00000000E+00
  0.00000000E+00  0.00000000E+00  0.00000000E+00
  0.00000000E+00  0.00000000E+00  0.00000000E+00
  0.00000000E+00  0.00000000E+00  0.00000000E+00
  0.00000000E+00  0.00000000E+00  0.00000000E+00
  0.00000000E+00  0.00000000E+00  0.00000000E+00
  0.00000000E+00  0.00000000E+00  0.00000000E+00
  0.00000000E+00  0.00000000E+00  0.00000000E+00
  0.00000000E+00  0.00000000E+00  0.00000000E+00
  0.00000000E+00  0.00000000E+00  0.00000000E+00
  0.00000000E+00  0.00000000E+00  0.00000000E+00
  0.00000000E+00  0.00000000E+00  0.00000000E+00
