TiOF2 2x2x2 config 0014                 
   1.00000000000000     
     7.9335943914906064   -0.0000003381469021   -0.0000000974571929
    -0.0000003352011656    7.7770584686669268    0.0000003029473540
    -0.0000000879179378    0.0000002919078966    7.5517592859241089
   Ti   O    F 
     8     8    16
Direct
  0.9999999912356323  0.9999999502221316  0.9885689174836559
  0.0000000070160304 -0.0000003907817987  0.5098942130838748
  0.9999999912139892  0.4999999971991059  0.9885680454891268
  0.0000000069374552  0.5000003619204471  0.5098946195984588
  0.4999999958668159  0.9999999749912308  0.0005852582243806
  0.5000000038770503  0.9999993763627493  0.4998000848240499
  0.4999999957671597  0.5000002756427208  0.0005849835509808
  0.5000000037517919  0.4999972566444571  0.4998004390472011
  0.5000000012457509  0.2500005715419506  0.5007313004051773
  0.5000000012788851  0.7500009357799543  0.5007312710114653
  1.0000000095858841  0.9999989240415714  0.7508577403161403
  1.0000000094842620  0.5000010147356672  0.7508580313415579
  0.5000000005519531  1.0000002991215133  0.2437317841175587
  0.4999999895839339  1.0000001117126303  0.7571129123997907
  0.5000000003774598  0.5000008436767043  0.2437309962543856
  0.4999999891772730  0.5000003644184500  0.7571134372136790
  0.2397883264452389  0.9999999509402844  0.0052250152066606
  0.2369266507570680  0.0000005183042798  0.4943493543026515
  0.2397884353027079  0.4999999709139138  0.0052249057331617
  0.2369266307944252  0.4999995214337293  0.4943491601600650
  0.7602116634507168  0.9999999687167285  0.0052249905177475
  0.7630733564182888  0.0000005238664225  0.4943493974106939
  0.7602115543349450  0.4999999885723802  0.0052248807033526
  0.7630733758896646  0.4999995270835655  0.4943492034152000
  0.9999999749763978  0.2499999896189145  0.0059862252601482
  0.0000000152956325  0.2499999301104185  0.4943330406769719
  0.9999999749259061  0.7499999535655730  0.0059862869241437
  0.0000000152192249  0.7500000507659080  0.4943331325206687
  0.5000000253907040  0.2500003429009088  0.0002100985467287
  0.5000000254755408  0.7499999564783235  0.0002102624444190
  0.9999999893545118  0.9999999552610933  0.2490400812169155
  0.9999999890176786  0.4999999842380577  0.2490399305989817
 
  0.00000000E+00  0.00000000E+00  0.00000000E+00
  0.00000000E+00  0.00000000E+00  0.00000000E+00
  0.00000000E+00  0.00000000E+00  0.00000000E+00
  0.00000000E+00  0.00000000E+00  0.00000000E+00
  0.00000000E+00  0.00000000E+00  0.00000000E+00
  0.00000000E+00  0.00000000E+00  0.00000000E+00
  0.00000000E+00  0.00000000E+00  0.00000000E+00
  0.00000000E+00  0.00000000E+00  0.00000000E+00
  0.00000000E+00  0.00000000E+00  0.00000000E+00
  0.00000000E+00  0.00000000E+00  0.00000000E+00
  0.00000000E+00  0.00000000E+00  0.00000000E+00
  0.00000000E+00  0.00000000E+00  0.00000000E+00
  0.00000000E+00  0.00000000E+00  0.00000000E+00
  0.00000000E+00  0.00000000E+00  0.00000000E+00
  0.00000000E+00  0.00000000E+00  0.00000000E+00
  0.00000000E+00  0.00000000E+00  0.00000000E+00
  0.00000000E+00  0.00000000E+00  0.00000000E+00
  0.00000000E+00  0.00000000E+00  0.00000000E+00
  0.00000000E+00  0.00000000E+00  0.00000000E+00
  0.00000000E+00  0.00000000E+00  0.00000000E+00
  0.00000000E+00  0.00000000E+00  0.00000000E+00
  0.00000000E+00  0.00000000E+00  0.00000000E+00
  0.00000000E+00  0.00000000E+00  0.00000000E+00
  0.00000000E+00  0.00000000E+00  0.00000000E+00
  0.00000000E+00  0.00000000E+00  0.00000000E+00
  0.00000000E+00  0.00000000E+00  0.00000000E+00
  0.00000000E+00  0.00000000E+00  0.00000000E+00
  0.00000000E+00  0.00000000E+00  0.00000000E+00
  0.00000000E+00  0.00000000E+00  0.00000000E+00
  0.00000000E+00  0.00000000E+00  0.00000000E+00
  0.00000000E+00  0.00000000E+00  0.00000000E+00
  0.00000000E+00  0.00000000E+00  0.00000000E+00
