TiOF2 2x2x2 config 0257                 
   1.00000000000000     
     7.8630402493610196   -0.0000016132961504   -0.0000003705209422
    -0.0000015721338024    7.6555909989056152   -0.0000006792370728
    -0.0000003613371381   -0.0000006784720270    7.6599449713489749
   Ti   O    F 
     8     8    16
Direct
  0.0000000024418468  0.9887038076207461  0.9872779042708989
  1.0000000036011785  0.9887037750823443  0.5127220475635009
  0.9999999967883536  0.5112959981540749  0.0127223240042019
 -0.0000000065398929  0.5112959746533535  0.4872777901885047
  0.5000000073060411  0.9887040127543617  0.0127222623589211
  0.5000000062347532  0.9887038784056758  0.4872778588794304
  0.4999999940880360  0.5112961098481815  0.9872777904731653
  0.4999999980729849  0.5112962396848731  0.5127220715272401
  0.0000000001412990  0.7500000365560637  0.0000000119423194
  0.9999999996324482  0.7500001374929870  0.4999999985856346
  0.5000000001087165  0.7500000589755442  0.0000001494412203
  0.4999999999173780  0.7500000646325821  0.4999998454282066
  1.0000000058732672  0.0048234765222825  0.7500000385430616
 -0.0000000062590752  0.4951763438981114  0.2499998934146006
  0.5000000057178758  0.0048236458656880  0.2499998450960286
  0.4999999944535629  0.4951768401867047  0.7500001557985836
  0.2500000077846998  0.0063910738175170  0.0000000209461262
  0.2499999455835107  0.0063910178066121  0.5000000251669053
  0.2500000491637123  0.4936089258901738  0.9999999785075182
  0.2500000087359491  0.4936089906791238  0.4999999720367416
  0.7499999955219030  0.0063910661814071  0.0000000240686969
  0.7500000546990716  0.0063910250996262  0.5000000224996105
  0.7499999478918248  0.4936089182017505  0.9999999815610505
  0.7499999886851579  0.4936089978266940  0.4999999693521476
  1.0000000001577805  0.2499998817038968  0.9999999585580044
  0.0000000000405520  0.2499998590714304  0.5000000424069304
  0.5000000000955994  0.2500000460488453  0.9999998501954436
  0.4999999998796384  0.2500000435858290  0.5000001449257230
  0.0000000069902708  0.0092179225021924  0.2500000398707207
 -0.0000000069653545  0.4907819503013793  0.7499999885792341
  0.5000000068541069  0.0092177162992638  0.7500001299733793
  0.4999999933028097  0.4907821646506693  0.2499998638362562
 
  0.00000000E+00  0.00000000E+00  0.00000000E+00
  0.00000000E+00  0.00000000E+00  0.00000000E+00
  0.00000000E+00  0.00000000E+00  0.00000000E+00
  0.00000000E+00  0.00000000E+00  0.00000000E+00
  0.00000000E+00  0.00000000E+00  0.00000000E+00
  0.00000000E+00  0.00000000E+00  0.00000000E+00
  0.00000000E+00  0.00000000E+00  0.00000000E+00
  0.00000000E+00  0.00000000E+00  0.00000000E+00
  0.00000000E+00  0.00000000E+00  0.00000000E+00
  0.00000000E+00  0.00000000E+00  0.00000000E+00
  0.00000000E+00  0.00000000E+00  0.00000000E+00
  0.00000000E+00  0.00000000E+00  0.00000000E+00
  0.00000000E+00  0.00000000E+00  0.00000000E+00
  0.00000000E+00  0.00000000E+00  0.00000000E+00
  0.00000000E+00  0.00000000E+00  0.00000000E+00
  0.00000000E+00  0.00000000E+00  0.00000000E+00
  0.00000000E+00  0.00000000E+00  0.00000000E+00
  0.00000000E+00  0.00000000E+00  0.00000000E+00
  0.00000000E+00  0.00000000E+00  0.00000000E+00
  0.00000000E+00  0.00000000E+00  0.00000000E+00
  0.00000000E+00  0.00000000E+00  0.00000000E+00
  0.00000000E+00  0.00000000E+00  0.00000000E+00
  0.00000000E+00  0.00000000E+00  0.00000000E+00
  0.00000000E+00  0.00000000E+00  0.00000000E+00
  0.00000000E+00  0.00000000E+00  0.00000000E+00
  0.00000000E+00  0.00000000E+00  0.00000000E+00
  0.00000000E+00  0.00000000E+00  0.00000000E+00
  0.00000000E+00  0.00000000E+00  0.00000000E+00
  0.00000000E+00  0.00000000E+00  0.00000000E+00
  0.00000000E+00  0.00000000E+00  0.00000000E+00
  0.00000000E+00  0.00000000E+00  0.00000000E+00
  0.00000000E+00  0.00000000E+00  0.00000000E+00
