Ti64 O64 F128                           
   1.00000000000000     
    15.4799698568527386    0.0044249071897614   -0.0071623476988093
     0.0044062456999084   15.4012370478115876   -0.0028139109345455
    -0.0071342157348384   -0.0028146795140238   15.4059242662965126
   Ti   O    F 
    64    64   128
Direct
  0.0070868194722388  0.0017162579490483  0.0069140217253452
  0.0075002482228412  0.0015904059726185  0.5072294968581642
  0.0005607563311136  0.4929516333534529  0.0045146761483665
  0.0013968381094165  0.4929199693445032  0.5059800887343631
  0.4979947501645958  0.0060156351943823  0.0061247331080920
  0.4978195502782224  0.0071472973830176  0.5059894258961410
  0.5002088804744017  0.5065984232073391  0.9938375954595536
  0.4922092407330104  0.4973136500615172  0.4938198812375734
  0.9929954310753923  0.0001459329686735  0.2441550036152471
  0.9998023336709614  0.9907905491857101  0.7442028093792696
  0.0015766223449705  0.5002957805799625  0.2427605368744623
  0.0079511602779710  0.5020381941494723  0.7429263299309906
  0.4935564164601742  0.9997403039719261  0.2436039913381718
  0.5004392036481328  0.9937005472006293  0.7437613759551184
  0.4915825846311782  0.4986399058527830  0.2563974280586218
  0.4981962717144807  0.4938345588268194  0.7555773125383052
  0.0012509817852410  0.2568635485532075  0.9936179499065404
  0.9917216749002278  0.2573313442506246  0.5020658428529747
  0.0073600862557664  0.7482117422428665  0.9933200501694899
  0.0074108832351573  0.7486333098568833  0.4938061056313726
  0.4925668501952031  0.2436469135080314  0.0021769056657921
  0.5012743470572284  0.2427529470278061  0.4924621644501191
  0.4981113619786595  0.7441520628914050  0.0054453346011019
  0.5070696626353444  0.7516438512239892  0.5047155588340567
  0.9917073864271116  0.2487004461107427  0.2497658983049401
  0.9978071577845524  0.2477006129868761  0.7584866011635105
  0.0070844211247429  0.7507236179728570  0.2564450905356750
  0.9928600800925346  0.7559792158361019  0.7557927664540969
  0.4917707938223425  0.2510591588952866  0.2576096515524131
  0.5078684507548178  0.2563681232775429  0.7480372396298813
  0.5071452249924099  0.7503020140714508  0.2434315314814965
  0.5023650132958369  0.7559291636307790  0.7431414063798923
  0.2415012199766706  0.9931049781441175  0.9995904544133264
  0.2422517208842732  0.0061759095560806  0.4990763253891281
  0.2492332440632372  0.4931694889136973  0.0088593011687224
  0.2575963114162065  0.5068762007313558  0.4978609798663244
  0.7515772340757569  0.9940549738604753  0.9936439914678833
  0.7519546593286175  0.9937970833743478  0.4940909582760687
  0.7497942402391542  0.4934266672887104  0.9934850217604807
  0.7474896218350167  0.4942596935652837  0.4944041921060372
  0.2563698852036962  0.0061248717427217  0.2504625902096645
  0.2500401512799616  0.9917365147981066  0.7510979852846812
  0.2575376298006242  0.5053901035133548  0.2443831231976820
  0.2429348215895714  0.4919473798538776  0.7532755290459587
  0.7558078352061253  0.0025060986497531  0.2568262659984028
  0.7496668157949499  0.9939634162672050  0.7566762281706430
  0.7466925632585534  0.4938506341871343  0.2562925265738550
  0.7517600607310077  0.4928715281137837  0.7556678652936530
  0.2575522713847348  0.2561987375403003  0.9983761062033463
  0.2481626244705692  0.2443312477123033  0.5075803791591840
  0.2420845927794969  0.7554537294400170  0.9979730952458626
  0.2450528455385509  0.7449694876434577  0.5047582702095461
  0.7485768694427061  0.2559491528033269  0.9914125825996718
  0.7571016162433288  0.2558734758770686  0.5019640493697332
  0.7516455615487437  0.7563349283278390  0.0072199756290101
  0.7445944218839247  0.7561306150706221  0.4980388574637136
  0.2543582748003271  0.2441699946159048  0.2520168663896571
  0.2530299801938300  0.2549595676180558  0.7433761591341419
  0.2447929646153594  0.7432527161870937  0.2511539951716846
  0.2490587113695847  0.7522528124776491  0.7406700141064817
  0.7525415790565660  0.2577149196033212  0.2475327833866336
  0.7421412620392928  0.2551299138184640  0.7563281931851943
  0.7440646855316108  0.7483354503377927  0.2425250752474588
  0.7580854379057380  0.7554472173358879  0.7514915984506432
  0.0033694272238823  0.0027660076129288  0.1250932784310684
  0.0012707743120051  0.0034428457507561  0.6253512968082581
  0.0044241392126910  0.4973395693103698  0.1264994839471577
  0.0013605566684195  0.4992365446267434  0.6246858611934041
  0.4987954536916756  0.9958166572097581  0.1250671738824256
  0.4960135112828148  0.9999525104511574  0.6243661715834810
  0.5054915607124548  0.4942809056002909  0.3748700034206527
  0.5009064985726059  0.4983752793075894  0.8751375232995239
  0.5004435337233911  0.7556659558124142  0.1247336456063969
  0.5001446498259340  0.7519407421437021  0.6242900970238164
  0.9957445568802662  0.2497652864187520  0.8741612084871879
  0.9981033371280411  0.7499620836797393  0.3741851048224600
  0.0025266035396763  0.7481591066701966  0.8765065532184860
  0.5019964467546486  0.2571131242249804  0.3746401187990485
  0.2425294105609137  0.4992910696474905  0.1244253609414463
  0.7490734469544562  0.0021780792820914  0.3749095243839916
  0.7502122473363638  0.0046191394438861  0.8749563510893181
  0.7453833900071121  0.4993743787288251  0.3741650801889296
  0.7484953219543858  0.5004820415702284  0.8756985114041198
  0.2508004637264881  0.2494897359191289  0.6257803874578235
  0.2541097940834602  0.7507631708508086  0.6263500715209744
  0.7481789096906893  0.7493557923300278  0.1248829540096846
  0.7555683970820920  0.2468897157985842  0.8756308159273920
  0.1241758137869525  0.0001701979725505  0.9941854373217953
  0.1255862441855553  0.9975529702653504  0.5009154233664945
  0.1247634514266067  0.4969963636807456  0.7557237493144345
  0.1253878408631101  0.7488832422095149  0.0056188968140009
  0.1247454719009731  0.7531327146461748  0.4998488855704860
  0.6256729453135317  0.7507337829306994  0.4952231264393717
  0.1250609804831929  0.7497073415044525  0.2470895432242171
  0.6238274352785051  0.2484152867787193  0.7487654193677212
  0.6258178530492021  0.7472133354288343  0.2539803363576609
  0.3750496181510007  0.4935240897527300  0.4983777902752672
  0.3748101683445402  0.0030354738898426  0.2510623168273011
  0.3756555923907672  0.4927998593306041  0.2506721222989604
  0.8757315639754855  0.0063253455284324  0.2493822313710024
  0.3743340760607086  0.2529565672976434  0.0022170039389844
  0.8755384188315322  0.2464728976812257  0.4984055840950397
  0.3741029869447805  0.2516934043229330  0.2490005915894396
  0.8771271993332658  0.2468096285797165  0.2505488481377112
  0.8745965755931228  0.7506964352893726  0.7498400560356062
  0.5002846178500374  0.1255053623105697  0.0012901602109422
  0.4959465631337963  0.1259074823642785  0.4964012636304524
  0.4991031794176549  0.6248704979875001  0.0021955001714897
  0.0024362477002834  0.3747652292391945  0.0003374629169084
  0.9993830501614008  0.3746081109140563  0.4979830153118483
  0.0052481489611971  0.8760636205113252  0.7502137103293265
  0.4963068880521839  0.3751171165240237  0.7458972206943821
  0.5014893352583939  0.8760776645992382  0.7525592934188006
  0.2523526423021533  0.1251941187975201  0.4961267566197097
  0.2515878103101355  0.6241393495893779  0.4960334761300594
  0.2453986659782230  0.1255843376825496  0.2540612492236406
  0.2521219242296579  0.6253294721340354  0.2545749417139320
  0.2427502322343060  0.3742234704866556  0.9948748600532155
  0.2506245813910727  0.8755393489833794  0.9957493123626090
  0.7534468260685845  0.3747796530607324  0.0042252688184792
  0.7495944732486706  0.3744606029857254  0.5011951214434556
  0.7545190722684814  0.8749696374399060  0.9983030063595335
  0.7542759179312722  0.8754238205353008  0.5007880846575175
  0.2530835345028498  0.3734102337070361  0.7557905391120096
  0.2476647998998481  0.8775040675992601  0.7540456733959087
  0.7497708695262262  0.3740586138682355  0.2473773660959791
  0.7525708776375208  0.3754964594149450  0.7464212947297867
  0.7469022890957439  0.8754235090592370  0.7503590976490715
  0.4994991772586818  0.4989162033565553  0.1253515638444493
  0.4990666328894692  0.5048761862209996  0.6246115800859314
  0.0004419889052342  0.9993785126626458  0.3753086505684221
  0.9960400052495761  0.0045213635765117  0.8747443761044006
  0.9983380636219334  0.5013196107405418  0.3728180028030906
  0.9945977450583590  0.5001076343789751  0.8758170628545230
  0.5032638439578261  0.0020808307509598  0.3744584712042864
  0.4995582105074030  0.0030169052966771  0.8746415721012630
  0.0033581063206196  0.2485730028362915  0.1253550501500624
  0.0037989922682003  0.2483054480825270  0.6274852623110345
  0.9950406021272455  0.7499033159258380  0.1249270164731605
  0.0010679694385885  0.7467942332512761  0.6250345357637139
  0.5045166692145812  0.2494267138780003  0.1271590148878128
  0.4930443369398789  0.2460059251669680  0.6233138034023101
  0.0045369909451582  0.2484859373337004  0.3744496873365250
  0.4997820259022742  0.2528966851307119  0.8758004050570313
  0.4955586197864286  0.7455663803417476  0.3740928570049928
  0.5009060767688865  0.7479032641296967  0.8746074387005713
  0.2474933774804350  0.0012761788224479  0.1246322261165446
  0.2536253724882476  0.0016867021044734  0.6265219973343408
  0.2465486185182210  0.4986230487714496  0.6257103261322629
  0.7480157870479476  0.9999169320123530  0.1252791739029287
  0.7514163813964432  0.0029056846370000  0.6249028009627956
  0.7545550354950472  0.5047226661651885  0.1261956196539483
  0.7549659361453799  0.5044935839654733  0.6240609276441785
  0.2490986393956459  0.9905262656119499  0.3748819607257787
  0.2542663684068496  0.0102001855168227  0.8743995671041395
  0.2447938051303715  0.4917762390892942  0.3738253052882023
  0.2568382889231279  0.5063421856834328  0.8768605456894265
  0.2427429743428365  0.2501639727746705  0.1249887745080999
  0.2587670192830460  0.7490888897253603  0.1238837879132335
  0.7491588186503316  0.2453669759085630  0.1243228106857958
  0.7522080655153003  0.2455964454062758  0.6255012351568131
  0.7463750946755466  0.7457523468339012  0.6251231702119939
  0.2464706279398680  0.2564657738362085  0.3767794131461482
  0.2458451353188225  0.2398261297367717  0.8739302092087914
  0.2534204527156972  0.7605634339880829  0.3752197827103777
  0.2469697901796566  0.7447388382252935  0.8731826835681685
  0.7457017631928823  0.2457885596558924  0.3743538102069592
  0.7590840440480268  0.7483014840631510  0.3732089277010939
  0.7494936340125100  0.7435662245183234  0.8764924036147086
  0.1237332579687164  0.5079873577717176  0.9894742282933664
  0.1252720641325667  0.5003546643387037  0.4970376931820277
  0.6245913492877108  0.9977657701113017  0.9992278405032774
  0.6243528202288957  0.9994915021210176  0.5028634191522569
  0.6253448059098861  0.4990876064878671  0.0072742799401883
  0.6239662441247394  0.5034372313418358  0.5074462747924996
  0.1249221397875479  0.9953585161014563  0.2531435615394420
  0.1262323920842673  0.0072862625086174  0.7546582800841842
  0.1230368707676181  0.4999570060203254  0.2562798942643470
  0.6250693582025162  0.9985999927098818  0.2488194221995690
  0.6246377204930247  0.0088638883578194  0.7480784700330957
  0.6242213467031718  0.5060920984346973  0.2421687427179905
  0.6249037533972663  0.5025551208238632  0.7445764997779294
  0.1240324550614985  0.2432136551853779  0.9991685291624453
  0.1229798643447434  0.2480984578778276  0.5005628548222474
  0.6238603519136575  0.2518010982740364  0.9990923602746407
  0.6258859850218266  0.2477761910524935  0.5048185137786096
  0.6248870942957312  0.7521077468685125  0.9948954502675962
  0.1218897805743209  0.2546061604540186  0.2501574887868743
  0.1232484108168393  0.2501906130428296  0.7511052586155038
  0.1250851518300589  0.7453503225198009  0.7479760925428489
  0.6256915798988284  0.2484690564260074  0.2484317968087165
  0.6262904867469290  0.7456460466076260  0.7525467900108350
  0.3724570786361786  0.0020600096123054  0.9986395998424438
  0.3733127151147405  0.9968079874325748  0.4959243593900070
  0.3748163217352856  0.4948265149372775  0.0035316032127543
  0.8765929741904616  0.0054190256431018  0.0009114566635468
  0.8771106003543039  0.0084803518653202  0.4992231786930802
  0.8765758414179117  0.5038906018225919  0.0023341958411491
  0.8752044105286403  0.5033734319703387  0.4967483713908054
  0.3735658252468769  0.0037232310325234  0.7529362070266192
  0.3728221105346040  0.5050014671273054  0.7466822442742467
  0.8756158090363509  0.0031612241341558  0.7494826500526844
  0.8764811547215200  0.4977540624958365  0.2505465462605795
  0.8778630131648852  0.5027333479699226  0.7515626256373320
  0.3743510253158147  0.2590441264338504  0.4970760614525943
  0.3735179650071327  0.7499219901948783  0.9947457037811314
  0.3763608384098234  0.7521542500305815  0.4972176228926498
  0.8768673882217701  0.2468274936215536  0.0083631407190834
  0.8762574997533199  0.7447060051951119  0.9994906134263720
  0.8753644595409100  0.7453078569184456  0.5052697607709419
  0.3756067067461990  0.2434892320238307  0.7553564727892096
  0.3760536317143575  0.7534276699040637  0.2507334124391870
  0.3748400570834984  0.7488913585727812  0.7564955810427259
  0.8767282722662094  0.2470649218216607  0.7425370408410523
  0.8753006138658597  0.7502210095007945  0.2473487556322382
  0.9980665834685840  0.1278620795825373  0.0008368581132540
  0.0044675791473034  0.1273241793443556  0.4963563654317455
  0.9983942115247895  0.6220187539900186  0.0028797448696635
  0.0008957773087387  0.6223933212206775  0.4976715825378318
  0.4978170621012383  0.6241388560601108  0.4979196777414957
  0.0102788732592576  0.1260898152993774  0.2537166075931082
  0.0016336177960469  0.1251492577901776  0.7505547846477116
  0.9959847987734332  0.6235456728775165  0.2484449076589242
  0.0019096003062042  0.6254446395429114  0.7503695027548091
  0.5059025040385763  0.1259550061605751  0.2503779905736683
  0.4964308908419053  0.1254427770323713  0.7522299075718081
  0.4960720913982994  0.6242485710646590  0.2483296597005819
  0.4989137421010826  0.6254398848510633  0.7498989877614386
  0.9928089531808282  0.8756203978362538  0.9999571000379299
  0.9910751833973716  0.8758465676699010  0.5010940355019476
  0.5033383627227950  0.3746082641284749  0.0037179277206910
  0.5074064636712005  0.3730844846760069  0.5097400658671787
  0.4975676569846105  0.8757769867928844  0.9927814135075279
  0.4994546956294084  0.8772276791998667  0.4919428253620830
  0.9992307013512737  0.3745229796664277  0.2537418448743055
  0.9963391201882629  0.3732466876423552  0.7497387129810098
  0.9966161815743748  0.8756179072957773  0.2486568104466329
  0.5107627594176543  0.3744911699827008  0.2413149700060740
  0.5014827696637781  0.8753102892338921  0.2598297472137776
  0.2500422278581254  0.1249156622752935  0.0042011050817072
  0.2540340220763140  0.6246224659223814  0.9997410914587939
  0.7482233562605309  0.1253962439370103  0.0059738118831498
  0.7455516739281884  0.1256549357117851  0.5009725072193666
  0.7483905497202848  0.6246003210090771  0.0013175527767533
  0.7509493818801356  0.6245749269492598  0.4990920633943358
  0.2478148221579534  0.1238287124946337  0.7480604491537090
  0.2502462339540187  0.6237451182079307  0.7495985453882257
  0.7450953533731816  0.1273623031015635  0.2476793377362581
  0.7542095019874550  0.1250831837857482  0.7453210947114024
  0.7563080392183443  0.6230289310107703  0.2506440061586955
  0.7494755823479414  0.6247523759851660  0.7483337183023938
  0.2431846951899735  0.3744717333263024  0.5016736317901417
  0.2543238229700656  0.8772298665786219  0.5042609515848296
  0.2435032997522346  0.3738019203244308  0.2488380934326557
  0.2507058960159352  0.8760338552981626  0.2439316586475701
  0.7519262663696774  0.8753136935478247  0.2507898368543718
 
  0.00000000E+00  0.00000000E+00  0.00000000E+00
  0.00000000E+00  0.00000000E+00  0.00000000E+00
  0.00000000E+00  0.00000000E+00  0.00000000E+00
  0.00000000E+00  0.00000000E+00  0.00000000E+00
  0.00000000E+00  0.00000000E+00  0.00000000E+00
  0.00000000E+00  0.00000000E+00  0.00000000E+00
  0.00000000E+00  0.00000000E+00  0.00000000E+00
  0.00000000E+00  0.00000000E+00  0.00000000E+00
  0.00000000E+00  0.00000000E+00  0.00000000E+00
  0.00000000E+00  0.00000000E+00  0.00000000E+00
  0.00000000E+00  0.00000000E+00  0.00000000E+00
  0.00000000E+00  0.00000000E+00  0.00000000E+00
  0.00000000E+00  0.00000000E+00  0.00000000E+00
  0.00000000E+00  0.00000000E+00  0.00000000E+00
  0.00000000E+00  0.00000000E+00  0.00000000E+00
  0.00000000E+00  0.00000000E+00  0.00000000E+00
  0.00000000E+00  0.00000000E+00  0.00000000E+00
  0.00000000E+00  0.00000000E+00  0.00000000E+00
  0.00000000E+00  0.00000000E+00  0.00000000E+00
  0.00000000E+00  0.00000000E+00  0.00000000E+00
  0.00000000E+00  0.00000000E+00  0.00000000E+00
  0.00000000E+00  0.00000000E+00  0.00000000E+00
  0.00000000E+00  0.00000000E+00  0.00000000E+00
  0.00000000E+00  0.00000000E+00  0.00000000E+00
  0.00000000E+00  0.00000000E+00  0.00000000E+00
  0.00000000E+00  0.00000000E+00  0.00000000E+00
  0.00000000E+00  0.00000000E+00  0.00000000E+00
  0.00000000E+00  0.00000000E+00  0.00000000E+00
  0.00000000E+00  0.00000000E+00  0.00000000E+00
  0.00000000E+00  0.00000000E+00  0.00000000E+00
  0.00000000E+00  0.00000000E+00  0.00000000E+00
  0.00000000E+00  0.00000000E+00  0.00000000E+00
  0.00000000E+00  0.00000000E+00  0.00000000E+00
  0.00000000E+00  0.00000000E+00  0.00000000E+00
  0.00000000E+00  0.00000000E+00  0.00000000E+00
  0.00000000E+00  0.00000000E+00  0.00000000E+00
  0.00000000E+00  0.00000000E+00  0.00000000E+00
  0.00000000E+00  0.00000000E+00  0.00000000E+00
  0.00000000E+00  0.00000000E+00  0.00000000E+00
  0.00000000E+00  0.00000000E+00  0.00000000E+00
  0.00000000E+00  0.00000000E+00  0.00000000E+00
  0.00000000E+00  0.00000000E+00  0.00000000E+00
  0.00000000E+00  0.00000000E+00  0.00000000E+00
  0.00000000E+00  0.00000000E+00  0.00000000E+00
  0.00000000E+00  0.00000000E+00  0.00000000E+00
  0.00000000E+00  0.00000000E+00  0.00000000E+00
  0.00000000E+00  0.00000000E+00  0.00000000E+00
  0.00000000E+00  0.00000000E+00  0.00000000E+00
  0.00000000E+00  0.00000000E+00  0.00000000E+00
  0.00000000E+00  0.00000000E+00  0.00000000E+00
  0.00000000E+00  0.00000000E+00  0.00000000E+00
  0.00000000E+00  0.00000000E+00  0.00000000E+00
  0.00000000E+00  0.00000000E+00  0.00000000E+00
  0.00000000E+00  0.00000000E+00  0.00000000E+00
  0.00000000E+00  0.00000000E+00  0.00000000E+00
  0.00000000E+00  0.00000000E+00  0.00000000E+00
  0.00000000E+00  0.00000000E+00  0.00000000E+00
  0.00000000E+00  0.00000000E+00  0.00000000E+00
  0.00000000E+00  0.00000000E+00  0.00000000E+00
  0.00000000E+00  0.00000000E+00  0.00000000E+00
  0.00000000E+00  0.00000000E+00  0.00000000E+00
  0.00000000E+00  0.00000000E+00  0.00000000E+00
  0.00000000E+00  0.00000000E+00  0.00000000E+00
  0.00000000E+00  0.00000000E+00  0.00000000E+00
  0.00000000E+00  0.00000000E+00  0.00000000E+00
  0.00000000E+00  0.00000000E+00  0.00000000E+00
  0.00000000E+00  0.00000000E+00  0.00000000E+00
  0.00000000E+00  0.00000000E+00  0.00000000E+00
  0.00000000E+00  0.00000000E+00  0.00000000E+00
  0.00000000E+00  0.00000000E+00  0.00000000E+00
  0.00000000E+00  0.00000000E+00  0.00000000E+00
  0.00000000E+00  0.00000000E+00  0.00000000E+00
  0.00000000E+00  0.00000000E+00  0.00000000E+00
  0.00000000E+00  0.00000000E+00  0.00000000E+00
  0.00000000E+00  0.00000000E+00  0.00000000E+00
  0.00000000E+00  0.00000000E+00  0.00000000E+00
  0.00000000E+00  0.00000000E+00  0.00000000E+00
  0.00000000E+00  0.00000000E+00  0.00000000E+00
  0.00000000E+00  0.00000000E+00  0.00000000E+00
  0.00000000E+00  0.00000000E+00  0.00000000E+00
  0.00000000E+00  0.00000000E+00  0.00000000E+00
  0.00000000E+00  0.00000000E+00  0.00000000E+00
  0.00000000E+00  0.00000000E+00  0.00000000E+00
  0.00000000E+00  0.00000000E+00  0.00000000E+00
  0.00000000E+00  0.00000000E+00  0.00000000E+00
  0.00000000E+00  0.00000000E+00  0.00000000E+00
  0.00000000E+00  0.00000000E+00  0.00000000E+00
  0.00000000E+00  0.00000000E+00  0.00000000E+00
  0.00000000E+00  0.00000000E+00  0.00000000E+00
  0.00000000E+00  0.00000000E+00  0.00000000E+00
  0.00000000E+00  0.00000000E+00  0.00000000E+00
  0.00000000E+00  0.00000000E+00  0.00000000E+00
  0.00000000E+00  0.00000000E+00  0.00000000E+00
  0.00000000E+00  0.00000000E+00  0.00000000E+00
  0.00000000E+00  0.00000000E+00  0.00000000E+00
  0.00000000E+00  0.00000000E+00  0.00000000E+00
  0.00000000E+00  0.00000000E+00  0.00000000E+00
  0.00000000E+00  0.00000000E+00  0.00000000E+00
  0.00000000E+00  0.00000000E+00  0.00000000E+00
  0.00000000E+00  0.00000000E+00  0.00000000E+00
  0.00000000E+00  0.00000000E+00  0.00000000E+00
  0.00000000E+00  0.00000000E+00  0.00000000E+00
  0.00000000E+00  0.00000000E+00  0.00000000E+00
  0.00000000E+00  0.00000000E+00  0.00000000E+00
  0.00000000E+00  0.00000000E+00  0.00000000E+00
  0.00000000E+00  0.00000000E+00  0.00000000E+00
  0.00000000E+00  0.00000000E+00  0.00000000E+00
  0.00000000E+00  0.00000000E+00  0.00000000E+00
  0.00000000E+00  0.00000000E+00  0.00000000E+00
  0.00000000E+00  0.00000000E+00  0.00000000E+00
  0.00000000E+00  0.00000000E+00  0.00000000E+00
  0.00000000E+00  0.00000000E+00  0.00000000E+00
  0.00000000E+00  0.00000000E+00  0.00000000E+00
  0.00000000E+00  0.00000000E+00  0.00000000E+00
  0.00000000E+00  0.00000000E+00  0.00000000E+00
  0.00000000E+00  0.00000000E+00  0.00000000E+00
  0.00000000E+00  0.00000000E+00  0.00000000E+00
  0.00000000E+00  0.00000000E+00  0.00000000E+00
  0.00000000E+00  0.00000000E+00  0.00000000E+00
  0.00000000E+00  0.00000000E+00  0.00000000E+00
  0.00000000E+00  0.00000000E+00  0.00000000E+00
  0.00000000E+00  0.00000000E+00  0.00000000E+00
  0.00000000E+00  0.00000000E+00  0.00000000E+00
  0.00000000E+00  0.00000000E+00  0.00000000E+00
  0.00000000E+00  0.00000000E+00  0.00000000E+00
  0.00000000E+00  0.00000000E+00  0.00000000E+00
  0.00000000E+00  0.00000000E+00  0.00000000E+00
  0.00000000E+00  0.00000000E+00  0.00000000E+00
  0.00000000E+00  0.00000000E+00  0.00000000E+00
  0.00000000E+00  0.00000000E+00  0.00000000E+00
  0.00000000E+00  0.00000000E+00  0.00000000E+00
  0.00000000E+00  0.00000000E+00  0.00000000E+00
  0.00000000E+00  0.00000000E+00  0.00000000E+00
  0.00000000E+00  0.00000000E+00  0.00000000E+00
  0.00000000E+00  0.00000000E+00  0.00000000E+00
  0.00000000E+00  0.00000000E+00  0.00000000E+00
  0.00000000E+00  0.00000000E+00  0.00000000E+00
  0.00000000E+00  0.00000000E+00  0.00000000E+00
  0.00000000E+00  0.00000000E+00  0.00000000E+00
  0.00000000E+00  0.00000000E+00  0.00000000E+00
  0.00000000E+00  0.00000000E+00  0.00000000E+00
  0.00000000E+00  0.00000000E+00  0.00000000E+00
  0.00000000E+00  0.00000000E+00  0.00000000E+00
  0.00000000E+00  0.00000000E+00  0.00000000E+00
  0.00000000E+00  0.00000000E+00  0.00000000E+00
  0.00000000E+00  0.00000000E+00  0.00000000E+00
  0.00000000E+00  0.00000000E+00  0.00000000E+00
  0.00000000E+00  0.00000000E+00  0.00000000E+00
  0.00000000E+00  0.00000000E+00  0.00000000E+00
  0.00000000E+00  0.00000000E+00  0.00000000E+00
  0.00000000E+00  0.00000000E+00  0.00000000E+00
  0.00000000E+00  0.00000000E+00  0.00000000E+00
  0.00000000E+00  0.00000000E+00  0.00000000E+00
  0.00000000E+00  0.00000000E+00  0.00000000E+00
  0.00000000E+00  0.00000000E+00  0.00000000E+00
  0.00000000E+00  0.00000000E+00  0.00000000E+00
  0.00000000E+00  0.00000000E+00  0.00000000E+00
  0.00000000E+00  0.00000000E+00  0.00000000E+00
  0.00000000E+00  0.00000000E+00  0.00000000E+00
  0.00000000E+00  0.00000000E+00  0.00000000E+00
  0.00000000E+00  0.00000000E+00  0.00000000E+00
  0.00000000E+00  0.00000000E+00  0.00000000E+00
  0.00000000E+00  0.00000000E+00  0.00000000E+00
  0.00000000E+00  0.00000000E+00  0.00000000E+00
  0.00000000E+00  0.00000000E+00  0.00000000E+00
  0.00000000E+00  0.00000000E+00  0.00000000E+00
  0.00000000E+00  0.00000000E+00  0.00000000E+00
  0.00000000E+00  0.00000000E+00  0.00000000E+00
  0.00000000E+00  0.00000000E+00  0.00000000E+00
  0.00000000E+00  0.00000000E+00  0.00000000E+00
  0.00000000E+00  0.00000000E+00  0.00000000E+00
  0.00000000E+00  0.00000000E+00  0.00000000E+00
  0.00000000E+00  0.00000000E+00  0.00000000E+00
  0.00000000E+00  0.00000000E+00  0.00000000E+00
  0.00000000E+00  0.00000000E+00  0.00000000E+00
  0.00000000E+00  0.00000000E+00  0.00000000E+00
  0.00000000E+00  0.00000000E+00  0.00000000E+00
  0.00000000E+00  0.00000000E+00  0.00000000E+00
  0.00000000E+00  0.00000000E+00  0.00000000E+00
  0.00000000E+00  0.00000000E+00  0.00000000E+00
  0.00000000E+00  0.00000000E+00  0.00000000E+00
  0.00000000E+00  0.00000000E+00  0.00000000E+00
  0.00000000E+00  0.00000000E+00  0.00000000E+00
  0.00000000E+00  0.00000000E+00  0.00000000E+00
  0.00000000E+00  0.00000000E+00  0.00000000E+00
  0.00000000E+00  0.00000000E+00  0.00000000E+00
  0.00000000E+00  0.00000000E+00  0.00000000E+00
  0.00000000E+00  0.00000000E+00  0.00000000E+00
  0.00000000E+00  0.00000000E+00  0.00000000E+00
  0.00000000E+00  0.00000000E+00  0.00000000E+00
  0.00000000E+00  0.00000000E+00  0.00000000E+00
  0.00000000E+00  0.00000000E+00  0.00000000E+00
  0.00000000E+00  0.00000000E+00  0.00000000E+00
  0.00000000E+00  0.00000000E+00  0.00000000E+00
  0.00000000E+00  0.00000000E+00  0.00000000E+00
  0.00000000E+00  0.00000000E+00  0.00000000E+00
  0.00000000E+00  0.00000000E+00  0.00000000E+00
  0.00000000E+00  0.00000000E+00  0.00000000E+00
  0.00000000E+00  0.00000000E+00  0.00000000E+00
  0.00000000E+00  0.00000000E+00  0.00000000E+00
  0.00000000E+00  0.00000000E+00  0.00000000E+00
  0.00000000E+00  0.00000000E+00  0.00000000E+00
  0.00000000E+00  0.00000000E+00  0.00000000E+00
  0.00000000E+00  0.00000000E+00  0.00000000E+00
  0.00000000E+00  0.00000000E+00  0.00000000E+00
  0.00000000E+00  0.00000000E+00  0.00000000E+00
  0.00000000E+00  0.00000000E+00  0.00000000E+00
  0.00000000E+00  0.00000000E+00  0.00000000E+00
  0.00000000E+00  0.00000000E+00  0.00000000E+00
  0.00000000E+00  0.00000000E+00  0.00000000E+00
  0.00000000E+00  0.00000000E+00  0.00000000E+00
  0.00000000E+00  0.00000000E+00  0.00000000E+00
  0.00000000E+00  0.00000000E+00  0.00000000E+00
  0.00000000E+00  0.00000000E+00  0.00000000E+00
  0.00000000E+00  0.00000000E+00  0.00000000E+00
  0.00000000E+00  0.00000000E+00  0.00000000E+00
  0.00000000E+00  0.00000000E+00  0.00000000E+00
  0.00000000E+00  0.00000000E+00  0.00000000E+00
  0.00000000E+00  0.00000000E+00  0.00000000E+00
  0.00000000E+00  0.00000000E+00  0.00000000E+00
  0.00000000E+00  0.00000000E+00  0.00000000E+00
  0.00000000E+00  0.00000000E+00  0.00000000E+00
  0.00000000E+00  0.00000000E+00  0.00000000E+00
  0.00000000E+00  0.00000000E+00  0.00000000E+00
  0.00000000E+00  0.00000000E+00  0.00000000E+00
  0.00000000E+00  0.00000000E+00  0.00000000E+00
  0.00000000E+00  0.00000000E+00  0.00000000E+00
  0.00000000E+00  0.00000000E+00  0.00000000E+00
  0.00000000E+00  0.00000000E+00  0.00000000E+00
  0.00000000E+00  0.00000000E+00  0.00000000E+00
  0.00000000E+00  0.00000000E+00  0.00000000E+00
  0.00000000E+00  0.00000000E+00  0.00000000E+00
  0.00000000E+00  0.00000000E+00  0.00000000E+00
  0.00000000E+00  0.00000000E+00  0.00000000E+00
  0.00000000E+00  0.00000000E+00  0.00000000E+00
  0.00000000E+00  0.00000000E+00  0.00000000E+00
  0.00000000E+00  0.00000000E+00  0.00000000E+00
  0.00000000E+00  0.00000000E+00  0.00000000E+00
  0.00000000E+00  0.00000000E+00  0.00000000E+00
  0.00000000E+00  0.00000000E+00  0.00000000E+00
  0.00000000E+00  0.00000000E+00  0.00000000E+00
  0.00000000E+00  0.00000000E+00  0.00000000E+00
  0.00000000E+00  0.00000000E+00  0.00000000E+00
  0.00000000E+00  0.00000000E+00  0.00000000E+00
  0.00000000E+00  0.00000000E+00  0.00000000E+00
  0.00000000E+00  0.00000000E+00  0.00000000E+00
  0.00000000E+00  0.00000000E+00  0.00000000E+00
  0.00000000E+00  0.00000000E+00  0.00000000E+00
  0.00000000E+00  0.00000000E+00  0.00000000E+00
  0.00000000E+00  0.00000000E+00  0.00000000E+00
  0.00000000E+00  0.00000000E+00  0.00000000E+00
  0.00000000E+00  0.00000000E+00  0.00000000E+00
  0.00000000E+00  0.00000000E+00  0.00000000E+00
  0.00000000E+00  0.00000000E+00  0.00000000E+00
  0.00000000E+00  0.00000000E+00  0.00000000E+00
  0.00000000E+00  0.00000000E+00  0.00000000E+00
