config 13                               
   1.00000000000000     
    15.4263309999999993    0.0000000000000000    0.0000000000000000
     0.0000000000000000   15.4263309999999993    0.0000000000000000
     0.0000000000000000    0.0000000000000000   15.4263309999999993
   Li   Ti   O    F 
     1    64    64   128
Direct
  0.0813074164944950  0.8590700053257179  0.1373326047805972
  0.9972692583271753  0.9935510537428013  0.9949918714735571
  0.9982560593975980  0.9896906279327314  0.4960245172817404
  0.0074596705519672  0.4954743986525816  0.9979406185557389
  0.9939128184520915  0.5042235033033677  0.5074221181203852
  0.4965319390763684  0.9930749461907151  0.0003862695894092
  0.5012779761515455  0.0089824962214358  0.4985105392888331
  0.5056005362402755  0.4953582432682081  0.9961866135409482
  0.4915798903752875  0.4993248092364918  0.4952654473940736
  0.0066880199758094  0.0024606224536650  0.2577820494128497
  0.0029654364932882  0.0066210428668894  0.7582400814222535
  0.9919040554091267  0.4952009451516838  0.2514073107507899
  0.9935099629770762  0.5005365069979804  0.7414534079658688
  0.5071456628329295  0.0081114152763793  0.2506462058816484
  0.4937440370160479  0.0055119889450806  0.7531286560195125
  0.4923385883405510  0.4976841258860412  0.2571500161522096
  0.5016017938032094  0.5034243621454301  0.7587661220478024
  0.9971051103974925  0.2582505989991214  0.0029176153696799
  0.9977492112242735  0.2488688487987788  0.4909715211854339
  0.9976424200874036  0.7559235127079696  0.0081045731653222
  0.9950267011714867  0.7556077529556244  0.5099557813623466
  0.4969403223895264  0.2587212508665328  0.0025482719419030
  0.5090029398813918  0.2457658688420299  0.4975880271235116
  0.5083947078867640  0.7559404676967851  0.9996690683085773
  0.5052432844739363  0.7531862942199209  0.5086057618413987
  0.9973858164702857  0.2599023574809455  0.2545645957936545
  0.0076020794435165  0.2427412629195652  0.7492071229530691
  0.9997967309986096  0.7454436962732319  0.2495084956376735
  0.9922543089096827  0.7497467626528749  0.7453980825096105
  0.5095865634533924  0.2429895050337018  0.2523740505997318
  0.5080423890086764  0.2434327220746538  0.7516410997923125
  0.5040275255427178  0.7528828480866130  0.2509992139182960
  0.5019542191537779  0.7412551510830748  0.7434106204430015
  0.2587736526465736  0.9977896421400195  0.0046813734594981
  0.2514846731587626  0.9928311292737695  0.5055555741817978
  0.2452116292470463  0.5088134397456477  0.9968788272787190
  0.2546358728903874  0.4941168477228615  0.5060146349228367
  0.7582718144808486  0.9994140665699300  0.9940444419781473
  0.7488761558244670  0.0078130491592537  0.4948420444603732
  0.7425671852369023  0.5011942838872656  0.0046224484772261
  0.7552435155104339  0.4980922244841727  0.5055894297192214
  0.2450423987846913  0.0009023615421396  0.2428681092609619
  0.2593023553027338  0.9981906121885241  0.7434874579892793
  0.2560163276986283  0.4946631009289806  0.2510342000738038
  0.2470754749952933  0.5056322498802536  0.7400409400808282
  0.7436595311309507  0.9988641471286268  0.2556874131933687
  0.7481659120218755  0.0075013027378433  0.7560061350528049
  0.7549883299053902  0.4996925886689395  0.2421568629416094
  0.7580043259510896  0.4981616501840245  0.7422394724302297
  0.2584612411915961  0.2527708937337178  0.0065891557552000
  0.2535190976511769  0.2565560756538597  0.5049305118837755
  0.2536146448666489  0.7421254696555067  0.9914396391105030
  0.2505950879238976  0.7547932675292207  0.4903263021424696
  0.7582131356492586  0.2523488629157976  0.0082012572553719
  0.7416444987388544  0.2428221985798683  0.4973838945764629
  0.7411243052128685  0.7483458644703528  0.9946160144710804
  0.7396825541567460  0.7527748230784276  0.4944786132128474
  0.2522876968693906  0.2589156817370974  0.2436171911512488
  0.2445179924878841  0.2521468286272098  0.7438381569500604
  0.2394339905603156  0.7509109020833394  0.2524863883966585
  0.2475209171776541  0.7414697056312455  0.7543125950476268
  0.7414911423411702  0.2526672189883949  0.2425805586098707
  0.7450425718152756  0.2426876735499877  0.7512572651451613
  0.7414578592934584  0.7491572757559536  0.2566648840557932
  0.7569196594516842  0.7499200281887928  0.7572682636537613
  0.0114235873287578  0.5114385086997980  0.6246427386872444
  1.0004000046190951  0.9937174458861906  0.3768281458842770
  0.0056912454685972  0.9908944665944359  0.8738143329532932
  0.4956484734205243  0.4883856287620846  0.3752390665901312
  0.4926398597494440  0.4911469554787373  0.8747059639689364
  0.9983657383329841  0.7418683002855304  0.1234700196730780
  0.9977887506196768  0.7359535284416504  0.6261368176571313
  0.4964686461053363  0.7445086930673236  0.6240495444472336
  0.9867005135038472  0.2566668310493677  0.3766506216441717
  0.2593120646115834  0.9989715882871288  0.1247345456334544
  0.2615224099724099  0.0030769959949592  0.6247095746974930
  0.2367277769543153  0.4919202037968614  0.6249927633073418
  0.7481856483760866  0.4886169293165188  0.1250729376475872
  0.7443249323406677  0.4890664507544537  0.6243097929732833
  0.7457015424453690  0.0028986530132718  0.3762348791926333
  0.7433652583262508  0.0046598179828508  0.8739626605587762
  0.2409454503457925  0.2532194754048563  0.1254682673918232
  0.2469388412647718  0.2517919246651858  0.6247486965963795
  0.7371370552752514  0.2633197539632376  0.1264308870275540
  0.2443577886104789  0.7450788692514149  0.3739710277261542
  0.2484754372545007  0.7505227392515499  0.8734900776380258
  0.7454020031621842  0.7473358328794635  0.3747230070002893
  0.7449228679476005  0.7463783270677090  0.8756323186223641
  0.1254126495878184  0.5122235490290077  0.9914493246235254
  0.6267036538903189  0.5144898293550394  0.9956470713754680
  0.1252013549312597  0.9862190048371334  0.2436107955958692
  0.6247727316895446  0.9886621909827565  0.2455276776657487
  0.6242430259402566  0.2642367568322848  0.4869421359729991
  0.6245971251020315  0.7329804552893225  0.0060268427337297
  0.6230743638647156  0.7694132637562580  0.5009663800485590
  0.1253940046014196  0.2548240439126521  0.7552443396268212
  0.1277775447852578  0.7736496510489915  0.2366832293537624
  0.6254301354256885  0.2609719353240386  0.2673816824655011
  0.6267283082438180  0.2559474828897016  0.7550690215701515
  0.6202712772659683  0.7644047681084807  0.2466099651484171
  0.3777253027370805  0.9901781245202111  0.9893662641344730
  0.3753362143138425  0.5111415570435572  0.5067631550774140
  0.8744248683543632  0.9890387148135861  0.9965073001129435
  0.8748012444397181  0.5110847070478359  0.5029997867304377
  0.3771599354021854  0.9997785217834643  0.7623846775251776
  0.3740294397758530  0.5093425471438069  0.2456756033420683
  0.8744620142495619  0.5119403194510493  0.2492341754096050
  0.8759571904073233  0.5115974181013645  0.7429817604080803
  0.3773805546114806  0.2566736157352053  0.0107995271731261
  0.8753597630022134  0.2583599809928157  0.0115143339738485
  0.8746872043935822  0.7408467615805021  0.7536223543728694
  0.5173091797569341  0.1226448808338699  0.4875397200214762
  1.0006217486618203  0.1256835835994478  0.7558975283885291
  0.5103521986632217  0.1250924408558126  0.2682121413185678
  0.5053485705335038  0.1241673340108893  0.7566198514036785
  0.5052573270849624  0.6249564240625292  0.7562091823704189
  0.0101888105118391  0.3755568233667482  0.0111892982887309
  0.0188517163081628  0.8754904829847305  0.0177913511940816
  0.9824223803752276  0.8745083345148140  0.5108086553428438
  0.5122599368888708  0.3742734610429412  0.0123901645248663
  0.5134897189521075  0.8750242106618747  0.0116748161161661
  0.9911358208737117  0.3741388397954582  0.2384141142531092
  0.2652324012071763  0.6252414121586737  0.0028061623547336
  0.7322119525576949  0.1252766686597795  0.5075529285044340
  0.2443565049157151  0.6243131606959714  0.7463665039855368
  0.7486429981405136  0.1252070467345439  0.7396260422033344
  0.2604273928993235  0.3729272583599852  0.4914918847604693
  0.2622998646692757  0.8760073537861724  0.4972676825478406
  0.2576139357870353  0.3755509256179762  0.2578605168044322
  0.9982688229319530  0.0115054318187223  0.1269620451684621
 -0.0009545145192907  0.0078468172587652  0.6243041314607476
  0.0034776659618327  0.5161258193127822  0.1252023419698228
  0.4902713707065665  0.0152781981691743  0.1265651637612133
  0.4911366558690610  0.0067551638253649  0.6226685935675981
  0.5054323082389321  0.5128547479682797  0.1272486335390288
  0.5112300022394063  0.5056266133672226  0.6240089862006220
  0.9967954711120329  0.4833244269908016  0.3768914547136197
  0.9928533646031033  0.4889677950299348  0.8730896393736562
  0.5078763062625767  0.9813330539932392  0.3766260671209485
  0.5204679917705312  0.9904603931093507  0.8753480945014558
  0.0135444471608189  0.2377307114333161  0.1277583875846729
  0.0066398634184305  0.2464926372575178  0.6218519002346926
  0.5169600669803109  0.2329214957091664  0.1272530408321735
  0.5073170218325233  0.2392795314537800  0.6225961905659949
  0.4911049459310191  0.7387097102491066  0.1261535277552610
  0.9904330516671161  0.2603089761424459  0.8750061838898038
  0.9967005333049698  0.7609337136235822  0.3781809055779480
  0.0041914953038282  0.7613334928525407  0.8743848610579557
  0.4833279872200253  0.2658154297578951  0.3755170839499076
  0.4939470780679835  0.2611066704952543  0.8750952082908769
  0.4958694284427276  0.7634302149618714  0.3751785116578319
  0.5043967394419386  0.7600747719000877  0.8737657616392794
  0.2420591359993077  0.4925038618095587  0.1238653759104550
  0.7542259724254118  0.9961279478654095  0.1267308372983017
  0.7528664839519335  0.9914137418377286  0.6229039086610146
  0.2454445576409853  0.0034732645979995  0.3748626301656034
  0.2402939023868059  0.9955609302761610  0.8743608358983830
  0.2500496941955794  0.5144708459734346  0.3748198231483137
  0.2630767424051065  0.5007553631943660  0.8729072427911833
  0.7477405082932529  0.5092901946820831  0.3747979003771371
  0.7565127406384984  0.5102655489855613  0.8740943731650992
  0.2589210501268956  0.7579832275941050  0.1221873359685879
  0.2527603800278153  0.7528836350376248  0.6242612971039107
  0.7446893435726631  0.2647491308110998  0.6228092755266000
  0.7535214866967123  0.7537353849057716  0.1255308921558817
  0.7514060180999148  0.7531754371598598  0.6245475968071533
  0.2605084459880276  0.2407390132045913  0.3739023445264017
  0.2588996264660501  0.2496000756410819  0.8753851301056110
  0.7661076910265323  0.2381055925429627  0.3741878979591110
  0.7603468634446008  0.2395074890022144  0.8764479747416600
  0.1276797853604372  0.0118123169042040  0.0067974022621874
  0.1244192074648424  0.9886924636369863  0.5055659150157249
  0.1227047129576613  0.4909396054967748  0.4890318800576047
  0.6261617472676203  0.0115925175803106  0.0115180370650974
  0.6232369583395859  0.9782594510217421  0.5077478515227813
  0.6252578040826118  0.4853331518621218  0.4952533174130080
  0.1277351680469452  0.9974022118383878  0.7417476605637187
  0.1239926022745514  0.4906757111597724  0.2521169711687118
  0.1239225225272836  0.4900029091270358  0.7647281260197885
  0.6243560221511245  0.9930089471550377  0.7361128615440965
  0.6246702963156805  0.4859013491328370  0.2525126671847925
  0.6273017440316850  0.4893530202814970  0.7585892315375458
  0.1256081993337776  0.2417008512119705  0.9898324328455952
  0.1232715491248133  0.2582925841987481  0.4901993404653524
  0.1262912145036421  0.7357683874331393  0.0035796325616960
  0.1223286859999777  0.7625450807330498  0.5025182092849568
  0.6275928127303675  0.2401428129992271  0.9889750373529460
  0.1242837277783662  0.2545693505246850  0.2637180350430323
  0.1231944298687169  0.7572704253246507  0.7469912205092906
  0.6264188778870862  0.7577166007362465  0.7451115697815945
  0.3776370044981772  0.0175075125089343  0.4876055251496556
  0.3744242915309998  0.4877791302502661  0.0099088619970987
  0.8742469457110019  0.0196283742005027  0.5020590755005021
  0.8757812910932100  0.4901684435079500  0.0022148469564788
  0.3776460998786759  0.0099012930550996  0.2611699023711560
  0.3754170588336440  0.5024110904033301  0.7368638780747865
  0.8737911154526127  0.0119148557304515  0.2517775477564866
  0.8750000662925782  0.9971916364415810  0.7486317047595256
  0.3792119274172119  0.2326562257067868  0.5054194897931426
  0.3774459285274204  0.7669541057131672  0.9947421670508738
  0.3762640216901625  0.7354303276279318  0.4952925717434461
  0.8738065779205466  0.2372161202077508  0.5114166363242156
  0.8722121957770547  0.7677044533413039  0.9959344581854919
  0.8711041688135726  0.7330297068234828  0.5000761548785003
  0.3787117479608357  0.2417641911486114  0.2390326047238854
  0.3773957647691670  0.2464517279239064  0.7450804463694771
  0.3769203301964078  0.7379480434261296  0.2518682226898376
  0.3754735996319544  0.7513000651935400  0.7526961896077945
  0.8734556647781934  0.2392954171849999  0.2380498678407675
  0.8752361305766705  0.2510522317768354  0.7410367152111852
  0.8667267762526055  0.7291089693987155  0.2515280739296377
  0.9944347922106708  0.1264401585059035  0.9935857423906949
  0.0105704424504165  0.1252318864281000  0.4973234148279995
  0.9861591403416182  0.6258705791430013  0.9869424991969052
  0.0107505805138212  0.6268075682335836  0.4840141336125941
  0.4965689944261669  0.1242825017073113  0.9900384768978029
  0.4835458662277480  0.6275510964878968  0.9928603753665961
  0.5149459437022074  0.6267725565303472  0.4891599833040540
  0.0076445545862903  0.1277718270678395  0.2577789917318555
  0.0160109673901837  0.6179414223225357  0.2701649368804811
  0.0135287941321045  0.6247131268241687  0.7657856443155157
  0.5123150333110437  0.6265660962385533  0.2622990186897358
  0.9899892319300628  0.3737076852811777  0.5106275889522998
  0.4856195805023217  0.3710337397341538  0.5124644806414865
  0.4800926608406617  0.8789458426597840  0.5072029940370526
  0.9934419638206488  0.3750637424990609  0.7406844335266697
  0.9861801940239933  0.8793969314060045  0.2330619292821793
  0.9965630660962201  0.8752325374626065  0.7377147136826543
  0.4906044916611451  0.3716462095710657  0.2352736911355114
  0.4948384716723304  0.3732399224880055  0.7376703113369655
  0.4843097347061211  0.8768289087275140  0.2379602431334068
  0.5000726313382463  0.8757217251011158  0.7441427725679431
  0.2581231984054748  0.1248327511163465  0.9958910236304113
  0.2384294287273259  0.1243226759955349  0.4983554630517670
  0.2371821530971569  0.6263821147635816  0.5069615107715528
  0.7579216104752631  0.1257239380746600  0.0103675600930868
  0.7702034741999962  0.6259255539899609  0.0083536511521925
  0.7328278372653213  0.6253630158936632  0.5063567874019045
  0.2438763571811154  0.1261227519627592  0.2494038557953291
  0.2487838206742115  0.1247232290012828  0.7559934108346764
  0.2357219496328569  0.6246542706847050  0.2378352057078905
  0.7405950860637611  0.1256996027556981  0.2427978353054147
  0.7283413059905620  0.6240869157087743  0.2419290361820947
  0.7360963063995822  0.6246354428995733  0.7422673505110722
  0.2408510184192293  0.3764815355263935  0.9938435373400140
  0.2340882146124004  0.8739350530776792  0.0019225921271577
  0.7395850540658505  0.3751414753335986  0.9834888840312934
  0.7646285337801388  0.3720432755809996  0.4866368798847654
  0.7326987763501500  0.8748491289696693  0.0010901630124442
  0.7682972826694354  0.8764982317387753  0.4979262950676474
  0.2587792988556259  0.3760195695191940  0.7578346942929377
  0.2704323466896519  0.8768450711166041  0.2540689738519742
  0.2504411884590923  0.8737083965559858  0.7463749188756057
  0.7644701037553461  0.3741835092321363  0.2665602702361721
  0.7600674612954095  0.3741002661106895  0.7624713180071651
  0.7662546387778929  0.8741661993814853  0.2509996642193105
  0.7539666308694541  0.8752825669332952  0.7506299713835229
 
  0.00000000E+00  0.00000000E+00  0.00000000E+00
  0.00000000E+00  0.00000000E+00  0.00000000E+00
  0.00000000E+00  0.00000000E+00  0.00000000E+00
  0.00000000E+00  0.00000000E+00  0.00000000E+00
  0.00000000E+00  0.00000000E+00  0.00000000E+00
  0.00000000E+00  0.00000000E+00  0.00000000E+00
  0.00000000E+00  0.00000000E+00  0.00000000E+00
  0.00000000E+00  0.00000000E+00  0.00000000E+00
  0.00000000E+00  0.00000000E+00  0.00000000E+00
  0.00000000E+00  0.00000000E+00  0.00000000E+00
  0.00000000E+00  0.00000000E+00  0.00000000E+00
  0.00000000E+00  0.00000000E+00  0.00000000E+00
  0.00000000E+00  0.00000000E+00  0.00000000E+00
  0.00000000E+00  0.00000000E+00  0.00000000E+00
  0.00000000E+00  0.00000000E+00  0.00000000E+00
  0.00000000E+00  0.00000000E+00  0.00000000E+00
  0.00000000E+00  0.00000000E+00  0.00000000E+00
  0.00000000E+00  0.00000000E+00  0.00000000E+00
  0.00000000E+00  0.00000000E+00  0.00000000E+00
  0.00000000E+00  0.00000000E+00  0.00000000E+00
  0.00000000E+00  0.00000000E+00  0.00000000E+00
  0.00000000E+00  0.00000000E+00  0.00000000E+00
  0.00000000E+00  0.00000000E+00  0.00000000E+00
  0.00000000E+00  0.00000000E+00  0.00000000E+00
  0.00000000E+00  0.00000000E+00  0.00000000E+00
  0.00000000E+00  0.00000000E+00  0.00000000E+00
  0.00000000E+00  0.00000000E+00  0.00000000E+00
  0.00000000E+00  0.00000000E+00  0.00000000E+00
  0.00000000E+00  0.00000000E+00  0.00000000E+00
  0.00000000E+00  0.00000000E+00  0.00000000E+00
  0.00000000E+00  0.00000000E+00  0.00000000E+00
  0.00000000E+00  0.00000000E+00  0.00000000E+00
  0.00000000E+00  0.00000000E+00  0.00000000E+00
  0.00000000E+00  0.00000000E+00  0.00000000E+00
  0.00000000E+00  0.00000000E+00  0.00000000E+00
  0.00000000E+00  0.00000000E+00  0.00000000E+00
  0.00000000E+00  0.00000000E+00  0.00000000E+00
  0.00000000E+00  0.00000000E+00  0.00000000E+00
  0.00000000E+00  0.00000000E+00  0.00000000E+00
  0.00000000E+00  0.00000000E+00  0.00000000E+00
  0.00000000E+00  0.00000000E+00  0.00000000E+00
  0.00000000E+00  0.00000000E+00  0.00000000E+00
  0.00000000E+00  0.00000000E+00  0.00000000E+00
  0.00000000E+00  0.00000000E+00  0.00000000E+00
  0.00000000E+00  0.00000000E+00  0.00000000E+00
  0.00000000E+00  0.00000000E+00  0.00000000E+00
  0.00000000E+00  0.00000000E+00  0.00000000E+00
  0.00000000E+00  0.00000000E+00  0.00000000E+00
  0.00000000E+00  0.00000000E+00  0.00000000E+00
  0.00000000E+00  0.00000000E+00  0.00000000E+00
  0.00000000E+00  0.00000000E+00  0.00000000E+00
  0.00000000E+00  0.00000000E+00  0.00000000E+00
  0.00000000E+00  0.00000000E+00  0.00000000E+00
  0.00000000E+00  0.00000000E+00  0.00000000E+00
  0.00000000E+00  0.00000000E+00  0.00000000E+00
  0.00000000E+00  0.00000000E+00  0.00000000E+00
  0.00000000E+00  0.00000000E+00  0.00000000E+00
  0.00000000E+00  0.00000000E+00  0.00000000E+00
  0.00000000E+00  0.00000000E+00  0.00000000E+00
  0.00000000E+00  0.00000000E+00  0.00000000E+00
  0.00000000E+00  0.00000000E+00  0.00000000E+00
  0.00000000E+00  0.00000000E+00  0.00000000E+00
  0.00000000E+00  0.00000000E+00  0.00000000E+00
  0.00000000E+00  0.00000000E+00  0.00000000E+00
  0.00000000E+00  0.00000000E+00  0.00000000E+00
  0.00000000E+00  0.00000000E+00  0.00000000E+00
  0.00000000E+00  0.00000000E+00  0.00000000E+00
  0.00000000E+00  0.00000000E+00  0.00000000E+00
  0.00000000E+00  0.00000000E+00  0.00000000E+00
  0.00000000E+00  0.00000000E+00  0.00000000E+00
  0.00000000E+00  0.00000000E+00  0.00000000E+00
  0.00000000E+00  0.00000000E+00  0.00000000E+00
  0.00000000E+00  0.00000000E+00  0.00000000E+00
  0.00000000E+00  0.00000000E+00  0.00000000E+00
  0.00000000E+00  0.00000000E+00  0.00000000E+00
  0.00000000E+00  0.00000000E+00  0.00000000E+00
  0.00000000E+00  0.00000000E+00  0.00000000E+00
  0.00000000E+00  0.00000000E+00  0.00000000E+00
  0.00000000E+00  0.00000000E+00  0.00000000E+00
  0.00000000E+00  0.00000000E+00  0.00000000E+00
  0.00000000E+00  0.00000000E+00  0.00000000E+00
  0.00000000E+00  0.00000000E+00  0.00000000E+00
  0.00000000E+00  0.00000000E+00  0.00000000E+00
  0.00000000E+00  0.00000000E+00  0.00000000E+00
  0.00000000E+00  0.00000000E+00  0.00000000E+00
  0.00000000E+00  0.00000000E+00  0.00000000E+00
  0.00000000E+00  0.00000000E+00  0.00000000E+00
  0.00000000E+00  0.00000000E+00  0.00000000E+00
  0.00000000E+00  0.00000000E+00  0.00000000E+00
  0.00000000E+00  0.00000000E+00  0.00000000E+00
  0.00000000E+00  0.00000000E+00  0.00000000E+00
  0.00000000E+00  0.00000000E+00  0.00000000E+00
  0.00000000E+00  0.00000000E+00  0.00000000E+00
  0.00000000E+00  0.00000000E+00  0.00000000E+00
  0.00000000E+00  0.00000000E+00  0.00000000E+00
  0.00000000E+00  0.00000000E+00  0.00000000E+00
  0.00000000E+00  0.00000000E+00  0.00000000E+00
  0.00000000E+00  0.00000000E+00  0.00000000E+00
  0.00000000E+00  0.00000000E+00  0.00000000E+00
  0.00000000E+00  0.00000000E+00  0.00000000E+00
  0.00000000E+00  0.00000000E+00  0.00000000E+00
  0.00000000E+00  0.00000000E+00  0.00000000E+00
  0.00000000E+00  0.00000000E+00  0.00000000E+00
  0.00000000E+00  0.00000000E+00  0.00000000E+00
  0.00000000E+00  0.00000000E+00  0.00000000E+00
  0.00000000E+00  0.00000000E+00  0.00000000E+00
  0.00000000E+00  0.00000000E+00  0.00000000E+00
  0.00000000E+00  0.00000000E+00  0.00000000E+00
  0.00000000E+00  0.00000000E+00  0.00000000E+00
  0.00000000E+00  0.00000000E+00  0.00000000E+00
  0.00000000E+00  0.00000000E+00  0.00000000E+00
  0.00000000E+00  0.00000000E+00  0.00000000E+00
  0.00000000E+00  0.00000000E+00  0.00000000E+00
  0.00000000E+00  0.00000000E+00  0.00000000E+00
  0.00000000E+00  0.00000000E+00  0.00000000E+00
  0.00000000E+00  0.00000000E+00  0.00000000E+00
  0.00000000E+00  0.00000000E+00  0.00000000E+00
  0.00000000E+00  0.00000000E+00  0.00000000E+00
  0.00000000E+00  0.00000000E+00  0.00000000E+00
  0.00000000E+00  0.00000000E+00  0.00000000E+00
  0.00000000E+00  0.00000000E+00  0.00000000E+00
  0.00000000E+00  0.00000000E+00  0.00000000E+00
  0.00000000E+00  0.00000000E+00  0.00000000E+00
  0.00000000E+00  0.00000000E+00  0.00000000E+00
  0.00000000E+00  0.00000000E+00  0.00000000E+00
  0.00000000E+00  0.00000000E+00  0.00000000E+00
  0.00000000E+00  0.00000000E+00  0.00000000E+00
  0.00000000E+00  0.00000000E+00  0.00000000E+00
  0.00000000E+00  0.00000000E+00  0.00000000E+00
  0.00000000E+00  0.00000000E+00  0.00000000E+00
  0.00000000E+00  0.00000000E+00  0.00000000E+00
  0.00000000E+00  0.00000000E+00  0.00000000E+00
  0.00000000E+00  0.00000000E+00  0.00000000E+00
  0.00000000E+00  0.00000000E+00  0.00000000E+00
  0.00000000E+00  0.00000000E+00  0.00000000E+00
  0.00000000E+00  0.00000000E+00  0.00000000E+00
  0.00000000E+00  0.00000000E+00  0.00000000E+00
  0.00000000E+00  0.00000000E+00  0.00000000E+00
  0.00000000E+00  0.00000000E+00  0.00000000E+00
  0.00000000E+00  0.00000000E+00  0.00000000E+00
  0.00000000E+00  0.00000000E+00  0.00000000E+00
  0.00000000E+00  0.00000000E+00  0.00000000E+00
  0.00000000E+00  0.00000000E+00  0.00000000E+00
  0.00000000E+00  0.00000000E+00  0.00000000E+00
  0.00000000E+00  0.00000000E+00  0.00000000E+00
  0.00000000E+00  0.00000000E+00  0.00000000E+00
  0.00000000E+00  0.00000000E+00  0.00000000E+00
  0.00000000E+00  0.00000000E+00  0.00000000E+00
  0.00000000E+00  0.00000000E+00  0.00000000E+00
  0.00000000E+00  0.00000000E+00  0.00000000E+00
  0.00000000E+00  0.00000000E+00  0.00000000E+00
  0.00000000E+00  0.00000000E+00  0.00000000E+00
  0.00000000E+00  0.00000000E+00  0.00000000E+00
  0.00000000E+00  0.00000000E+00  0.00000000E+00
  0.00000000E+00  0.00000000E+00  0.00000000E+00
  0.00000000E+00  0.00000000E+00  0.00000000E+00
  0.00000000E+00  0.00000000E+00  0.00000000E+00
  0.00000000E+00  0.00000000E+00  0.00000000E+00
  0.00000000E+00  0.00000000E+00  0.00000000E+00
  0.00000000E+00  0.00000000E+00  0.00000000E+00
  0.00000000E+00  0.00000000E+00  0.00000000E+00
  0.00000000E+00  0.00000000E+00  0.00000000E+00
  0.00000000E+00  0.00000000E+00  0.00000000E+00
  0.00000000E+00  0.00000000E+00  0.00000000E+00
  0.00000000E+00  0.00000000E+00  0.00000000E+00
  0.00000000E+00  0.00000000E+00  0.00000000E+00
  0.00000000E+00  0.00000000E+00  0.00000000E+00
  0.00000000E+00  0.00000000E+00  0.00000000E+00
  0.00000000E+00  0.00000000E+00  0.00000000E+00
  0.00000000E+00  0.00000000E+00  0.00000000E+00
  0.00000000E+00  0.00000000E+00  0.00000000E+00
  0.00000000E+00  0.00000000E+00  0.00000000E+00
  0.00000000E+00  0.00000000E+00  0.00000000E+00
  0.00000000E+00  0.00000000E+00  0.00000000E+00
  0.00000000E+00  0.00000000E+00  0.00000000E+00
  0.00000000E+00  0.00000000E+00  0.00000000E+00
  0.00000000E+00  0.00000000E+00  0.00000000E+00
  0.00000000E+00  0.00000000E+00  0.00000000E+00
  0.00000000E+00  0.00000000E+00  0.00000000E+00
  0.00000000E+00  0.00000000E+00  0.00000000E+00
  0.00000000E+00  0.00000000E+00  0.00000000E+00
  0.00000000E+00  0.00000000E+00  0.00000000E+00
  0.00000000E+00  0.00000000E+00  0.00000000E+00
  0.00000000E+00  0.00000000E+00  0.00000000E+00
  0.00000000E+00  0.00000000E+00  0.00000000E+00
  0.00000000E+00  0.00000000E+00  0.00000000E+00
  0.00000000E+00  0.00000000E+00  0.00000000E+00
  0.00000000E+00  0.00000000E+00  0.00000000E+00
  0.00000000E+00  0.00000000E+00  0.00000000E+00
  0.00000000E+00  0.00000000E+00  0.00000000E+00
  0.00000000E+00  0.00000000E+00  0.00000000E+00
  0.00000000E+00  0.00000000E+00  0.00000000E+00
  0.00000000E+00  0.00000000E+00  0.00000000E+00
  0.00000000E+00  0.00000000E+00  0.00000000E+00
  0.00000000E+00  0.00000000E+00  0.00000000E+00
  0.00000000E+00  0.00000000E+00  0.00000000E+00
  0.00000000E+00  0.00000000E+00  0.00000000E+00
  0.00000000E+00  0.00000000E+00  0.00000000E+00
  0.00000000E+00  0.00000000E+00  0.00000000E+00
  0.00000000E+00  0.00000000E+00  0.00000000E+00
  0.00000000E+00  0.00000000E+00  0.00000000E+00
  0.00000000E+00  0.00000000E+00  0.00000000E+00
  0.00000000E+00  0.00000000E+00  0.00000000E+00
  0.00000000E+00  0.00000000E+00  0.00000000E+00
  0.00000000E+00  0.00000000E+00  0.00000000E+00
  0.00000000E+00  0.00000000E+00  0.00000000E+00
  0.00000000E+00  0.00000000E+00  0.00000000E+00
  0.00000000E+00  0.00000000E+00  0.00000000E+00
  0.00000000E+00  0.00000000E+00  0.00000000E+00
  0.00000000E+00  0.00000000E+00  0.00000000E+00
  0.00000000E+00  0.00000000E+00  0.00000000E+00
  0.00000000E+00  0.00000000E+00  0.00000000E+00
  0.00000000E+00  0.00000000E+00  0.00000000E+00
  0.00000000E+00  0.00000000E+00  0.00000000E+00
  0.00000000E+00  0.00000000E+00  0.00000000E+00
  0.00000000E+00  0.00000000E+00  0.00000000E+00
  0.00000000E+00  0.00000000E+00  0.00000000E+00
  0.00000000E+00  0.00000000E+00  0.00000000E+00
  0.00000000E+00  0.00000000E+00  0.00000000E+00
  0.00000000E+00  0.00000000E+00  0.00000000E+00
  0.00000000E+00  0.00000000E+00  0.00000000E+00
  0.00000000E+00  0.00000000E+00  0.00000000E+00
  0.00000000E+00  0.00000000E+00  0.00000000E+00
  0.00000000E+00  0.00000000E+00  0.00000000E+00
  0.00000000E+00  0.00000000E+00  0.00000000E+00
  0.00000000E+00  0.00000000E+00  0.00000000E+00
  0.00000000E+00  0.00000000E+00  0.00000000E+00
  0.00000000E+00  0.00000000E+00  0.00000000E+00
  0.00000000E+00  0.00000000E+00  0.00000000E+00
  0.00000000E+00  0.00000000E+00  0.00000000E+00
  0.00000000E+00  0.00000000E+00  0.00000000E+00
  0.00000000E+00  0.00000000E+00  0.00000000E+00
  0.00000000E+00  0.00000000E+00  0.00000000E+00
  0.00000000E+00  0.00000000E+00  0.00000000E+00
  0.00000000E+00  0.00000000E+00  0.00000000E+00
  0.00000000E+00  0.00000000E+00  0.00000000E+00
  0.00000000E+00  0.00000000E+00  0.00000000E+00
  0.00000000E+00  0.00000000E+00  0.00000000E+00
  0.00000000E+00  0.00000000E+00  0.00000000E+00
  0.00000000E+00  0.00000000E+00  0.00000000E+00
  0.00000000E+00  0.00000000E+00  0.00000000E+00
  0.00000000E+00  0.00000000E+00  0.00000000E+00
  0.00000000E+00  0.00000000E+00  0.00000000E+00
  0.00000000E+00  0.00000000E+00  0.00000000E+00
  0.00000000E+00  0.00000000E+00  0.00000000E+00
  0.00000000E+00  0.00000000E+00  0.00000000E+00
  0.00000000E+00  0.00000000E+00  0.00000000E+00
  0.00000000E+00  0.00000000E+00  0.00000000E+00
  0.00000000E+00  0.00000000E+00  0.00000000E+00
  0.00000000E+00  0.00000000E+00  0.00000000E+00
  0.00000000E+00  0.00000000E+00  0.00000000E+00
  0.00000000E+00  0.00000000E+00  0.00000000E+00
  0.00000000E+00  0.00000000E+00  0.00000000E+00
  0.00000000E+00  0.00000000E+00  0.00000000E+00
  0.00000000E+00  0.00000000E+00  0.00000000E+00
  0.00000000E+00  0.00000000E+00  0.00000000E+00
  0.00000000E+00  0.00000000E+00  0.00000000E+00
