Ti64 O64 F128                           
   1.00000000000000     
    15.2628184062341319    0.0085101170008975    0.0190391343792780
     0.0085063117562893   15.2946043958624589   -0.0078274791146090
     0.0190023910831563   -0.0077958607463145   15.2164206967241533
   Ti   O    F 
    64    64   128
Direct
  0.9970142675524881  0.9993760233582345  0.0081903033146083
  0.9928520157175209  0.9908213459565904  0.4990704856237533
  0.9967268084954519  0.5057978223083669  0.9939453284682885
  0.0070040588074134  0.5017058398699068  0.4928894380469308
  0.5061644000843460  0.0081950185038148  0.0025982199702980
  0.4915603642393898  0.0007518546649227  0.4970089507500193
  0.5074875379122885  0.5087533867256598  0.9999895054082194
  0.5016668170302474  0.4921060881129557  0.5084641020446624
  0.9994544502016709  0.0088390213310358  0.2447074687245296
  0.9909350956642071  0.9935614640558430  0.7505578607982094
  0.0068853403752157  0.4970796786860765  0.2571511835114006
  0.9922807645145783  0.5023655604752666  0.7550619110284129
  0.4928965465398235  0.9927164796274922  0.2512253265676125
  0.4910529372543501  0.9944572482418702  0.7521362387272842
  0.5070172958349178  0.4935719557338156  0.2559644077097707
  0.5029911885800836  0.4924313610969350  0.7454571170148825
  0.9946445742785462  0.2546585370420373  0.9923583250025049
  0.9942835135505205  0.2499836439361561  0.4923953930724116
  0.9982412356883601  0.7420931564887453  0.9934933708164883
  0.0025089814263056  0.7578172010979217  0.4961271893284512
  0.4922366825106079  0.2453960816404847  0.9996033829642730
  0.4943157445463170  0.2590229342412549  0.4956948798660297
  0.5023358415115927  0.7458812810063606  0.0093476259096411
  0.4937076248106889  0.7500254818863281  0.5088485764429609
  0.0021458487173333  0.2444798701547439  0.2563885887611788
  0.0066786037890416  0.2507339590259191  0.7536248841408230
  0.9946224658339234  0.7532128563522096  0.2558898115314148
  0.9978725110064417  0.7591228765722040  0.7554274222261127
  0.4910994499977895  0.2552772263712327  0.2530762970957672
  0.5042883120468925  0.2570389069452651  0.7486713658840756
  0.4979336643919574  0.7559160738664287  0.2459056533305472
  0.5013071100434534  0.7570961849363241  0.7466073151855218
  0.2545364598673666  0.0076753519374954  0.0040535003035435
  0.2531188464906129  0.0072955031043870  0.4934724933279397
  0.2549176914942877  0.5050325347598053  0.9936766238091084
  0.2440635669309660  0.4988332468786445  0.4919783085906610
  0.7394364880248889  0.9978169954435289  0.9961145278408975
  0.7527769291049186  0.9958309390941645  0.4930171395773238
  0.7443069127401953  0.5087149299777498  0.0006712040965935
  0.7555504635727024  0.5053068092615463  0.4932779323002960
  0.2592223118885633  0.0040206661137171  0.2419789397195915
  0.2531489502467484  0.0068911638106933  0.7522956808997923
  0.2467892369711363  0.4928525872570727  0.2551578148982178
  0.2489848358112235  0.5049984337670186  0.7563005474933079
  0.7467256984217082  0.0060238387943803  0.2562726661196668
  0.7533171300790866  0.9980842465168538  0.7573546837426000
  0.7464540296422199  0.4963463462052687  0.2604461347582955
  0.7569265187435227  0.5088169600886945  0.7505032795658324
  0.2564330092395197  0.2445451871800023  0.9959449464633490
  0.2569461831943075  0.2438722726189448  0.4947879082885944
  0.2541747547300534  0.7444211628006324  0.9927421539249046
  0.2587115376482103  0.7541082840393775  0.4945228942088558
  0.7553642839942939  0.2540102316738015  0.9937999230491043
  0.7543174128915680  0.2534765339685874  0.4934466488136445
  0.7517669249811634  0.7399810926120002  0.0065303522473620
  0.7484418327212169  0.7400083373677565  0.5071232054830757
  0.2572052831855218  0.2579365853645104  0.2486359661239610
  0.2418400048407006  0.2450293458353163  0.7476161402817157
  0.2590375866358126  0.7502793762971645  0.2540081424158385
  0.2506038812199949  0.7437984283821399  0.7564057445460647
  0.7465349323211141  0.2432087290587358  0.2564533484901463
  0.7417780093636154  0.2535193183096203  0.7542259287213505
  0.7559851977361927  0.7502239557910045  0.2442394017784373
  0.7474364566684260  0.7399922818441049  0.7472574767864852
  0.9822205260510126  0.0125049208737976  0.1230042676103208
  0.5196415271312955  0.4908551823065775  0.6261901809349374
  0.9828789978548940  0.4869979696323543  0.3763793272892101
  0.9897438888571735  0.4868057249100929  0.8750254852788397
  0.5208461400948933  0.7626987425526790  0.1248201090222490
  0.5186721613856042  0.7587621867104600  0.6269664366237988
  0.0154673994771483  0.2648632161072517  0.3734846935027209
  0.0111820454217315  0.2648081186874275  0.8732515926709820
  0.9933658173000254  0.7619043127076093  0.3767634072857594
  0.9867138898661246  0.7628532213255482  0.8752318786123412
  0.2691949322251165  0.0159918679869578  0.1230562322260539
  0.2675901099233342  0.4885326084759696  0.3761016916789145
  0.2612727413415485  0.4855282182667674  0.8748566974356419
  0.7316311911280702  0.9890270915728184  0.3745422441055462
  0.7326577039166201  0.9915438142529385  0.8762358959438959
  0.7686533780190959  0.4796865593442237  0.3775415701322503
  0.7360782241855079  0.7342082615731537  0.1250991596729475
  0.7341098112668516  0.7372373663611269  0.6278733451355289
  0.2577107860904653  0.7609572185981310  0.3756980341599110
  0.2649233965379305  0.7637230919340986  0.8742400134144563
  0.7334439762412364  0.2629442948142664  0.3746931164368967
  0.7382920057973720  0.2607222120252516  0.8744892491086608
  0.1252762086918939  0.5140369538285039  0.4864316213541515
  0.6238671146160601  0.0100531255234509  0.0221098505360902
  0.6267736750132359  0.5137604550689869  0.9855258906548808
  0.1248745145139217  0.4992420219157139  0.2620546416878703
  0.6268119698637367  0.5012831374984338  0.2666655928961439
  0.1247320008259126  0.2628060429889927  0.7315450618332231
  0.6228772608315520  0.2616209459399396  0.7346790691985232
  0.3760775103340430  0.9879090063977576  0.4819406407109684
  0.8734536174892245  0.9883286024452930  0.4884461438405914
  0.3740608737055968  0.0020732478833863  0.2709662508908140
  0.3732058360766826  0.0099145066022236  0.7641674263226260
  0.8733055703691192  0.0108911253168622  0.7629295491396445
  0.8747262573443066  0.5182353562450185  0.7373643561521206
  0.3744787616815826  0.2627905436391569  0.9845148914953571
  0.3747130873739724  0.2602201438748722  0.4772815754314044
  0.3765638449514244  0.7680823731237301  0.5147725741792706
  0.8752492199307399  0.2629919795736578  0.9925077358612716
  0.8743916730516751  0.2603511593415278  0.4881268111985740
  0.3740743276428957  0.2418214202008813  0.2699321181843505
  0.3762331050370856  0.7544395389345211  0.2375983161958818
  0.8756173236068389  0.7576828460730293  0.2389002744172877
  0.9834124091891905  0.6249988112178922  0.9915204396308454
  0.4864341003250887  0.1253916331625640  0.0140208111372797
  0.4884083653116161  0.6254190674802446  0.0130553228012400
  0.9924498830617119  0.1241374845396994  0.2647707810058035
  0.0135452933015610  0.8751795828845961  0.5172920271166518
  0.5136561144765972  0.3749377236137230  0.4841825488159876
  0.9849609758219341  0.8752804989694244  0.7334261195541177
  0.4990534329587231  0.3733399886066100  0.2688922527153935
  0.4867150079097660  0.3750599118110856  0.7612413165400876
  0.5069057037875823  0.8778103881974813  0.2663726904606298
  0.4894321272369036  0.8753524896666172  0.7617469246802080
  0.2583718959966093  0.1248036422121977  0.9794475099110965
  0.2580167941034276  0.1244074512337222  0.4808139439583385
  0.2659601581294206  0.6254446878685097  0.9913963702406337
  0.7709585093283949  0.6242634929167901  0.9851843619228525
  0.7675010082687710  0.6237623055273079  0.4887114906022456
  0.2365076463515592  0.1255511169638574  0.7604727991854658
  0.2363205258654776  0.6248141492517182  0.7596782670789816
  0.7569385843063547  0.1243041699230563  0.2588859509750767
  0.7336052569090987  0.6239721918462541  0.7705551450430417
  0.2540899390620381  0.3728808477617319  0.2332734561734959
  0.9896244765917195  0.0214403890793396  0.6242031696083676
  0.0090765982040974  0.5106726108683513  0.1247493378934993
  0.0133518776050939  0.5131134347757245  0.6259588380382110
  0.4749221377729512  0.9819504980979044  0.1240312860062690
  0.4848723503133744  0.9860857048726723  0.6225599658419531
  0.5150905150064473  0.4844857571439786  0.1265012988637990
  0.0162946972140260  0.9834051707664543  0.3728501505062891
  0.0148547405976644  0.9866735870936314  0.8765274105665909
  0.5215084450237704  0.0218238410816691  0.3750554246737680
  0.5195762534208622  0.0170821412170093  0.8750012054967690
  0.4825516408947611  0.5163208714913676  0.3792386339950133
  0.4826026789497037  0.5105585328658593  0.8751719344988473
  0.9911319308950816  0.2349778598478268  0.1239542540927266
  0.9884380722028181  0.2333779601018521  0.6229609732058310
  0.0134488657527426  0.7427485530336628  0.1239564546891040
  0.0098431610983305  0.7332225583904420  0.6267498630573842
  0.4846496517447446  0.2681067024908366  0.1256984221261267
  0.4779732784542789  0.2603230541370548  0.6225158883488566
  0.5221353589423882  0.2258047002593751  0.3747899532048273
  0.5159218305911616  0.2332734769627140  0.8743422391615306
  0.4904831802052265  0.7377754430959178  0.3779471688844490
  0.4822941327776987  0.7405641749533398  0.8763767028617580
  0.2613188326543044  0.0110805292537384  0.6218186376142272
  0.2420251048456558  0.5109312173648752  0.1240331314124413
  0.2412513938559254  0.5065851942518228  0.6248126085294504
  0.7710225972825867  0.0038642321908963  0.1246296508123062
  0.7569107169843008  0.0063628014354757  0.6249186379882046
  0.7395666327534416  0.5168009347413186  0.1274886897318174
  0.7298566084094079  0.5118251669531304  0.6259196314122213
  0.2283184091191070  0.9834795053976327  0.3717579127900486
  0.2306988392504509  0.9825268877191178  0.8751119312656792
  0.7675941737767431  0.4786752070399593  0.8764521310603705
  0.2649284302471020  0.2286084940467752  0.1238289280461229
  0.2705052391828937  0.2368815138563855  0.6217367770099389
  0.2371105677963193  0.7437809053852873  0.1236293623835123
  0.2372669017321648  0.7438949471655097  0.6250933519086274
  0.7581022251671372  0.2403887787133299  0.1249168423484651
  0.7603999263472768  0.2395095374543578  0.6241497081653764
  0.2244849392213303  0.2669962764631303  0.3734112195738274
  0.2321776984032566  0.2709322819301060  0.8731950557255308
  0.7617569864469288  0.7649946399847148  0.3776182383755168
  0.7698776819844472  0.7651780935400629  0.8761213487610795
  0.1237401612554149  0.0109863185410526  0.0130701200787462
  0.1242430295692460  0.0125874205762785  0.5103024373351216
  0.1254191644567130  0.5113955458022515  0.9915679939921912
  0.6215997656529254  0.0101062230220523  0.5151209015001309
  0.6261727536334177  0.5150555905920654  0.4827458263400925
  0.1249089541619713  0.0056109859062006  0.2325976734833031
  0.1229811737124139  0.9892176678033676  0.7356804720169146
  0.1237979832734143  0.4817602865316314  0.7563116900100902
  0.6233346421364770  0.0069573439514581  0.2265075105124309
  0.6229191477399807  0.9915101456002683  0.7347115163107089
  0.6272668913413881  0.4838848744486482  0.7716647992408459
  0.1251670522375587  0.2391321144258399  0.0119439370887370
  0.1259615688596847  0.2404127909698894  0.5145645445009938
  0.1255535836797723  0.7400055703498167  0.9867722262957419
  0.1266729178073509  0.7319888771739177  0.4949250646137356
  0.6239812488867841  0.2409253464809870  0.0132172578496301
  0.6223941911983667  0.2382842955935720  0.5162741672792913
  0.6272631576779726  0.7388840752934749  0.9765843920638448
  0.6242536644806448  0.7348738541476689  0.4841328017987510
  0.1261726234025228  0.2455429800756264  0.2305520234318343
  0.1251672683592703  0.7462678215209173  0.2559406482861397
  0.1246757064492082  0.7669370882855990  0.7600747718246118
  0.6223107147717545  0.2464352487816128  0.2326329920054657
  0.6279769656858660  0.7422815476175489  0.2690554587466705
  0.6258920479959721  0.7652707185765877  0.7761614427595647
  0.3767716496518755  0.9851681920460745  0.9766991081974608
  0.3782734456964891  0.4822281401532946  0.0146540348482770
  0.3758312974483705  0.4864727247159666  0.5187846875604170
  0.8748576065477255  0.9866241002298973  0.9830521641134778
  0.8740363337155943  0.4808146056641811  0.0157663353819134
  0.8761945060965681  0.4842804120076887  0.5247227538862582
  0.3782424025351530  0.5038918059424899  0.2352181954012579
  0.3767470407530119  0.5159404372635751  0.7353791863565959
  0.8749842528613803  0.9854185871634077  0.2666599630188071
  0.8747949590427432  0.4964174154235565  0.2336334822109871
  0.3764464528358639  0.7695826655571321  0.0185482352888820
  0.8761646354876211  0.7701503791016010  0.0190650544817208
  0.8743781852422047  0.7653137595151080  0.5165300732538938
  0.3739274818258238  0.2386001371337864  0.7653496126590893
  0.3760735506123852  0.7346375748096001  0.7322135019739171
  0.8744974763534932  0.2595687444030387  0.2586630403099795
  0.8742124214231312  0.2394409737312441  0.7559582364529074
  0.8748211471356172  0.7296042778522752  0.7370169329124849
  0.9911272099886383  0.1236987756305352  0.9825963358733318
  0.9939575625074816  0.1231562655267754  0.4816699539928633
  0.9808403415381163  0.6262736172808534  0.4932359949904682
  0.4882275299573283  0.1248590267326333  0.5144250785904447
  0.4870486777516335  0.6235240172279067  0.5115641883184486
  0.0126467289280478  0.1237958944164989  0.7631615899485737
  0.9949680368518896  0.6252478364289741  0.2578194516100814
  0.0187760987445259  0.6264856965127950  0.7628019426453919
  0.5011723852347775  0.1245652689027622  0.2315781018216151
  0.5063715953068939  0.1248718185893219  0.7339829170774714
  0.5014339923555626  0.6240064322073541  0.2406359104157510
  0.5164101739984431  0.6248897836709253  0.7487690418060293
  0.0154961308942794  0.3767364615925976  0.0171037864611798
  0.0127203069202100  0.3748418654457347  0.5179472637269754
  0.0135025651742726  0.8754891356157065  0.0120847532719801
  0.5131764146172892  0.3747009907980197  0.9874867232146113
  0.5113509078182692  0.8766904643005617  0.9850361179595257
  0.5177445677092781  0.8766760244663460  0.4843150761271754
  0.0014300824653033  0.3724222392860587  0.2307279044892802
  0.9836838172870881  0.3757148114369157  0.7310264503699612
  0.0094868518716559  0.8777361644454260  0.2361799307368740
  0.2685875014860601  0.6255649112671691  0.4963097290002851
  0.7616796300900327  0.1244818592354503  0.9938231890801514
  0.7545785029959662  0.1246162627345878  0.4916700501271166
  0.2407243172263288  0.1259980284266771  0.2689515703062736
  0.2528742561843900  0.6245282692787021  0.2564266714877051
  0.7363529445392227  0.1251395166698398  0.7550885775315456
  0.7591789543195692  0.6240771471848240  0.2694187530022464
  0.2375909482291979  0.3737071539670581  0.0158979662365135
  0.2378577870002549  0.3726525838933571  0.5132889150966435
  0.2387019654007927  0.8770221100710931  0.0112250591593340
  0.2325003719492173  0.8778120795819353  0.5113697638166054
  0.7369551291780949  0.3773341864819538  0.0167727505465616
  0.7340516676555621  0.3766581758524958  0.5189476920591027
  0.7389440715826996  0.8723002462143308  0.0110761704241688
  0.7336090018200179  0.8722290034030720  0.5124217849427325
  0.2656284259914445  0.3743631425869973  0.7345856174650846
  0.2423717194492842  0.8775152277252640  0.2358637711982272
  0.2591150838223256  0.8754710444621671  0.7354825275474386
  0.7472677104016743  0.3731867320491283  0.2308477304236751
  0.7627948734732027  0.3773829615782493  0.7348437280196408
  0.7391454263699463  0.8756446270336490  0.2368887277730486
  0.7610531803808430  0.8723378419330097  0.7407039651513482
 
  0.00000000E+00  0.00000000E+00  0.00000000E+00
  0.00000000E+00  0.00000000E+00  0.00000000E+00
  0.00000000E+00  0.00000000E+00  0.00000000E+00
  0.00000000E+00  0.00000000E+00  0.00000000E+00
  0.00000000E+00  0.00000000E+00  0.00000000E+00
  0.00000000E+00  0.00000000E+00  0.00000000E+00
  0.00000000E+00  0.00000000E+00  0.00000000E+00
  0.00000000E+00  0.00000000E+00  0.00000000E+00
  0.00000000E+00  0.00000000E+00  0.00000000E+00
  0.00000000E+00  0.00000000E+00  0.00000000E+00
  0.00000000E+00  0.00000000E+00  0.00000000E+00
  0.00000000E+00  0.00000000E+00  0.00000000E+00
  0.00000000E+00  0.00000000E+00  0.00000000E+00
  0.00000000E+00  0.00000000E+00  0.00000000E+00
  0.00000000E+00  0.00000000E+00  0.00000000E+00
  0.00000000E+00  0.00000000E+00  0.00000000E+00
  0.00000000E+00  0.00000000E+00  0.00000000E+00
  0.00000000E+00  0.00000000E+00  0.00000000E+00
  0.00000000E+00  0.00000000E+00  0.00000000E+00
  0.00000000E+00  0.00000000E+00  0.00000000E+00
  0.00000000E+00  0.00000000E+00  0.00000000E+00
  0.00000000E+00  0.00000000E+00  0.00000000E+00
  0.00000000E+00  0.00000000E+00  0.00000000E+00
  0.00000000E+00  0.00000000E+00  0.00000000E+00
  0.00000000E+00  0.00000000E+00  0.00000000E+00
  0.00000000E+00  0.00000000E+00  0.00000000E+00
  0.00000000E+00  0.00000000E+00  0.00000000E+00
  0.00000000E+00  0.00000000E+00  0.00000000E+00
  0.00000000E+00  0.00000000E+00  0.00000000E+00
  0.00000000E+00  0.00000000E+00  0.00000000E+00
  0.00000000E+00  0.00000000E+00  0.00000000E+00
  0.00000000E+00  0.00000000E+00  0.00000000E+00
  0.00000000E+00  0.00000000E+00  0.00000000E+00
  0.00000000E+00  0.00000000E+00  0.00000000E+00
  0.00000000E+00  0.00000000E+00  0.00000000E+00
  0.00000000E+00  0.00000000E+00  0.00000000E+00
  0.00000000E+00  0.00000000E+00  0.00000000E+00
  0.00000000E+00  0.00000000E+00  0.00000000E+00
  0.00000000E+00  0.00000000E+00  0.00000000E+00
  0.00000000E+00  0.00000000E+00  0.00000000E+00
  0.00000000E+00  0.00000000E+00  0.00000000E+00
  0.00000000E+00  0.00000000E+00  0.00000000E+00
  0.00000000E+00  0.00000000E+00  0.00000000E+00
  0.00000000E+00  0.00000000E+00  0.00000000E+00
  0.00000000E+00  0.00000000E+00  0.00000000E+00
  0.00000000E+00  0.00000000E+00  0.00000000E+00
  0.00000000E+00  0.00000000E+00  0.00000000E+00
  0.00000000E+00  0.00000000E+00  0.00000000E+00
  0.00000000E+00  0.00000000E+00  0.00000000E+00
  0.00000000E+00  0.00000000E+00  0.00000000E+00
  0.00000000E+00  0.00000000E+00  0.00000000E+00
  0.00000000E+00  0.00000000E+00  0.00000000E+00
  0.00000000E+00  0.00000000E+00  0.00000000E+00
  0.00000000E+00  0.00000000E+00  0.00000000E+00
  0.00000000E+00  0.00000000E+00  0.00000000E+00
  0.00000000E+00  0.00000000E+00  0.00000000E+00
  0.00000000E+00  0.00000000E+00  0.00000000E+00
  0.00000000E+00  0.00000000E+00  0.00000000E+00
  0.00000000E+00  0.00000000E+00  0.00000000E+00
  0.00000000E+00  0.00000000E+00  0.00000000E+00
  0.00000000E+00  0.00000000E+00  0.00000000E+00
  0.00000000E+00  0.00000000E+00  0.00000000E+00
  0.00000000E+00  0.00000000E+00  0.00000000E+00
  0.00000000E+00  0.00000000E+00  0.00000000E+00
  0.00000000E+00  0.00000000E+00  0.00000000E+00
  0.00000000E+00  0.00000000E+00  0.00000000E+00
  0.00000000E+00  0.00000000E+00  0.00000000E+00
  0.00000000E+00  0.00000000E+00  0.00000000E+00
  0.00000000E+00  0.00000000E+00  0.00000000E+00
  0.00000000E+00  0.00000000E+00  0.00000000E+00
  0.00000000E+00  0.00000000E+00  0.00000000E+00
  0.00000000E+00  0.00000000E+00  0.00000000E+00
  0.00000000E+00  0.00000000E+00  0.00000000E+00
  0.00000000E+00  0.00000000E+00  0.00000000E+00
  0.00000000E+00  0.00000000E+00  0.00000000E+00
  0.00000000E+00  0.00000000E+00  0.00000000E+00
  0.00000000E+00  0.00000000E+00  0.00000000E+00
  0.00000000E+00  0.00000000E+00  0.00000000E+00
  0.00000000E+00  0.00000000E+00  0.00000000E+00
  0.00000000E+00  0.00000000E+00  0.00000000E+00
  0.00000000E+00  0.00000000E+00  0.00000000E+00
  0.00000000E+00  0.00000000E+00  0.00000000E+00
  0.00000000E+00  0.00000000E+00  0.00000000E+00
  0.00000000E+00  0.00000000E+00  0.00000000E+00
  0.00000000E+00  0.00000000E+00  0.00000000E+00
  0.00000000E+00  0.00000000E+00  0.00000000E+00
  0.00000000E+00  0.00000000E+00  0.00000000E+00
  0.00000000E+00  0.00000000E+00  0.00000000E+00
  0.00000000E+00  0.00000000E+00  0.00000000E+00
  0.00000000E+00  0.00000000E+00  0.00000000E+00
  0.00000000E+00  0.00000000E+00  0.00000000E+00
  0.00000000E+00  0.00000000E+00  0.00000000E+00
  0.00000000E+00  0.00000000E+00  0.00000000E+00
  0.00000000E+00  0.00000000E+00  0.00000000E+00
  0.00000000E+00  0.00000000E+00  0.00000000E+00
  0.00000000E+00  0.00000000E+00  0.00000000E+00
  0.00000000E+00  0.00000000E+00  0.00000000E+00
  0.00000000E+00  0.00000000E+00  0.00000000E+00
  0.00000000E+00  0.00000000E+00  0.00000000E+00
  0.00000000E+00  0.00000000E+00  0.00000000E+00
  0.00000000E+00  0.00000000E+00  0.00000000E+00
  0.00000000E+00  0.00000000E+00  0.00000000E+00
  0.00000000E+00  0.00000000E+00  0.00000000E+00
  0.00000000E+00  0.00000000E+00  0.00000000E+00
  0.00000000E+00  0.00000000E+00  0.00000000E+00
  0.00000000E+00  0.00000000E+00  0.00000000E+00
  0.00000000E+00  0.00000000E+00  0.00000000E+00
  0.00000000E+00  0.00000000E+00  0.00000000E+00
  0.00000000E+00  0.00000000E+00  0.00000000E+00
  0.00000000E+00  0.00000000E+00  0.00000000E+00
  0.00000000E+00  0.00000000E+00  0.00000000E+00
  0.00000000E+00  0.00000000E+00  0.00000000E+00
  0.00000000E+00  0.00000000E+00  0.00000000E+00
  0.00000000E+00  0.00000000E+00  0.00000000E+00
  0.00000000E+00  0.00000000E+00  0.00000000E+00
  0.00000000E+00  0.00000000E+00  0.00000000E+00
  0.00000000E+00  0.00000000E+00  0.00000000E+00
  0.00000000E+00  0.00000000E+00  0.00000000E+00
  0.00000000E+00  0.00000000E+00  0.00000000E+00
  0.00000000E+00  0.00000000E+00  0.00000000E+00
  0.00000000E+00  0.00000000E+00  0.00000000E+00
  0.00000000E+00  0.00000000E+00  0.00000000E+00
  0.00000000E+00  0.00000000E+00  0.00000000E+00
  0.00000000E+00  0.00000000E+00  0.00000000E+00
  0.00000000E+00  0.00000000E+00  0.00000000E+00
  0.00000000E+00  0.00000000E+00  0.00000000E+00
  0.00000000E+00  0.00000000E+00  0.00000000E+00
  0.00000000E+00  0.00000000E+00  0.00000000E+00
  0.00000000E+00  0.00000000E+00  0.00000000E+00
  0.00000000E+00  0.00000000E+00  0.00000000E+00
  0.00000000E+00  0.00000000E+00  0.00000000E+00
  0.00000000E+00  0.00000000E+00  0.00000000E+00
  0.00000000E+00  0.00000000E+00  0.00000000E+00
  0.00000000E+00  0.00000000E+00  0.00000000E+00
  0.00000000E+00  0.00000000E+00  0.00000000E+00
  0.00000000E+00  0.00000000E+00  0.00000000E+00
  0.00000000E+00  0.00000000E+00  0.00000000E+00
  0.00000000E+00  0.00000000E+00  0.00000000E+00
  0.00000000E+00  0.00000000E+00  0.00000000E+00
  0.00000000E+00  0.00000000E+00  0.00000000E+00
  0.00000000E+00  0.00000000E+00  0.00000000E+00
  0.00000000E+00  0.00000000E+00  0.00000000E+00
  0.00000000E+00  0.00000000E+00  0.00000000E+00
  0.00000000E+00  0.00000000E+00  0.00000000E+00
  0.00000000E+00  0.00000000E+00  0.00000000E+00
  0.00000000E+00  0.00000000E+00  0.00000000E+00
  0.00000000E+00  0.00000000E+00  0.00000000E+00
  0.00000000E+00  0.00000000E+00  0.00000000E+00
  0.00000000E+00  0.00000000E+00  0.00000000E+00
  0.00000000E+00  0.00000000E+00  0.00000000E+00
  0.00000000E+00  0.00000000E+00  0.00000000E+00
  0.00000000E+00  0.00000000E+00  0.00000000E+00
  0.00000000E+00  0.00000000E+00  0.00000000E+00
  0.00000000E+00  0.00000000E+00  0.00000000E+00
  0.00000000E+00  0.00000000E+00  0.00000000E+00
  0.00000000E+00  0.00000000E+00  0.00000000E+00
  0.00000000E+00  0.00000000E+00  0.00000000E+00
  0.00000000E+00  0.00000000E+00  0.00000000E+00
  0.00000000E+00  0.00000000E+00  0.00000000E+00
  0.00000000E+00  0.00000000E+00  0.00000000E+00
  0.00000000E+00  0.00000000E+00  0.00000000E+00
  0.00000000E+00  0.00000000E+00  0.00000000E+00
  0.00000000E+00  0.00000000E+00  0.00000000E+00
  0.00000000E+00  0.00000000E+00  0.00000000E+00
  0.00000000E+00  0.00000000E+00  0.00000000E+00
  0.00000000E+00  0.00000000E+00  0.00000000E+00
  0.00000000E+00  0.00000000E+00  0.00000000E+00
  0.00000000E+00  0.00000000E+00  0.00000000E+00
  0.00000000E+00  0.00000000E+00  0.00000000E+00
  0.00000000E+00  0.00000000E+00  0.00000000E+00
  0.00000000E+00  0.00000000E+00  0.00000000E+00
  0.00000000E+00  0.00000000E+00  0.00000000E+00
  0.00000000E+00  0.00000000E+00  0.00000000E+00
  0.00000000E+00  0.00000000E+00  0.00000000E+00
  0.00000000E+00  0.00000000E+00  0.00000000E+00
  0.00000000E+00  0.00000000E+00  0.00000000E+00
  0.00000000E+00  0.00000000E+00  0.00000000E+00
  0.00000000E+00  0.00000000E+00  0.00000000E+00
  0.00000000E+00  0.00000000E+00  0.00000000E+00
  0.00000000E+00  0.00000000E+00  0.00000000E+00
  0.00000000E+00  0.00000000E+00  0.00000000E+00
  0.00000000E+00  0.00000000E+00  0.00000000E+00
  0.00000000E+00  0.00000000E+00  0.00000000E+00
  0.00000000E+00  0.00000000E+00  0.00000000E+00
  0.00000000E+00  0.00000000E+00  0.00000000E+00
  0.00000000E+00  0.00000000E+00  0.00000000E+00
  0.00000000E+00  0.00000000E+00  0.00000000E+00
  0.00000000E+00  0.00000000E+00  0.00000000E+00
  0.00000000E+00  0.00000000E+00  0.00000000E+00
  0.00000000E+00  0.00000000E+00  0.00000000E+00
  0.00000000E+00  0.00000000E+00  0.00000000E+00
  0.00000000E+00  0.00000000E+00  0.00000000E+00
  0.00000000E+00  0.00000000E+00  0.00000000E+00
  0.00000000E+00  0.00000000E+00  0.00000000E+00
  0.00000000E+00  0.00000000E+00  0.00000000E+00
  0.00000000E+00  0.00000000E+00  0.00000000E+00
  0.00000000E+00  0.00000000E+00  0.00000000E+00
  0.00000000E+00  0.00000000E+00  0.00000000E+00
  0.00000000E+00  0.00000000E+00  0.00000000E+00
  0.00000000E+00  0.00000000E+00  0.00000000E+00
  0.00000000E+00  0.00000000E+00  0.00000000E+00
  0.00000000E+00  0.00000000E+00  0.00000000E+00
  0.00000000E+00  0.00000000E+00  0.00000000E+00
  0.00000000E+00  0.00000000E+00  0.00000000E+00
  0.00000000E+00  0.00000000E+00  0.00000000E+00
  0.00000000E+00  0.00000000E+00  0.00000000E+00
  0.00000000E+00  0.00000000E+00  0.00000000E+00
  0.00000000E+00  0.00000000E+00  0.00000000E+00
  0.00000000E+00  0.00000000E+00  0.00000000E+00
  0.00000000E+00  0.00000000E+00  0.00000000E+00
  0.00000000E+00  0.00000000E+00  0.00000000E+00
  0.00000000E+00  0.00000000E+00  0.00000000E+00
  0.00000000E+00  0.00000000E+00  0.00000000E+00
  0.00000000E+00  0.00000000E+00  0.00000000E+00
  0.00000000E+00  0.00000000E+00  0.00000000E+00
  0.00000000E+00  0.00000000E+00  0.00000000E+00
  0.00000000E+00  0.00000000E+00  0.00000000E+00
  0.00000000E+00  0.00000000E+00  0.00000000E+00
  0.00000000E+00  0.00000000E+00  0.00000000E+00
  0.00000000E+00  0.00000000E+00  0.00000000E+00
  0.00000000E+00  0.00000000E+00  0.00000000E+00
  0.00000000E+00  0.00000000E+00  0.00000000E+00
  0.00000000E+00  0.00000000E+00  0.00000000E+00
  0.00000000E+00  0.00000000E+00  0.00000000E+00
  0.00000000E+00  0.00000000E+00  0.00000000E+00
  0.00000000E+00  0.00000000E+00  0.00000000E+00
  0.00000000E+00  0.00000000E+00  0.00000000E+00
  0.00000000E+00  0.00000000E+00  0.00000000E+00
  0.00000000E+00  0.00000000E+00  0.00000000E+00
  0.00000000E+00  0.00000000E+00  0.00000000E+00
  0.00000000E+00  0.00000000E+00  0.00000000E+00
  0.00000000E+00  0.00000000E+00  0.00000000E+00
  0.00000000E+00  0.00000000E+00  0.00000000E+00
  0.00000000E+00  0.00000000E+00  0.00000000E+00
  0.00000000E+00  0.00000000E+00  0.00000000E+00
  0.00000000E+00  0.00000000E+00  0.00000000E+00
  0.00000000E+00  0.00000000E+00  0.00000000E+00
  0.00000000E+00  0.00000000E+00  0.00000000E+00
  0.00000000E+00  0.00000000E+00  0.00000000E+00
  0.00000000E+00  0.00000000E+00  0.00000000E+00
  0.00000000E+00  0.00000000E+00  0.00000000E+00
  0.00000000E+00  0.00000000E+00  0.00000000E+00
  0.00000000E+00  0.00000000E+00  0.00000000E+00
  0.00000000E+00  0.00000000E+00  0.00000000E+00
  0.00000000E+00  0.00000000E+00  0.00000000E+00
  0.00000000E+00  0.00000000E+00  0.00000000E+00
  0.00000000E+00  0.00000000E+00  0.00000000E+00
  0.00000000E+00  0.00000000E+00  0.00000000E+00
  0.00000000E+00  0.00000000E+00  0.00000000E+00
  0.00000000E+00  0.00000000E+00  0.00000000E+00
  0.00000000E+00  0.00000000E+00  0.00000000E+00
  0.00000000E+00  0.00000000E+00  0.00000000E+00
  0.00000000E+00  0.00000000E+00  0.00000000E+00
  0.00000000E+00  0.00000000E+00  0.00000000E+00
  0.00000000E+00  0.00000000E+00  0.00000000E+00
  0.00000000E+00  0.00000000E+00  0.00000000E+00
