Ti64 O64 F128                           
   1.00000000000000     
    15.4807921705319220    0.0060165909826934   -0.0097217120580822
     0.0059934253903827   15.4011900710174103   -0.0037917264276092
    -0.0096669811536390   -0.0037901578035465   15.4058934986801432
   Ti   O    F 
    64    64   128
Direct
  0.0071049978136648  0.0017204110622797  0.0069158379622419
  0.0074911823859224  0.0015907543695825  0.5072156616008813
  0.0005490109169494  0.4929568128201552  0.0045113685927802
  0.0014004936999182  0.4929158178164536  0.5059690223803376
  0.4980042028831366  0.0060117824808400  0.0061345427978527
  0.4978129504238984  0.0071304662275372  0.5060112188215504
  0.5002168915925874  0.5065935101518370  0.9938462463994652
  0.4922046082321996  0.4973082742122477  0.4938249365325606
  0.9929814083286289  0.0001474289765041  0.2441463829518246
  0.9997938431525272  0.9907908875525573  0.7441856849947662
  0.0015734581270188  0.5002943295016664  0.2427535769463583
  0.0079485820723884  0.5020403734811221  0.7429139707144743
  0.4935473704440073  0.9997440728947808  0.2436117825760952
  0.5004277392430048  0.9936913226107693  0.7437849175777741
  0.4915816034195032  0.4986407040185432  0.2564041342630363
  0.4981974697071439  0.4938292491541319  0.7555937816602174
  0.0012766813072509  0.2568706361803742  0.9936111179054679
  0.9917327015674324  0.2573372437425235  0.5020453385402340
  0.0073579131155094  0.7482101282317181  0.9933124042685706
  0.0073845365356651  0.7486283745078313  0.4938043613976848
  0.4925861249310028  0.2436422382955005  0.0021691478682648
  0.5012937999623918  0.2427321439807577  0.4924489962412769
  0.4981053595174799  0.7441449975128225  0.0054727644096328
  0.5070500132717456  0.7516310079010605  0.5047467099296434
  0.9917045066265371  0.2487086773184781  0.2497552224346211
  0.9978372194782539  0.2477065716275712  0.7584744812898842
  0.0070729928769433  0.7507228150475891  0.2564511996347049
  0.9928360863190093  0.7559782797172229  0.7557930137701859
  0.4917558546448193  0.2510480962151634  0.2575913937443657
  0.5078786105572806  0.2563661412063249  0.7480304888032892
  0.5071334185658813  0.7503044716225886  0.2434537082245065
  0.5023404513125922  0.7559261822315810  0.7431663834029898
  0.2415164163257650  0.9931096410180947  0.9995900266717168
  0.2422330145914842  0.0061829992359902  0.4990770655232062
  0.2492505939372025  0.4931748764207997  0.0088507290728634
  0.2575933825545196  0.5068769911375179  0.4978579307108964
  0.7515845036552284  0.9940627426936173  0.9936492570223607
  0.7519399005182044  0.9937919651322633  0.4940918502641060
  0.7498016044409845  0.4934330142496801  0.9934896180367548
  0.7474975289304806  0.4942596693091809  0.4944097449666797
  0.2563732261930632  0.0061345961022237  0.2504564599964736
  0.2500455086588306  0.9917385361803225  0.7510929660735152
  0.2575319901891435  0.5053954413172600  0.2443790081683939
  0.2429257042103446  0.4919573409154247  0.7532621799635932
  0.7558059678082732  0.0025107648877278  0.2568310992445336
  0.7496741276686546  0.9939687278251778  0.7566782895479244
  0.7467060752021152  0.4938542513558394  0.2563014111104818
  0.7517562384527502  0.4928736953110907  0.7556750889014836
  0.2575813936373284  0.2562019307619436  0.9983527107680067
  0.2481692228695558  0.2443302724105300  0.5075541170482598
  0.2420767438328059  0.7554582862501122  0.9979799466806056
  0.2450205846440276  0.7449659958499122  0.5047719894883460
  0.7485891645044463  0.2559562939457233  0.9914138900771864
  0.7571220160050197  0.2558776187884212  0.5019567432627629
  0.7516396177192399  0.7563389556666068  0.0072344080636688
  0.7445629310814439  0.7561268708054830  0.4980565336986513
  0.2543511553580504  0.2441712588618028  0.2519882448742573
  0.2530283712512815  0.2549683045228201  0.7433521705480555
  0.2447682894431004  0.7432533436679432  0.2511670147620210
  0.2490393121879730  0.7522613627860840  0.7406913778441612
  0.7525465374847111  0.2577226595679978  0.2475327738049430
  0.7421405836845476  0.2551375819121433  0.7563192857029241
  0.7440454221193218  0.7483453132927876  0.2425342997053335
  0.7580793092687966  0.7554448144148738  0.7515036841956061
  0.0033160630684298  0.0027658776055805  0.1250867302891703
  0.0012495819718104  0.0034286797779967  0.6253380725609071
  0.0043661216601819  0.4973623643593144  0.1264970959435100
  0.0013308522661852  0.4992253981838245  0.6246760592207840
  0.4987837426360988  0.9958006999558446  0.1250755522733294
  0.4960706662179782  0.9999282025527653  0.6243838228848593
  0.5054574284681508  0.4942898361054506  0.3748769101131690
  0.5009223971427137  0.4983750648179275  0.8751506940102902
  0.5004107887718089  0.7556726925425399  0.1247577854526334
  0.5001347818825013  0.7519290826845854  0.6243123611465905
  0.9958613265762590  0.2497429851723655  0.8741524291805171
  0.9980842582299355  0.7499504194388702  0.3741819163068332
  0.0024921134260838  0.7481561304655844  0.8765096518998622
  0.5019854480149059  0.2570497216265683  0.3746268978050475
  0.2425828284665352  0.4992695138250478  0.1244188813702598
  0.7490817896042264  0.0021922743077576  0.3749119562152481
  0.7502187757983518  0.0046286084119130  0.8749595904176404
  0.7454304305688968  0.4993975296914115  0.3741670350893206
  0.7484993324239811  0.5004840286144359  0.8757057957587917
  0.2507619664593282  0.2495046861586933  0.6257579391241753
  0.2540369355178904  0.7507912650565974  0.6263537576386476
  0.7481844634483457  0.7493397642410254  0.1248976772038533
  0.7555082153123787  0.2468719727901223  0.8756296391974906
  0.1241902385498681  0.0001972658435423  0.9942770646146466
  0.1255766091865865  0.9975785967791431  0.5009259263277291
  0.1247621967481085  0.4970279898787930  0.7556509045419660
  0.1253880062581864  0.7488745927072646  0.0055807226643029
  0.1247225124622312  0.7531233206235072  0.4998434198447788
  0.6256421643690754  0.7507321764214218  0.4952652090145387
  0.1250438431790093  0.7497330037378546  0.2471286293996312
  0.6238354808188129  0.2484080584787937  0.7487471865330664
  0.6258083371735275  0.7472722165506469  0.2539701946109259
  0.3750507726669769  0.4935728208361042  0.4983689512953024
  0.3748137811107555  0.0030590118272063  0.2510611797261015
  0.3756605595536011  0.4928804631891321  0.2506677170128550
  0.8757207996611018  0.0062731181853620  0.2493945229305286
  0.3743553430012419  0.2529216181809445  0.0021998492817621
  0.8755522727348637  0.2465044754711829  0.4983810045587145
  0.3740958900720023  0.2516636319207113  0.2489660540829687
  0.8771344441221991  0.2468465642333461  0.2505516278924088
  0.8745718961260613  0.7506516232585480  0.7498643081931212
  0.5003050082268465  0.1255015811625837  0.0013079079101149
  0.4959782592940832  0.1258838479178676  0.4964294028665658
  0.4991259499714904  0.6248680006196035  0.0022260400449573
  0.0023971553647396  0.3747628427784449  0.0003346364640891
  0.9994007990812169  0.3746042012703996  0.4979406477052004
  0.0051664305293565  0.8760785753288017  0.7502173571164108
  0.4963127299696564  0.3751048987458356  0.7459193937108481
  0.5014054514918757  0.8760751249163615  0.7526051301295986
  0.2523325437167803  0.1251875455561134  0.4961208446804496
  0.2515440679459577  0.6241393093113905  0.4960531699124924
  0.2454080396194567  0.1255932003334920  0.2540073480474732
  0.2520546638495650  0.6253331557113037  0.2545576325593674
  0.2428297463570591  0.3742287755223465  0.9948358304600881
  0.2506106874398888  0.8755436202490905  0.9957470127743744
  0.7534794281496238  0.3747782910429740  0.0042461536302662
  0.7496013442894610  0.3744566587848415  0.5011977834032818
  0.7544596159816700  0.8749836264187867  0.9983388840302095
  0.7542183981253832  0.8754257585726760  0.5007992181820206
  0.2530502434813297  0.3734085543655101  0.7557956863455791
  0.2477017874226614  0.8775193490764840  0.7540575945914686
  0.7498104378452083  0.3740645451501076  0.2473775125536265
  0.7525535942761427  0.3754884058659180  0.7464043759325969
  0.7469635880653352  0.8754384971133093  0.7503339084537552
  0.4995116214446942  0.4988788295557697  0.1253606305747697
  0.4990932133930168  0.5048304930534349  0.6246126651167311
  0.0004586509680731  0.9994232186698725  0.3752979488669657
  0.9961348173102185  0.0045546964205696  0.8747350460499322
  0.9983660099390347  0.5013211518908306  0.3728166996888323
  0.9946604080443803  0.5001136043169405  0.8758010371746988
  0.5032038759099328  0.0020682000864355  0.3744722635504646
  0.4995353288935909  0.0030253284119476  0.8746585745646073
  0.0033295529882471  0.2485624237177919  0.1253427184796544
  0.0037870480016303  0.2483254522372329  0.6274716894077931
  0.9950436954887032  0.7498795239336428  0.1249258533162544
  0.0010557165988825  0.7467954094672408  0.6250360979312418
  0.5045263705641874  0.2494617679880829  0.1271534787044216
  0.4931160986309437  0.2460374927061982  0.6232947180358070
  0.0045598750037030  0.2484562068806770  0.3744380346764342
  0.4997939074866083  0.2528627666159645  0.8757925178535576
  0.4955445957035851  0.7455692379828179  0.3741101448629705
  0.5008742035560558  0.7478899732974157  0.8746324916185322
  0.2475889679137919  0.0012585424911931  0.1246268568553112
  0.2536146803136007  0.0016789187109826  0.6265177923190632
  0.2465869132791165  0.4986025057939757  0.6257001442248500
  0.7480215400071640  0.9999619470027979  0.1252815148666312
  0.7513852288858107  0.0029248218115716  0.6249074393274578
  0.7545558790543599  0.5047435281504591  0.1262014873760803
  0.7549458179545123  0.5045089472328871  0.6240707133555322
  0.2491097160281815  0.9905872948728556  0.3748793295525860
  0.2542163120309331  0.0102055826337635  0.8743993591373559
  0.2447659768170269  0.4917983339137996  0.3738152791722086
  0.2567515507483906  0.5063616517068039  0.8768625985474958
  0.2427600942768373  0.2501933792070095  0.1249615157330677
  0.2587159400058067  0.7491284005831984  0.1239055080224498
  0.7492334899299254  0.2453547098826301  0.1243136952305251
  0.7522657492872020  0.2455815802640228  0.6255003285180791
  0.7463679565611572  0.7457206476100356  0.6251347936423004
  0.2464992803624662  0.2564444578628275  0.3767538084091863
  0.2458453759211969  0.2398277695733474  0.8739055132683979
  0.2534294304863358  0.7605322411427173  0.3752386374201820
  0.2470227221992762  0.7447533567980442  0.8731932933460963
  0.7457286915197141  0.2457578902537921  0.3743457274398984
  0.7590293012008492  0.7482780090357074  0.3732246802020984
  0.7494579143262251  0.7435812135410154  0.8765031685059094
  0.1237227086543209  0.5079289709158353  0.9895851609355354
  0.1252724177748270  0.5003324017294577  0.4970814858345242
  0.6246013771349614  0.9978276696386105  0.9992221947648223
  0.6243415827989794  0.9994933074771202  0.5028240350457254
  0.6253581196762202  0.4990746217433743  0.0072587913453911
  0.6239712430751212  0.5033971398108108  0.5073817311804568
  0.1249300281548946  0.9954074237168887  0.2530891645565711
  0.1262311601614064  0.0072454751095417  0.7545768879775243
  0.1230343857494173  0.4999107094227166  0.2562195288993370
  0.6250627335544597  0.9986248413623342  0.2488437167427397
  0.6246302911908562  0.0087851413076878  0.7481573444742611
  0.6242209889527843  0.5059851983984153  0.2422189088544058
  0.6248965859127451  0.5025336491269567  0.7446168449302076
  0.1240562562580292  0.2432755912326313  0.9992035184936222
  0.1229874662255800  0.2481059846431865  0.5005229862391886
  0.6238798463312640  0.2518109450032005  0.9991279708201833
  0.6259092691051169  0.2477814187912625  0.5047721161329767
  0.6248771926817224  0.7520654991290137  0.9949549391182467
  0.1218932411075382  0.2545855753733945  0.2501319902308559
  0.1232645134238236  0.2501361255395707  0.7510558469928761
  0.1250761986411665  0.7453992146897069  0.7480374326086342
  0.6257160864933425  0.2484989867192555  0.2484106465575985
  0.6262758900013039  0.7457264764829912  0.7525618888879351
  0.3724702583320116  0.0020562367188320  0.9986097421118338
  0.3732999286608794  0.9968231468636117  0.4960124772895695
  0.3748240257586350  0.4949001129538757  0.0034934256162084
  0.8766109513666984  0.0053468365694766  0.0008520966371471
  0.8770992687618684  0.0084137396021243  0.4992213687814569
  0.8765742991513623  0.5038999665735583  0.0022919664847199
  0.8752052608956330  0.5033416864892719  0.4967644655323006
  0.3735587701154227  0.0037536312508912  0.7529154204494080
  0.3728164145542272  0.5049666544151489  0.7467298128176131
  0.8756177342852907  0.0032202114908233  0.7495088822009776
  0.8764841604180347  0.4977875884777197  0.2505527822325335
  0.8778604793969070  0.5027021350284007  0.7515715915248502
  0.3743620312010170  0.2589554655303696  0.4971011805668814
  0.3735099372373404  0.7499106151900140  0.9948031212991586
  0.3763370578220188  0.7521163731443777  0.4972701467308107
  0.8768923748560475  0.2468310548804838  0.0082509980034543
  0.8762530589484896  0.7447899972998075  0.9994915217655319
  0.8753446211381358  0.7453492127163382  0.5052570689248492
  0.3756133723945757  0.2435193913487941  0.7552652514281785
  0.3760377693624330  0.7533534437154762  0.2507348215189639
  0.3748278229788700  0.7488434707773777  0.7564575813893198
  0.8767477608737362  0.2471016622008205  0.7426211833752051
  0.8752830672054517  0.7502169781236699  0.2473716228307312
  0.9980761098603566  0.1278642773085570  0.0008378999187961
  0.0044352215913240  0.1273236349880750  0.4963671603123818
  0.9983772344032534  0.6220251901532301  0.0028532111974626
  0.0008721816435345  0.6223902315479179  0.4976669289956757
  0.4978445298162484  0.6241296064838225  0.4979447597475465
  0.0102302601579528  0.1260867092973063  0.2536985154538812
  0.0016297096775583  0.1251450347146304  0.7505084011053492
  0.9960263976303865  0.6235488314475143  0.2484649792372692
  0.0019025422655527  0.6254486095313088  0.7503534096656258
  0.5059419017112179  0.1259512494038353  0.2503422901595559
  0.4964308317873455  0.1254440108028892  0.7522299186102420
  0.4961931049790070  0.6242411166310464  0.2483432265674862
  0.4989230703668131  0.6254294800627113  0.7499015600311898
  0.9928852484140652  0.8756258472068499  0.9999534894062022
  0.9910957775842100  0.8758532761419454  0.5010454971246378
  0.5033104060061340  0.3746030068944310  0.0037070904832377
  0.5073653121814629  0.3730687991271142  0.5096858204266742
  0.4976066515534706  0.8757703285728442  0.9927933115799309
  0.4994201062362287  0.8772136640314360  0.4919469990632040
  0.9992475542712749  0.3745248084293808  0.2537370776608177
  0.9964021697839939  0.3732459135936190  0.7497486106078712
  0.9966433585345484  0.8756221424641689  0.2486659166622069
  0.5107109787282798  0.3744793985006196  0.2413454815528747
  0.5014469417229496  0.8753152260111065  0.2598509189607886
  0.2500473203736500  0.1249230876839202  0.0041803007240727
  0.2540041420146850  0.6246276643842960  0.9997442390772071
  0.7482909363935248  0.1254026872759164  0.0059892189575749
  0.7455852075717571  0.1256537613746458  0.5009873034170351
  0.7484332755989249  0.6246066114552170  0.0013180142141624
  0.7509469790671132  0.6245749354432156  0.4991157597939512
  0.2478219890970657  0.1238311267857354  0.7480687708216474
  0.2502332836878159  0.6237482429215970  0.7495993038980817
  0.7451519851365134  0.1273690680161361  0.2476742569614168
  0.7541962350352936  0.1250836584822711  0.7453007517546000
  0.7562329379012486  0.6230331994658014  0.2506450805738030
  0.7494383205881975  0.6247543353351366  0.7483498593872829
  0.2432475757635187  0.3744733414261178  0.5016203422785622
  0.2542954745477313  0.8772274506102676  0.5042025123655492
  0.2435393296609182  0.3738084140489457  0.2488630763771480
  0.2506986323110986  0.8760402189926884  0.2439882521904178
  0.7519012988504976  0.8753222853265450  0.2507831170244210
 
  0.00000000E+00  0.00000000E+00  0.00000000E+00
  0.00000000E+00  0.00000000E+00  0.00000000E+00
  0.00000000E+00  0.00000000E+00  0.00000000E+00
  0.00000000E+00  0.00000000E+00  0.00000000E+00
  0.00000000E+00  0.00000000E+00  0.00000000E+00
  0.00000000E+00  0.00000000E+00  0.00000000E+00
  0.00000000E+00  0.00000000E+00  0.00000000E+00
  0.00000000E+00  0.00000000E+00  0.00000000E+00
  0.00000000E+00  0.00000000E+00  0.00000000E+00
  0.00000000E+00  0.00000000E+00  0.00000000E+00
  0.00000000E+00  0.00000000E+00  0.00000000E+00
  0.00000000E+00  0.00000000E+00  0.00000000E+00
  0.00000000E+00  0.00000000E+00  0.00000000E+00
  0.00000000E+00  0.00000000E+00  0.00000000E+00
  0.00000000E+00  0.00000000E+00  0.00000000E+00
  0.00000000E+00  0.00000000E+00  0.00000000E+00
  0.00000000E+00  0.00000000E+00  0.00000000E+00
  0.00000000E+00  0.00000000E+00  0.00000000E+00
  0.00000000E+00  0.00000000E+00  0.00000000E+00
  0.00000000E+00  0.00000000E+00  0.00000000E+00
  0.00000000E+00  0.00000000E+00  0.00000000E+00
  0.00000000E+00  0.00000000E+00  0.00000000E+00
  0.00000000E+00  0.00000000E+00  0.00000000E+00
  0.00000000E+00  0.00000000E+00  0.00000000E+00
  0.00000000E+00  0.00000000E+00  0.00000000E+00
  0.00000000E+00  0.00000000E+00  0.00000000E+00
  0.00000000E+00  0.00000000E+00  0.00000000E+00
  0.00000000E+00  0.00000000E+00  0.00000000E+00
  0.00000000E+00  0.00000000E+00  0.00000000E+00
  0.00000000E+00  0.00000000E+00  0.00000000E+00
  0.00000000E+00  0.00000000E+00  0.00000000E+00
  0.00000000E+00  0.00000000E+00  0.00000000E+00
  0.00000000E+00  0.00000000E+00  0.00000000E+00
  0.00000000E+00  0.00000000E+00  0.00000000E+00
  0.00000000E+00  0.00000000E+00  0.00000000E+00
  0.00000000E+00  0.00000000E+00  0.00000000E+00
  0.00000000E+00  0.00000000E+00  0.00000000E+00
  0.00000000E+00  0.00000000E+00  0.00000000E+00
  0.00000000E+00  0.00000000E+00  0.00000000E+00
  0.00000000E+00  0.00000000E+00  0.00000000E+00
  0.00000000E+00  0.00000000E+00  0.00000000E+00
  0.00000000E+00  0.00000000E+00  0.00000000E+00
  0.00000000E+00  0.00000000E+00  0.00000000E+00
  0.00000000E+00  0.00000000E+00  0.00000000E+00
  0.00000000E+00  0.00000000E+00  0.00000000E+00
  0.00000000E+00  0.00000000E+00  0.00000000E+00
  0.00000000E+00  0.00000000E+00  0.00000000E+00
  0.00000000E+00  0.00000000E+00  0.00000000E+00
  0.00000000E+00  0.00000000E+00  0.00000000E+00
  0.00000000E+00  0.00000000E+00  0.00000000E+00
  0.00000000E+00  0.00000000E+00  0.00000000E+00
  0.00000000E+00  0.00000000E+00  0.00000000E+00
  0.00000000E+00  0.00000000E+00  0.00000000E+00
  0.00000000E+00  0.00000000E+00  0.00000000E+00
  0.00000000E+00  0.00000000E+00  0.00000000E+00
  0.00000000E+00  0.00000000E+00  0.00000000E+00
  0.00000000E+00  0.00000000E+00  0.00000000E+00
  0.00000000E+00  0.00000000E+00  0.00000000E+00
  0.00000000E+00  0.00000000E+00  0.00000000E+00
  0.00000000E+00  0.00000000E+00  0.00000000E+00
  0.00000000E+00  0.00000000E+00  0.00000000E+00
  0.00000000E+00  0.00000000E+00  0.00000000E+00
  0.00000000E+00  0.00000000E+00  0.00000000E+00
  0.00000000E+00  0.00000000E+00  0.00000000E+00
  0.00000000E+00  0.00000000E+00  0.00000000E+00
  0.00000000E+00  0.00000000E+00  0.00000000E+00
  0.00000000E+00  0.00000000E+00  0.00000000E+00
  0.00000000E+00  0.00000000E+00  0.00000000E+00
  0.00000000E+00  0.00000000E+00  0.00000000E+00
  0.00000000E+00  0.00000000E+00  0.00000000E+00
  0.00000000E+00  0.00000000E+00  0.00000000E+00
  0.00000000E+00  0.00000000E+00  0.00000000E+00
  0.00000000E+00  0.00000000E+00  0.00000000E+00
  0.00000000E+00  0.00000000E+00  0.00000000E+00
  0.00000000E+00  0.00000000E+00  0.00000000E+00
  0.00000000E+00  0.00000000E+00  0.00000000E+00
  0.00000000E+00  0.00000000E+00  0.00000000E+00
  0.00000000E+00  0.00000000E+00  0.00000000E+00
  0.00000000E+00  0.00000000E+00  0.00000000E+00
  0.00000000E+00  0.00000000E+00  0.00000000E+00
  0.00000000E+00  0.00000000E+00  0.00000000E+00
  0.00000000E+00  0.00000000E+00  0.00000000E+00
  0.00000000E+00  0.00000000E+00  0.00000000E+00
  0.00000000E+00  0.00000000E+00  0.00000000E+00
  0.00000000E+00  0.00000000E+00  0.00000000E+00
  0.00000000E+00  0.00000000E+00  0.00000000E+00
  0.00000000E+00  0.00000000E+00  0.00000000E+00
  0.00000000E+00  0.00000000E+00  0.00000000E+00
  0.00000000E+00  0.00000000E+00  0.00000000E+00
  0.00000000E+00  0.00000000E+00  0.00000000E+00
  0.00000000E+00  0.00000000E+00  0.00000000E+00
  0.00000000E+00  0.00000000E+00  0.00000000E+00
  0.00000000E+00  0.00000000E+00  0.00000000E+00
  0.00000000E+00  0.00000000E+00  0.00000000E+00
  0.00000000E+00  0.00000000E+00  0.00000000E+00
  0.00000000E+00  0.00000000E+00  0.00000000E+00
  0.00000000E+00  0.00000000E+00  0.00000000E+00
  0.00000000E+00  0.00000000E+00  0.00000000E+00
  0.00000000E+00  0.00000000E+00  0.00000000E+00
  0.00000000E+00  0.00000000E+00  0.00000000E+00
  0.00000000E+00  0.00000000E+00  0.00000000E+00
  0.00000000E+00  0.00000000E+00  0.00000000E+00
  0.00000000E+00  0.00000000E+00  0.00000000E+00
  0.00000000E+00  0.00000000E+00  0.00000000E+00
  0.00000000E+00  0.00000000E+00  0.00000000E+00
  0.00000000E+00  0.00000000E+00  0.00000000E+00
  0.00000000E+00  0.00000000E+00  0.00000000E+00
  0.00000000E+00  0.00000000E+00  0.00000000E+00
  0.00000000E+00  0.00000000E+00  0.00000000E+00
  0.00000000E+00  0.00000000E+00  0.00000000E+00
  0.00000000E+00  0.00000000E+00  0.00000000E+00
  0.00000000E+00  0.00000000E+00  0.00000000E+00
  0.00000000E+00  0.00000000E+00  0.00000000E+00
  0.00000000E+00  0.00000000E+00  0.00000000E+00
  0.00000000E+00  0.00000000E+00  0.00000000E+00
  0.00000000E+00  0.00000000E+00  0.00000000E+00
  0.00000000E+00  0.00000000E+00  0.00000000E+00
  0.00000000E+00  0.00000000E+00  0.00000000E+00
  0.00000000E+00  0.00000000E+00  0.00000000E+00
  0.00000000E+00  0.00000000E+00  0.00000000E+00
  0.00000000E+00  0.00000000E+00  0.00000000E+00
  0.00000000E+00  0.00000000E+00  0.00000000E+00
  0.00000000E+00  0.00000000E+00  0.00000000E+00
  0.00000000E+00  0.00000000E+00  0.00000000E+00
  0.00000000E+00  0.00000000E+00  0.00000000E+00
  0.00000000E+00  0.00000000E+00  0.00000000E+00
  0.00000000E+00  0.00000000E+00  0.00000000E+00
  0.00000000E+00  0.00000000E+00  0.00000000E+00
  0.00000000E+00  0.00000000E+00  0.00000000E+00
  0.00000000E+00  0.00000000E+00  0.00000000E+00
  0.00000000E+00  0.00000000E+00  0.00000000E+00
  0.00000000E+00  0.00000000E+00  0.00000000E+00
  0.00000000E+00  0.00000000E+00  0.00000000E+00
  0.00000000E+00  0.00000000E+00  0.00000000E+00
  0.00000000E+00  0.00000000E+00  0.00000000E+00
  0.00000000E+00  0.00000000E+00  0.00000000E+00
  0.00000000E+00  0.00000000E+00  0.00000000E+00
  0.00000000E+00  0.00000000E+00  0.00000000E+00
  0.00000000E+00  0.00000000E+00  0.00000000E+00
  0.00000000E+00  0.00000000E+00  0.00000000E+00
  0.00000000E+00  0.00000000E+00  0.00000000E+00
  0.00000000E+00  0.00000000E+00  0.00000000E+00
  0.00000000E+00  0.00000000E+00  0.00000000E+00
  0.00000000E+00  0.00000000E+00  0.00000000E+00
  0.00000000E+00  0.00000000E+00  0.00000000E+00
  0.00000000E+00  0.00000000E+00  0.00000000E+00
  0.00000000E+00  0.00000000E+00  0.00000000E+00
  0.00000000E+00  0.00000000E+00  0.00000000E+00
  0.00000000E+00  0.00000000E+00  0.00000000E+00
  0.00000000E+00  0.00000000E+00  0.00000000E+00
  0.00000000E+00  0.00000000E+00  0.00000000E+00
  0.00000000E+00  0.00000000E+00  0.00000000E+00
  0.00000000E+00  0.00000000E+00  0.00000000E+00
  0.00000000E+00  0.00000000E+00  0.00000000E+00
  0.00000000E+00  0.00000000E+00  0.00000000E+00
  0.00000000E+00  0.00000000E+00  0.00000000E+00
  0.00000000E+00  0.00000000E+00  0.00000000E+00
  0.00000000E+00  0.00000000E+00  0.00000000E+00
  0.00000000E+00  0.00000000E+00  0.00000000E+00
  0.00000000E+00  0.00000000E+00  0.00000000E+00
  0.00000000E+00  0.00000000E+00  0.00000000E+00
  0.00000000E+00  0.00000000E+00  0.00000000E+00
  0.00000000E+00  0.00000000E+00  0.00000000E+00
  0.00000000E+00  0.00000000E+00  0.00000000E+00
  0.00000000E+00  0.00000000E+00  0.00000000E+00
  0.00000000E+00  0.00000000E+00  0.00000000E+00
  0.00000000E+00  0.00000000E+00  0.00000000E+00
  0.00000000E+00  0.00000000E+00  0.00000000E+00
  0.00000000E+00  0.00000000E+00  0.00000000E+00
  0.00000000E+00  0.00000000E+00  0.00000000E+00
  0.00000000E+00  0.00000000E+00  0.00000000E+00
  0.00000000E+00  0.00000000E+00  0.00000000E+00
  0.00000000E+00  0.00000000E+00  0.00000000E+00
  0.00000000E+00  0.00000000E+00  0.00000000E+00
  0.00000000E+00  0.00000000E+00  0.00000000E+00
  0.00000000E+00  0.00000000E+00  0.00000000E+00
  0.00000000E+00  0.00000000E+00  0.00000000E+00
  0.00000000E+00  0.00000000E+00  0.00000000E+00
  0.00000000E+00  0.00000000E+00  0.00000000E+00
  0.00000000E+00  0.00000000E+00  0.00000000E+00
  0.00000000E+00  0.00000000E+00  0.00000000E+00
  0.00000000E+00  0.00000000E+00  0.00000000E+00
  0.00000000E+00  0.00000000E+00  0.00000000E+00
  0.00000000E+00  0.00000000E+00  0.00000000E+00
  0.00000000E+00  0.00000000E+00  0.00000000E+00
  0.00000000E+00  0.00000000E+00  0.00000000E+00
  0.00000000E+00  0.00000000E+00  0.00000000E+00
  0.00000000E+00  0.00000000E+00  0.00000000E+00
  0.00000000E+00  0.00000000E+00  0.00000000E+00
  0.00000000E+00  0.00000000E+00  0.00000000E+00
  0.00000000E+00  0.00000000E+00  0.00000000E+00
  0.00000000E+00  0.00000000E+00  0.00000000E+00
  0.00000000E+00  0.00000000E+00  0.00000000E+00
  0.00000000E+00  0.00000000E+00  0.00000000E+00
  0.00000000E+00  0.00000000E+00  0.00000000E+00
  0.00000000E+00  0.00000000E+00  0.00000000E+00
  0.00000000E+00  0.00000000E+00  0.00000000E+00
  0.00000000E+00  0.00000000E+00  0.00000000E+00
  0.00000000E+00  0.00000000E+00  0.00000000E+00
  0.00000000E+00  0.00000000E+00  0.00000000E+00
  0.00000000E+00  0.00000000E+00  0.00000000E+00
  0.00000000E+00  0.00000000E+00  0.00000000E+00
  0.00000000E+00  0.00000000E+00  0.00000000E+00
  0.00000000E+00  0.00000000E+00  0.00000000E+00
  0.00000000E+00  0.00000000E+00  0.00000000E+00
  0.00000000E+00  0.00000000E+00  0.00000000E+00
  0.00000000E+00  0.00000000E+00  0.00000000E+00
  0.00000000E+00  0.00000000E+00  0.00000000E+00
  0.00000000E+00  0.00000000E+00  0.00000000E+00
  0.00000000E+00  0.00000000E+00  0.00000000E+00
  0.00000000E+00  0.00000000E+00  0.00000000E+00
  0.00000000E+00  0.00000000E+00  0.00000000E+00
  0.00000000E+00  0.00000000E+00  0.00000000E+00
  0.00000000E+00  0.00000000E+00  0.00000000E+00
  0.00000000E+00  0.00000000E+00  0.00000000E+00
  0.00000000E+00  0.00000000E+00  0.00000000E+00
  0.00000000E+00  0.00000000E+00  0.00000000E+00
  0.00000000E+00  0.00000000E+00  0.00000000E+00
  0.00000000E+00  0.00000000E+00  0.00000000E+00
  0.00000000E+00  0.00000000E+00  0.00000000E+00
  0.00000000E+00  0.00000000E+00  0.00000000E+00
  0.00000000E+00  0.00000000E+00  0.00000000E+00
  0.00000000E+00  0.00000000E+00  0.00000000E+00
  0.00000000E+00  0.00000000E+00  0.00000000E+00
  0.00000000E+00  0.00000000E+00  0.00000000E+00
  0.00000000E+00  0.00000000E+00  0.00000000E+00
  0.00000000E+00  0.00000000E+00  0.00000000E+00
  0.00000000E+00  0.00000000E+00  0.00000000E+00
  0.00000000E+00  0.00000000E+00  0.00000000E+00
  0.00000000E+00  0.00000000E+00  0.00000000E+00
  0.00000000E+00  0.00000000E+00  0.00000000E+00
  0.00000000E+00  0.00000000E+00  0.00000000E+00
  0.00000000E+00  0.00000000E+00  0.00000000E+00
  0.00000000E+00  0.00000000E+00  0.00000000E+00
  0.00000000E+00  0.00000000E+00  0.00000000E+00
  0.00000000E+00  0.00000000E+00  0.00000000E+00
  0.00000000E+00  0.00000000E+00  0.00000000E+00
  0.00000000E+00  0.00000000E+00  0.00000000E+00
  0.00000000E+00  0.00000000E+00  0.00000000E+00
  0.00000000E+00  0.00000000E+00  0.00000000E+00
  0.00000000E+00  0.00000000E+00  0.00000000E+00
  0.00000000E+00  0.00000000E+00  0.00000000E+00
  0.00000000E+00  0.00000000E+00  0.00000000E+00
  0.00000000E+00  0.00000000E+00  0.00000000E+00
  0.00000000E+00  0.00000000E+00  0.00000000E+00
  0.00000000E+00  0.00000000E+00  0.00000000E+00
  0.00000000E+00  0.00000000E+00  0.00000000E+00
  0.00000000E+00  0.00000000E+00  0.00000000E+00
  0.00000000E+00  0.00000000E+00  0.00000000E+00
  0.00000000E+00  0.00000000E+00  0.00000000E+00
  0.00000000E+00  0.00000000E+00  0.00000000E+00
  0.00000000E+00  0.00000000E+00  0.00000000E+00
  0.00000000E+00  0.00000000E+00  0.00000000E+00
  0.00000000E+00  0.00000000E+00  0.00000000E+00
  0.00000000E+00  0.00000000E+00  0.00000000E+00
  0.00000000E+00  0.00000000E+00  0.00000000E+00
