config 40                               
   1.00000000000000     
    15.4263309999999993    0.0000000000000000    0.0000000000000000
     0.0000000000000000   15.4263309999999993    0.0000000000000000
     0.0000000000000000    0.0000000000000000   15.4263309999999993
   Li   Ti   O    F 
     1    64    64   128
Direct
  0.5918533189506968  0.3743932301060773  0.8489259714091775
  0.9954165183461355  0.9949480009598890  0.9941367446417662
  0.9979289442710912  0.9916365759782907  0.4935208891837081
  0.0073315494943701  0.4961229594799819  0.9971957778589823
  0.9949980576856895  0.5038905242051378  0.5074979317260460
  0.4947316798889408  0.9929020283743896  0.9997829037614201
  0.5015463179498150  0.0082980453691752  0.4976935338991125
  0.5057625164501159  0.4945891548068269  0.9969026831552490
  0.4927800698482118  0.4985124786288413  0.4946600457340355
  0.0064665649281333  0.0032031321294286  0.2556989683179985
  0.0024661643765516  0.0078846141550307  0.7565568690440481
  0.9942619138137315  0.4929484626372626  0.2512724903528442
  0.9935143167294749  0.5009788155447107  0.7414236410928186
  0.5051516745324367  0.0087136366850147  0.2501739918211026
  0.4944317700747966  0.0064093760966987  0.7525461198275278
  0.4929851134434164  0.4953214726071500  0.2569982786825970
  0.5012106134061778  0.5073296795896772  0.7571410662727522
  0.9960829708768295  0.2582101981535921  0.0026269354490008
  0.9975593015334985  0.2483261899237909  0.4913735296590416
  0.9985105562282662  0.7580802299460245  0.0063867224729793
  0.9965540897518629  0.7570811777088979  0.5061181747137741
  0.4948616743180769  0.2577611668560659  0.0035546421176656
  0.5101317253852892  0.2451419610346335  0.4963556828503068
  0.5077589443038241  0.7559010037332144 -0.0001039101740069
  0.5074271649821843  0.7524198990007039  0.5084870526021623
  0.9990442285863963  0.2581689498575483  0.2556611476667076
  0.0060736100960212  0.2438458334450766  0.7483728043793464
  0.0064655714004869  0.7478358101131631  0.2433535969102801
  0.9921968503876827  0.7501208459688045  0.7432107359307835
  0.5076371251320065  0.2407120404012984  0.2527712710207228
  0.5037006920404163  0.2431170898429416  0.7497606489727493
  0.5061869104796255  0.7508136670575900  0.2515172209968208
  0.5028964710611675  0.7433690362970069  0.7437856155831113
  0.2565970354816873  0.9976211978176857  0.0056132983894266
  0.2510243822708882  0.9931573260805192  0.5064540953407191
  0.2448787046078109  0.5083033450947303  0.9975193659294833
  0.2557335366270279  0.4938452839435628  0.5067792891770545
  0.7565085996910150  0.0003060390641425  0.9935087174364566
  0.7489290924866274  0.0086805093472469  0.4947952943135148
  0.7436703872013338  0.5007533798377531  0.0062970234034640
  0.7562685947514644  0.4987838777866934  0.5062631124598183
  0.2445729821383802  0.0020430286651218  0.2434203091047765
  0.2588035392152807  0.9987819404770146  0.7445658816411779
  0.2554376135707307  0.4912613719828650  0.2517291481730020
  0.2453466064744748  0.5059437343819038  0.7413618438001611
  0.7438880659850958  0.0015379018468077  0.2555887711687800
  0.7455412282871386  0.0095734301950510  0.7555409022672652
  0.7559702169298581  0.4976032682309958  0.2433044364386841
  0.7603757524435566  0.5007032894537683  0.7423729308728434
  0.2566788069929218  0.2517618992641247  0.0067711919708946
  0.2534271229865826  0.2563862267560906  0.5057034741571310
  0.2525185165970227  0.7420760913383401  0.9939253156619043
  0.2526009776161598  0.7550477244549539  0.4929938832947885
  0.7581527088827489  0.2519248235938237  0.0093734375131916
  0.7411356572298955  0.2435465537069619  0.4975124147985092
  0.7417024794928877  0.7486761571745461  0.9941527515273821
  0.7416142788944399  0.7531597727697594  0.4941703674292030
  0.2505634359910637  0.2572355646310370  0.2437906962188978
  0.2413683872925135  0.2524542062102319  0.7440503287073229
  0.2436382147047640  0.7469799614604020  0.2560696630670112
  0.2464925686968605  0.7414529397975661  0.7565604110251295
  0.7407299077235426  0.2512178080402794  0.2434093533937310
  0.7414289932965191  0.2453259984767213  0.7536899992384789
  0.7452441144655680  0.7492330309671684  0.2570137787399112
  0.7582419684532322  0.7506063541813361  0.7568034548769268
  0.0121867561115555  0.5037002012110424  0.6246161270096510
  0.9971157028867894  0.0049038243328836  0.3759779459211292
  0.0023378482716983  0.0006593091930989  0.8728340099186647
  0.4971160444999865  0.4867292033403911  0.3751952711007957
  0.5011714107826097  0.4815656720374182  0.8737782087722120
  0.9994217085443124  0.7442674532089844  0.1258615228162121
  0.0030303039418555  0.7450896414765261  0.6242569608074582
  0.5045240531549227  0.7423160795892687  0.6248735465177401
  0.9852673577578761  0.2481672968662198  0.3764885547257531
  0.2568872404363869  0.0011563180606784  0.1250897149197775
  0.2570271147376362  0.0032502994071981  0.6245433905623429
  0.2389510594477489  0.4934554472296058  0.6260577525239339
  0.7480071378836358  0.4860156380561514  0.1259711140569340
  0.7441627343357086  0.4913911476758504  0.6249597664541561
  0.7478384790644896  0.0044558958692336  0.3759798909175938
  0.7425687349762699  0.0039556802625342  0.8740834134790604
  0.2382450224439385  0.2505263876476702  0.1257746843473543
  0.2408227273822168  0.2512829335730977  0.6242106596606053
  0.7336836743595045  0.2637266336469550  0.1273497437800186
  0.2556589214629396  0.7440344871306528  0.3747485779427925
  0.2525235231815455  0.7503201053129425  0.8753051475277360
  0.7522968432982071  0.7463425947481952  0.3746070124161924
  0.7493442841007590  0.7465864131958085  0.8756800621513741
  0.1254621855678188  0.5098613085420994  0.9915128914417370
  0.6272455793648944  0.5103721433451678  0.9957871618757262
  0.1250234470243652  0.0068565364201768  0.2495344229129065
  0.6240758383433459  0.0062741870490406  0.2476385257637638
  0.6249781492800864  0.2637291439464575  0.4790492371379813
  0.6244488959747695  0.7356166460084731  0.0023245544400081
  0.6243585515854718  0.7687827570873863  0.4951936251115718
  0.1229070198189103  0.2643642232677415  0.7582029374959797
  0.1250622512920911  0.7467468756251903  0.2531541956179381
  0.6249223363763915  0.2406551090798805  0.2691770948111398
  0.6308637488467573  0.2750712557189054  0.7704393162638249
  0.6223738173646483  0.7488317611725147  0.2518032188457788
  0.3763563956538677  0.9940639209666952  0.9906212929961954
  0.3768938465242190  0.5104431218644504  0.5070940962547137
  0.8727588458984062  0.9957429126773071  0.9975595195964962
  0.8757357604311587  0.5107265371505920  0.5035680508263557
  0.3755454347565864  0.0094043701748922  0.7591318645251776
  0.3744244474428560  0.4912192457954352  0.2456511412618614
  0.8756586973361501  0.4925296795082797  0.2496756535412386
  0.8766620913496518  0.5212692656744571  0.7420922398837971
  0.3761267977409467  0.2536283920701783  0.0126205578653365
  0.8749809995075776  0.2559504874126541  0.0168431558375092
  0.8747355816892485  0.7327392250904390  0.7478808798373708
  0.5163621932017990  0.1217618219316798  0.4849817518413579
  0.0104312700689988  0.1265628798971763  0.7463349089888914
  0.4903288969201031  0.1245866243999837  0.2691008685106372
  0.5152567909853311  0.1197575894297213  0.7576290056317910
  0.5137580086370614  0.6253870895795115  0.7606339190272668
  0.0068572490447054  0.3758816431898988  0.0048492641689370
  0.0079642089607949  0.8746200248205983  0.0027883317766094
  0.9841287821907861  0.8749912737584979  0.4997080062797595
  0.5112104980285971  0.3742153699862986  0.0160744529501344
  0.5095485078913754  0.8744328223908576  0.0133824345397030
  0.0110563205593582  0.3738214993253156  0.2473517223490517
  0.2625245455771772  0.6247824385644020  0.0043156053283172
  0.7325579381731567  0.1257237617906445  0.5073494120065064
  0.2346500497275900  0.6242943919417026  0.7490734256455480
  0.7334775235868743  0.1259720276021747  0.7417123531760101
  0.2604049354991061  0.3731457357790242  0.4928149447763159
  0.2618072960798958  0.8750041425942647  0.4987440100037110
  0.2390253218601776  0.3739900753292927  0.2582368607060694
  0.9974508769082678  0.0033889792063895  0.1266373233871652
  0.0000723590802166  0.9991339974820347  0.6234480298862695
  0.0038245652467408  0.5096823041446934  0.1251879704167154
  0.4905005194223379  0.0169515240519994  0.1258499418081078
  0.4944894035206863  0.0049600830476210  0.6217345406951033
  0.5043989050186418  0.5142772049736323  0.1272518848873604
  0.5122074034353188  0.5072354449705555  0.6257488732619965
  0.0002174628535070  0.4949308343438203  0.3763604034568886
  0.9921893164836032  0.4969754698212039  0.8725695714998332
  0.5056314065019465  0.9796133667677110  0.3757496398031027
  0.5166177443753995  0.9852568387327560  0.8753697013561722
  0.0164241039255691  0.2449140720571950  0.1279514217109938
  0.0091456256061035  0.2570684569018475  0.6211016789165293
  0.5173978349556956  0.2299313480716950  0.1274155271783635
  0.5186453665830066  0.2378295961415861  0.6185693096175867
  0.4963723886002649  0.7348655128207003  0.1267363186618874
  0.9856640137499079  0.2524872115573039  0.8751598097784630
  0.9926492531533514  0.7512591012797137  0.3753981742655130
  0.9997606299810425  0.7515937530878970  0.8739453130953151
  0.4805503368503534  0.2673640075895065  0.3746638122036428
  0.4939096670016856  0.2734808367607391  0.8781545714380669
  0.4915870753320120  0.7621778372439555  0.3752360013890023
  0.4976929436776160  0.7610001233078534  0.8744682745491443
  0.2423556365925581  0.4918289535418576  0.1244139789521579
  0.7508354338811587  0.9968541244523871  0.1266943794001730
  0.7493452944548078  0.9920751851461916  0.6229365714097206
  0.2498006444249052  0.0018959148634761  0.3751304309634647
  0.2406125930958032  0.9947782466142550  0.8743609763268789
  0.2520996966288053  0.5127207785305918  0.3751370497370778
  0.2619647691044588  0.4997603063537382  0.8734781712404084
  0.7493390775953503  0.5102714861527256  0.3752807492651771
  0.7554880251356896  0.5096548349449905  0.8742948674686262
  0.2504373151589901  0.7556293632138804  0.1250109609037150
  0.2475863923365796  0.7513951730704687  0.6251335371345107
  0.7374127585628353  0.2641337201148122  0.6230731030269879
  0.7510523469576200  0.7536316764017472  0.1261308246204478
  0.7461669638965422  0.7533538895560721  0.6246636925704357
  0.2635074214453431  0.2424350014112498  0.3738979934454227
  0.2584374364277774  0.2501819572291860  0.8758003681357586
  0.7699437992922245  0.2392820659934153  0.3744777482691786
  0.7679686152720516  0.2397068690641397  0.8785596043253286
  0.1262059884060278  0.0076709407552099  0.0044627318049141
  0.1243410364399154  0.9905491109018831  0.5008000416258805
  0.1241750507346858  0.4911389195305585  0.4898980680638573
  0.6241701539078920  0.0086644273894821  0.0104590109014839
  0.6235560769001569  0.9777152989838402  0.5043929379024177
  0.6260676954969041  0.4864746559496568  0.4958064040896060
  0.1262400886530402  0.9852472000153816  0.7438611857578091
  0.1244718227502671  0.5109646025697808  0.2523853073361277
  0.1231473020858444  0.4829055688167746  0.7645159970421886
  0.6234788473961357  0.9793886687751344  0.7385310774708655
  0.6251792922820997  0.5039506230573175  0.2524137138399857
  0.6281264784335093  0.4768359187522331  0.7620714244217432
  0.1249768704912717  0.2449214361976541  0.9881762818563253
  0.1231907084240406  0.2566698387041992  0.4862582853250874
  0.1251401717125109  0.7374890612351237  0.9994687086012707
  0.1239593186136491  0.7613101583882843  0.4943864215983084
  0.6275201253161696  0.2467461243952107  0.9845725393877797
  0.1243959767482167  0.2344258170782328  0.2656272816919488
  0.1231225507277606  0.7666259053360234  0.7524436112747553
  0.6262463469457756  0.7658658364243899  0.7517510358926002
  0.3777592583286526  0.0152910489170196  0.4908920095554634
  0.3751191463157777  0.4896532538205404  0.0069831362029529
  0.8738554682385379  0.0192177141587910  0.5053207875402378
  0.8751193807745926  0.4918686894626124  0.0021225639341167
  0.3769971996510590  0.9911796742647903  0.2578070621224231
  0.3753568598315883  0.5116350582712527  0.7415194367272271
  0.8731753301263853  0.9955337890485002  0.2490675745173269
  0.8733117122693712  0.0103048754936453  0.7460870071228188
  0.3799008724500556  0.2346820416697854  0.5099118646132498
  0.3767248445545275  0.7621202301252319  0.0029895989163538
  0.3777706649433593  0.7352192286220524  0.5036767924623877
  0.8738002261399999  0.2394061300137594  0.5143339405592726
  0.8719887929843526  0.7615544716642748  0.0001923494325018
  0.8720088198570897  0.7337265692750223  0.5049495793958115
  0.3781993707750478  0.2601157144872233  0.2356519643829657
  0.3704103354672283  0.2371596735582336  0.7418005934225755
  0.3766703489976608  0.7527595636250165  0.2460793843471936
  0.3752795351735418  0.7378926403493377  0.7475766577779638
  0.8737692840634942  0.2607886810299663  0.2364335751622876
  0.8748855928888998  0.2426592090795602  0.7372988348471267
  0.8731635208716265  0.7521554586718354  0.2484144504485761
  0.9975060235302713  0.1273843431476584  0.0002685608656295
  0.0095765788018461  0.1258483835446881  0.5070369492208515
  0.9878001350435521  0.6250824951988716  0.9935163518701067
  0.0120105269069025  0.6268387387209075  0.4912378519396353
  0.4993395021734030  0.1255096962684344  0.9866683506828695
  0.4861043122654513  0.6257146007110664  0.9896776932296990
  0.5154319642983477  0.6262149169063675  0.4882672501597665
  0.9874680994356105  0.1278840675615446  0.2469193212278162
  0.9936197495854191  0.6229740934865404  0.2587249435121470
  0.0213049852713643  0.6251433954051389  0.7566504168221521
  0.4956238781201259  0.6254770258824994  0.2637005250812045
  0.9906710345540766  0.3742648526080240  0.5002209426518721
  0.4882703512591838  0.3711847610926701  0.5133285774229052
  0.4815406251925042  0.8772556418087574  0.5074876155420207
  0.9831002182840490  0.3763419260152159  0.7478325433129519
  0.9996765258925056  0.8758270348152386  0.2500427538220888
  0.9854037792623367  0.8754353416688508  0.7463009967147818
  0.5096264929455477  0.3710518945823412  0.2349159884024369
  0.4919035360029368  0.3754834954841372  0.7381456544157997
  0.5010125619607674  0.8754982360672200  0.2357158904119330
  0.4884345943304395  0.8725869087689494  0.7436168622783527
  0.2530563165548767  0.1247140881528185  0.9944781624538601
  0.2406070076451652  0.1242511241610305  0.4967753346276598
  0.2385500764730221  0.6260381464725042  0.5062511207927189
  0.7506027419257300  0.1265382424213444  0.0111715420761528
  0.7668768542998556  0.6253087773984217  0.0102738214545783
  0.7342943816046013  0.6259520254405478  0.5061935636627568
  0.2633999798660964  0.1260859784855065  0.2512390955829427
  0.2345151510536008  0.1242369675842397  0.7558137689537489
  0.2558886399206382  0.6230130374697833  0.2387792601512436
  0.7621225942720464  0.1266719525506462  0.2415534620226535
  0.7523879910501764  0.6244135561645149  0.2410807089609435
  0.7289205050073798  0.6251957026634979  0.7440560205134151
  0.2436783034242890  0.3760855924431356  0.9959201867393304
  0.2392997440834454  0.8733461771652529  0.0018115471324450
  0.7414929150621863  0.3750559577446392  0.9810970876387739
  0.7643089000909240  0.3729272895102833  0.4883599970907780
  0.7365029240403269  0.8747509776330163  0.0018496295519760
  0.7685977529452268  0.8767112309238695  0.4980415857550858
  0.2644978948397543  0.3762711690370365  0.7559373871132825
  0.2491144422407225  0.8750326864972927  0.2529802118668707
  0.2614774764839068  0.8727920577690821  0.7468810522334801
  0.7425577706510669  0.3741002762491871  0.2705170225856885
  0.7716328948846659  0.3767495764770986  0.7615575787867480
  0.7480667578163439  0.8752597717029124  0.2507017583114211
  0.7642404114932918  0.8753562034996539  0.7504960148701797
 
  0.00000000E+00  0.00000000E+00  0.00000000E+00
  0.00000000E+00  0.00000000E+00  0.00000000E+00
  0.00000000E+00  0.00000000E+00  0.00000000E+00
  0.00000000E+00  0.00000000E+00  0.00000000E+00
  0.00000000E+00  0.00000000E+00  0.00000000E+00
  0.00000000E+00  0.00000000E+00  0.00000000E+00
  0.00000000E+00  0.00000000E+00  0.00000000E+00
  0.00000000E+00  0.00000000E+00  0.00000000E+00
  0.00000000E+00  0.00000000E+00  0.00000000E+00
  0.00000000E+00  0.00000000E+00  0.00000000E+00
  0.00000000E+00  0.00000000E+00  0.00000000E+00
  0.00000000E+00  0.00000000E+00  0.00000000E+00
  0.00000000E+00  0.00000000E+00  0.00000000E+00
  0.00000000E+00  0.00000000E+00  0.00000000E+00
  0.00000000E+00  0.00000000E+00  0.00000000E+00
  0.00000000E+00  0.00000000E+00  0.00000000E+00
  0.00000000E+00  0.00000000E+00  0.00000000E+00
  0.00000000E+00  0.00000000E+00  0.00000000E+00
  0.00000000E+00  0.00000000E+00  0.00000000E+00
  0.00000000E+00  0.00000000E+00  0.00000000E+00
  0.00000000E+00  0.00000000E+00  0.00000000E+00
  0.00000000E+00  0.00000000E+00  0.00000000E+00
  0.00000000E+00  0.00000000E+00  0.00000000E+00
  0.00000000E+00  0.00000000E+00  0.00000000E+00
  0.00000000E+00  0.00000000E+00  0.00000000E+00
  0.00000000E+00  0.00000000E+00  0.00000000E+00
  0.00000000E+00  0.00000000E+00  0.00000000E+00
  0.00000000E+00  0.00000000E+00  0.00000000E+00
  0.00000000E+00  0.00000000E+00  0.00000000E+00
  0.00000000E+00  0.00000000E+00  0.00000000E+00
  0.00000000E+00  0.00000000E+00  0.00000000E+00
  0.00000000E+00  0.00000000E+00  0.00000000E+00
  0.00000000E+00  0.00000000E+00  0.00000000E+00
  0.00000000E+00  0.00000000E+00  0.00000000E+00
  0.00000000E+00  0.00000000E+00  0.00000000E+00
  0.00000000E+00  0.00000000E+00  0.00000000E+00
  0.00000000E+00  0.00000000E+00  0.00000000E+00
  0.00000000E+00  0.00000000E+00  0.00000000E+00
  0.00000000E+00  0.00000000E+00  0.00000000E+00
  0.00000000E+00  0.00000000E+00  0.00000000E+00
  0.00000000E+00  0.00000000E+00  0.00000000E+00
  0.00000000E+00  0.00000000E+00  0.00000000E+00
  0.00000000E+00  0.00000000E+00  0.00000000E+00
  0.00000000E+00  0.00000000E+00  0.00000000E+00
  0.00000000E+00  0.00000000E+00  0.00000000E+00
  0.00000000E+00  0.00000000E+00  0.00000000E+00
  0.00000000E+00  0.00000000E+00  0.00000000E+00
  0.00000000E+00  0.00000000E+00  0.00000000E+00
  0.00000000E+00  0.00000000E+00  0.00000000E+00
  0.00000000E+00  0.00000000E+00  0.00000000E+00
  0.00000000E+00  0.00000000E+00  0.00000000E+00
  0.00000000E+00  0.00000000E+00  0.00000000E+00
  0.00000000E+00  0.00000000E+00  0.00000000E+00
  0.00000000E+00  0.00000000E+00  0.00000000E+00
  0.00000000E+00  0.00000000E+00  0.00000000E+00
  0.00000000E+00  0.00000000E+00  0.00000000E+00
  0.00000000E+00  0.00000000E+00  0.00000000E+00
  0.00000000E+00  0.00000000E+00  0.00000000E+00
  0.00000000E+00  0.00000000E+00  0.00000000E+00
  0.00000000E+00  0.00000000E+00  0.00000000E+00
  0.00000000E+00  0.00000000E+00  0.00000000E+00
  0.00000000E+00  0.00000000E+00  0.00000000E+00
  0.00000000E+00  0.00000000E+00  0.00000000E+00
  0.00000000E+00  0.00000000E+00  0.00000000E+00
  0.00000000E+00  0.00000000E+00  0.00000000E+00
  0.00000000E+00  0.00000000E+00  0.00000000E+00
  0.00000000E+00  0.00000000E+00  0.00000000E+00
  0.00000000E+00  0.00000000E+00  0.00000000E+00
  0.00000000E+00  0.00000000E+00  0.00000000E+00
  0.00000000E+00  0.00000000E+00  0.00000000E+00
  0.00000000E+00  0.00000000E+00  0.00000000E+00
  0.00000000E+00  0.00000000E+00  0.00000000E+00
  0.00000000E+00  0.00000000E+00  0.00000000E+00
  0.00000000E+00  0.00000000E+00  0.00000000E+00
  0.00000000E+00  0.00000000E+00  0.00000000E+00
  0.00000000E+00  0.00000000E+00  0.00000000E+00
  0.00000000E+00  0.00000000E+00  0.00000000E+00
  0.00000000E+00  0.00000000E+00  0.00000000E+00
  0.00000000E+00  0.00000000E+00  0.00000000E+00
  0.00000000E+00  0.00000000E+00  0.00000000E+00
  0.00000000E+00  0.00000000E+00  0.00000000E+00
  0.00000000E+00  0.00000000E+00  0.00000000E+00
  0.00000000E+00  0.00000000E+00  0.00000000E+00
  0.00000000E+00  0.00000000E+00  0.00000000E+00
  0.00000000E+00  0.00000000E+00  0.00000000E+00
  0.00000000E+00  0.00000000E+00  0.00000000E+00
  0.00000000E+00  0.00000000E+00  0.00000000E+00
  0.00000000E+00  0.00000000E+00  0.00000000E+00
  0.00000000E+00  0.00000000E+00  0.00000000E+00
  0.00000000E+00  0.00000000E+00  0.00000000E+00
  0.00000000E+00  0.00000000E+00  0.00000000E+00
  0.00000000E+00  0.00000000E+00  0.00000000E+00
  0.00000000E+00  0.00000000E+00  0.00000000E+00
  0.00000000E+00  0.00000000E+00  0.00000000E+00
  0.00000000E+00  0.00000000E+00  0.00000000E+00
  0.00000000E+00  0.00000000E+00  0.00000000E+00
  0.00000000E+00  0.00000000E+00  0.00000000E+00
  0.00000000E+00  0.00000000E+00  0.00000000E+00
  0.00000000E+00  0.00000000E+00  0.00000000E+00
  0.00000000E+00  0.00000000E+00  0.00000000E+00
  0.00000000E+00  0.00000000E+00  0.00000000E+00
  0.00000000E+00  0.00000000E+00  0.00000000E+00
  0.00000000E+00  0.00000000E+00  0.00000000E+00
  0.00000000E+00  0.00000000E+00  0.00000000E+00
  0.00000000E+00  0.00000000E+00  0.00000000E+00
  0.00000000E+00  0.00000000E+00  0.00000000E+00
  0.00000000E+00  0.00000000E+00  0.00000000E+00
  0.00000000E+00  0.00000000E+00  0.00000000E+00
  0.00000000E+00  0.00000000E+00  0.00000000E+00
  0.00000000E+00  0.00000000E+00  0.00000000E+00
  0.00000000E+00  0.00000000E+00  0.00000000E+00
  0.00000000E+00  0.00000000E+00  0.00000000E+00
  0.00000000E+00  0.00000000E+00  0.00000000E+00
  0.00000000E+00  0.00000000E+00  0.00000000E+00
  0.00000000E+00  0.00000000E+00  0.00000000E+00
  0.00000000E+00  0.00000000E+00  0.00000000E+00
  0.00000000E+00  0.00000000E+00  0.00000000E+00
  0.00000000E+00  0.00000000E+00  0.00000000E+00
  0.00000000E+00  0.00000000E+00  0.00000000E+00
  0.00000000E+00  0.00000000E+00  0.00000000E+00
  0.00000000E+00  0.00000000E+00  0.00000000E+00
  0.00000000E+00  0.00000000E+00  0.00000000E+00
  0.00000000E+00  0.00000000E+00  0.00000000E+00
  0.00000000E+00  0.00000000E+00  0.00000000E+00
  0.00000000E+00  0.00000000E+00  0.00000000E+00
  0.00000000E+00  0.00000000E+00  0.00000000E+00
  0.00000000E+00  0.00000000E+00  0.00000000E+00
  0.00000000E+00  0.00000000E+00  0.00000000E+00
  0.00000000E+00  0.00000000E+00  0.00000000E+00
  0.00000000E+00  0.00000000E+00  0.00000000E+00
  0.00000000E+00  0.00000000E+00  0.00000000E+00
  0.00000000E+00  0.00000000E+00  0.00000000E+00
  0.00000000E+00  0.00000000E+00  0.00000000E+00
  0.00000000E+00  0.00000000E+00  0.00000000E+00
  0.00000000E+00  0.00000000E+00  0.00000000E+00
  0.00000000E+00  0.00000000E+00  0.00000000E+00
  0.00000000E+00  0.00000000E+00  0.00000000E+00
  0.00000000E+00  0.00000000E+00  0.00000000E+00
  0.00000000E+00  0.00000000E+00  0.00000000E+00
  0.00000000E+00  0.00000000E+00  0.00000000E+00
  0.00000000E+00  0.00000000E+00  0.00000000E+00
  0.00000000E+00  0.00000000E+00  0.00000000E+00
  0.00000000E+00  0.00000000E+00  0.00000000E+00
  0.00000000E+00  0.00000000E+00  0.00000000E+00
  0.00000000E+00  0.00000000E+00  0.00000000E+00
  0.00000000E+00  0.00000000E+00  0.00000000E+00
  0.00000000E+00  0.00000000E+00  0.00000000E+00
  0.00000000E+00  0.00000000E+00  0.00000000E+00
  0.00000000E+00  0.00000000E+00  0.00000000E+00
  0.00000000E+00  0.00000000E+00  0.00000000E+00
  0.00000000E+00  0.00000000E+00  0.00000000E+00
  0.00000000E+00  0.00000000E+00  0.00000000E+00
  0.00000000E+00  0.00000000E+00  0.00000000E+00
  0.00000000E+00  0.00000000E+00  0.00000000E+00
  0.00000000E+00  0.00000000E+00  0.00000000E+00
  0.00000000E+00  0.00000000E+00  0.00000000E+00
  0.00000000E+00  0.00000000E+00  0.00000000E+00
  0.00000000E+00  0.00000000E+00  0.00000000E+00
  0.00000000E+00  0.00000000E+00  0.00000000E+00
  0.00000000E+00  0.00000000E+00  0.00000000E+00
  0.00000000E+00  0.00000000E+00  0.00000000E+00
  0.00000000E+00  0.00000000E+00  0.00000000E+00
  0.00000000E+00  0.00000000E+00  0.00000000E+00
  0.00000000E+00  0.00000000E+00  0.00000000E+00
  0.00000000E+00  0.00000000E+00  0.00000000E+00
  0.00000000E+00  0.00000000E+00  0.00000000E+00
  0.00000000E+00  0.00000000E+00  0.00000000E+00
  0.00000000E+00  0.00000000E+00  0.00000000E+00
  0.00000000E+00  0.00000000E+00  0.00000000E+00
  0.00000000E+00  0.00000000E+00  0.00000000E+00
  0.00000000E+00  0.00000000E+00  0.00000000E+00
  0.00000000E+00  0.00000000E+00  0.00000000E+00
  0.00000000E+00  0.00000000E+00  0.00000000E+00
  0.00000000E+00  0.00000000E+00  0.00000000E+00
  0.00000000E+00  0.00000000E+00  0.00000000E+00
  0.00000000E+00  0.00000000E+00  0.00000000E+00
  0.00000000E+00  0.00000000E+00  0.00000000E+00
  0.00000000E+00  0.00000000E+00  0.00000000E+00
  0.00000000E+00  0.00000000E+00  0.00000000E+00
  0.00000000E+00  0.00000000E+00  0.00000000E+00
  0.00000000E+00  0.00000000E+00  0.00000000E+00
  0.00000000E+00  0.00000000E+00  0.00000000E+00
  0.00000000E+00  0.00000000E+00  0.00000000E+00
  0.00000000E+00  0.00000000E+00  0.00000000E+00
  0.00000000E+00  0.00000000E+00  0.00000000E+00
  0.00000000E+00  0.00000000E+00  0.00000000E+00
  0.00000000E+00  0.00000000E+00  0.00000000E+00
  0.00000000E+00  0.00000000E+00  0.00000000E+00
  0.00000000E+00  0.00000000E+00  0.00000000E+00
  0.00000000E+00  0.00000000E+00  0.00000000E+00
  0.00000000E+00  0.00000000E+00  0.00000000E+00
  0.00000000E+00  0.00000000E+00  0.00000000E+00
  0.00000000E+00  0.00000000E+00  0.00000000E+00
  0.00000000E+00  0.00000000E+00  0.00000000E+00
  0.00000000E+00  0.00000000E+00  0.00000000E+00
  0.00000000E+00  0.00000000E+00  0.00000000E+00
  0.00000000E+00  0.00000000E+00  0.00000000E+00
  0.00000000E+00  0.00000000E+00  0.00000000E+00
  0.00000000E+00  0.00000000E+00  0.00000000E+00
  0.00000000E+00  0.00000000E+00  0.00000000E+00
  0.00000000E+00  0.00000000E+00  0.00000000E+00
  0.00000000E+00  0.00000000E+00  0.00000000E+00
  0.00000000E+00  0.00000000E+00  0.00000000E+00
  0.00000000E+00  0.00000000E+00  0.00000000E+00
  0.00000000E+00  0.00000000E+00  0.00000000E+00
  0.00000000E+00  0.00000000E+00  0.00000000E+00
  0.00000000E+00  0.00000000E+00  0.00000000E+00
  0.00000000E+00  0.00000000E+00  0.00000000E+00
  0.00000000E+00  0.00000000E+00  0.00000000E+00
  0.00000000E+00  0.00000000E+00  0.00000000E+00
  0.00000000E+00  0.00000000E+00  0.00000000E+00
  0.00000000E+00  0.00000000E+00  0.00000000E+00
  0.00000000E+00  0.00000000E+00  0.00000000E+00
  0.00000000E+00  0.00000000E+00  0.00000000E+00
  0.00000000E+00  0.00000000E+00  0.00000000E+00
  0.00000000E+00  0.00000000E+00  0.00000000E+00
  0.00000000E+00  0.00000000E+00  0.00000000E+00
  0.00000000E+00  0.00000000E+00  0.00000000E+00
  0.00000000E+00  0.00000000E+00  0.00000000E+00
  0.00000000E+00  0.00000000E+00  0.00000000E+00
  0.00000000E+00  0.00000000E+00  0.00000000E+00
  0.00000000E+00  0.00000000E+00  0.00000000E+00
  0.00000000E+00  0.00000000E+00  0.00000000E+00
  0.00000000E+00  0.00000000E+00  0.00000000E+00
  0.00000000E+00  0.00000000E+00  0.00000000E+00
  0.00000000E+00  0.00000000E+00  0.00000000E+00
  0.00000000E+00  0.00000000E+00  0.00000000E+00
  0.00000000E+00  0.00000000E+00  0.00000000E+00
  0.00000000E+00  0.00000000E+00  0.00000000E+00
  0.00000000E+00  0.00000000E+00  0.00000000E+00
  0.00000000E+00  0.00000000E+00  0.00000000E+00
  0.00000000E+00  0.00000000E+00  0.00000000E+00
  0.00000000E+00  0.00000000E+00  0.00000000E+00
  0.00000000E+00  0.00000000E+00  0.00000000E+00
  0.00000000E+00  0.00000000E+00  0.00000000E+00
  0.00000000E+00  0.00000000E+00  0.00000000E+00
  0.00000000E+00  0.00000000E+00  0.00000000E+00
  0.00000000E+00  0.00000000E+00  0.00000000E+00
  0.00000000E+00  0.00000000E+00  0.00000000E+00
  0.00000000E+00  0.00000000E+00  0.00000000E+00
  0.00000000E+00  0.00000000E+00  0.00000000E+00
  0.00000000E+00  0.00000000E+00  0.00000000E+00
  0.00000000E+00  0.00000000E+00  0.00000000E+00
  0.00000000E+00  0.00000000E+00  0.00000000E+00
  0.00000000E+00  0.00000000E+00  0.00000000E+00
  0.00000000E+00  0.00000000E+00  0.00000000E+00
  0.00000000E+00  0.00000000E+00  0.00000000E+00
  0.00000000E+00  0.00000000E+00  0.00000000E+00
  0.00000000E+00  0.00000000E+00  0.00000000E+00
  0.00000000E+00  0.00000000E+00  0.00000000E+00
  0.00000000E+00  0.00000000E+00  0.00000000E+00
  0.00000000E+00  0.00000000E+00  0.00000000E+00
  0.00000000E+00  0.00000000E+00  0.00000000E+00
  0.00000000E+00  0.00000000E+00  0.00000000E+00
  0.00000000E+00  0.00000000E+00  0.00000000E+00
  0.00000000E+00  0.00000000E+00  0.00000000E+00
  0.00000000E+00  0.00000000E+00  0.00000000E+00
