TiOF2 2x2x2 config 2000                 
   1.00000000000000     
     7.8164572683249585   -0.0185578361962867   -0.0097836769720844
    -0.0181934721985889    7.8169854337399478    0.0134954916627336
    -0.0085797900903983    0.0133701072332543    7.7290417373348657
   Ti   O    F 
     8     8    16
Direct
  0.9997217702918775  0.0004422188581046  0.0008711770199170
  0.9988547541064818  0.0012999378760981  0.4998279574085629
  0.9988297796076964  0.5004680317007200  0.9811557960446109
  0.0100935679502570  0.5014504441271086  0.5019843492009386
  0.4996707186556719  0.0009126301375630  0.9807099705383990
  0.4987155895522548  0.9892262880917784  0.5016692586080893
  0.4993786842942143  0.5002139110014809  0.9939739472636404
  0.5092584583041102  0.4918015599640526  0.4946319410889473
  0.2377272473747851  0.5011643350700012  0.4993427744636207
  0.7577129579391837  0.5007018556386171  0.4986634995900516
  0.4996079789873704  0.2425519416499142  0.4977087826034321
  0.4992432290890747  0.7617876754223261  0.4988328299285811
  0.9980640441106985  0.4997800182806387  0.7569942289096474
  0.5001223488187989  0.0021091764464529  0.7561487289015716
  0.5046208337853244  0.4942516047892269  0.2464502179886310
  0.5010594586445478  0.4986581096299290  0.7642143166795918
  0.2503930687703928  0.9943704203234489  0.0038174731750331
  0.2384543214981676  0.0005228222519307  0.4982439388512176
  0.2446834930376625  0.4982454372484995  0.0089857146031775
  0.7489276981288739  0.0054917355832060  0.0048412758982010
  0.7596212495864805  0.0005948795511443  0.4980459623517319
  0.7540874048093258  0.5042572805334231  0.0074544734013742
  0.9947649235214797  0.2500497869868994  0.0048908594798647
  0.9993345681798473  0.2403779809461568  0.4977404670273913
  0.0049672582682732  0.7508913990301664  0.0030904069049029
  0.9992851667469225  0.7618744626600815  0.4987074308691817
  0.4954601971272083  0.2456982714339730  0.0070607739610438
  0.5022097085762525  0.7549030680296127  0.0090400626483103
  0.9994464172910682  0.0005152721385215  0.2567781191257481
  0.9994882760301707  0.0010797575288777  0.7439122382857661
  0.9971432486180660  0.5013326106467844  0.2420272268305510
  0.4990515782974612  0.0029750764232404  0.2421838003482648
 
  0.00000000E+00  0.00000000E+00  0.00000000E+00
  0.00000000E+00  0.00000000E+00  0.00000000E+00
  0.00000000E+00  0.00000000E+00  0.00000000E+00
  0.00000000E+00  0.00000000E+00  0.00000000E+00
  0.00000000E+00  0.00000000E+00  0.00000000E+00
  0.00000000E+00  0.00000000E+00  0.00000000E+00
  0.00000000E+00  0.00000000E+00  0.00000000E+00
  0.00000000E+00  0.00000000E+00  0.00000000E+00
  0.00000000E+00  0.00000000E+00  0.00000000E+00
  0.00000000E+00  0.00000000E+00  0.00000000E+00
  0.00000000E+00  0.00000000E+00  0.00000000E+00
  0.00000000E+00  0.00000000E+00  0.00000000E+00
  0.00000000E+00  0.00000000E+00  0.00000000E+00
  0.00000000E+00  0.00000000E+00  0.00000000E+00
  0.00000000E+00  0.00000000E+00  0.00000000E+00
  0.00000000E+00  0.00000000E+00  0.00000000E+00
  0.00000000E+00  0.00000000E+00  0.00000000E+00
  0.00000000E+00  0.00000000E+00  0.00000000E+00
  0.00000000E+00  0.00000000E+00  0.00000000E+00
  0.00000000E+00  0.00000000E+00  0.00000000E+00
  0.00000000E+00  0.00000000E+00  0.00000000E+00
  0.00000000E+00  0.00000000E+00  0.00000000E+00
  0.00000000E+00  0.00000000E+00  0.00000000E+00
  0.00000000E+00  0.00000000E+00  0.00000000E+00
  0.00000000E+00  0.00000000E+00  0.00000000E+00
  0.00000000E+00  0.00000000E+00  0.00000000E+00
  0.00000000E+00  0.00000000E+00  0.00000000E+00
  0.00000000E+00  0.00000000E+00  0.00000000E+00
  0.00000000E+00  0.00000000E+00  0.00000000E+00
  0.00000000E+00  0.00000000E+00  0.00000000E+00
  0.00000000E+00  0.00000000E+00  0.00000000E+00
  0.00000000E+00  0.00000000E+00  0.00000000E+00
