config 58                               
   1.00000000000000     
    15.4263309999999993    0.0000000000000000    0.0000000000000000
     0.0000000000000000   15.4263309999999993    0.0000000000000000
     0.0000000000000000    0.0000000000000000   15.4263309999999993
   Li   Ti   O    F 
     1    64    64   128
Direct
  0.8678207473341129  0.5636266944725029  0.3754942223818217
  0.9951093888709139  0.9957168327609200  0.9943636982469175
 -0.0001347448179211  0.9921476984433180  0.4933586788269855
  0.0054598866740118  0.4954890410234188  0.9970990901742652
  0.9940221295506781  0.5028544998230967  0.5073757600486669
  0.4941597938953196  0.9945535504033580  0.9995838900685463
  0.5013198709548823  0.0081924901141530  0.5002065784069076
  0.5036966941335119  0.4956013536927860  0.9964970664524652
  0.4910421040729467  0.4992648187036786  0.4953983767163527
  0.0069191473431483  0.0026569805162775  0.2560496428994761
  0.0012258221528417  0.0078855701558538  0.7565950555490787
  0.9954461250742530  0.4933147141468572  0.2489182343429935
  0.9910263897253887  0.4992617975811878  0.7428130318413266
  0.5066696665083088  0.0083127921921138  0.2504014498776289
  0.4926696055373589  0.0051477286248181  0.7517880170906689
  0.4930119352250442  0.4973083888901813  0.2578002463863613
  0.5006669036366405  0.5046096609221077  0.7587302501413897
  0.9953109904962673  0.2575165765374240  0.0013132783986747
  0.9989795019641622  0.2481942666641062  0.4914740150618467
  0.9981392336438438  0.7582933598114083  0.0058741108577619
  0.9983045806432865  0.7569756085972764  0.5062965178051306
  0.4948076926220351  0.2580435409086036  0.0009284474274577
  0.5082391537193437  0.2458092692818725  0.4997203658577353
  0.5073242982072571  0.7566749850442100  0.9990386506312490
  0.5069578759849255  0.7534088771963257  0.5090313548986695
  0.9992240532793701  0.2574310890141152  0.2553578514154316
  0.0064243679192440  0.2426860533319376  0.7472661536682255
  0.0072143896582853  0.7493326920851680  0.2427077779463339
  0.9928604627295592  0.7507897794649353  0.7433849328113524
  0.5083508481876764  0.2426848775515681  0.2514706400677336
  0.5066935104254430  0.2429423464949904  0.7500890647561196
  0.5066396664769243  0.7518934599548371  0.2520869344837980
  0.5016721939347975  0.7423894272493876  0.7435184484135918
  0.2563467184899486  0.9988268758637111  0.0060627664363655
  0.2502545050747958  0.9941827139293705  0.5065904249123038
  0.2432094363140178  0.5080274898682390  0.9982289285869512
  0.2539672438744445  0.4946842955771440  0.5062988505518122
  0.7571641246224866  0.0007055850010808  0.9942262719590717
  0.7506155426488236  0.0076491523046926  0.4946389572161382
  0.7417392212480252  0.5005942389115376  0.0027190056367536
  0.7511006173829923  0.4967644537602595  0.5061245603123568
  0.2450083277821190  0.0025231611486401  0.2438000027547510
  0.2575077127770053  0.9979864527598126  0.7443227670546393
  0.2559318382876308  0.4927713849096168  0.2519271340844861
  0.2467843490864547  0.5062620033006583  0.7412139915269366
  0.7449715157706290  0.0004516218568886  0.2558970557593332
  0.7483402640730571  0.0066245353315122  0.7560584037799531
  0.7552576074526789  0.4985189081606359  0.2390016532080289
  0.7567983976461913  0.4975405805054388  0.7434578347587659
  0.2572446400076930  0.2515718628840689  0.0057550011309752
  0.2533727380842857  0.2569351974710711  0.5054699224683524
  0.2519892716839077  0.7427769971020307  0.9934804640461483
  0.2520765155726430  0.7557545960406693  0.4928795376990093
  0.7572442647793911  0.2510133699800033  0.0071824618851308
  0.7428959696333358  0.2434650451262322  0.4977404462594135
  0.7419567499384642  0.7498930689610467  0.9938877279929975
  0.7412786001751558  0.7529844731781277  0.4943602995791366
  0.2515235432059242  0.2581013912708127  0.2436260078482280
  0.2441114963091101  0.2515587010628224  0.7436644044507196
  0.2440696549367497  0.7486068700344684  0.2558287731136101
  0.2480452700372952  0.7419158140052162  0.7565906782035735
  0.7424365817610564  0.2515729234766195  0.2424222509057906
  0.7441644877426957  0.2422846845396599  0.7507381788180436
  0.7451049703082758  0.7505927467527999  0.2562657195766389
  0.7573750123828848  0.7506397767967422  0.7567036000960197
  0.0002025723618276  0.5019172922568542  0.6252751011132207
  0.9953370223124629  0.0058023380253493  0.3757629171996024
  0.9994162391658322  0.0024045800926724  0.8728118324444231
  0.5015571023909446  0.4948804311579509  0.3749086823932439
  0.4969717596249686  0.4987504492457356  0.8756618969290840
  0.9988316198445285  0.7458251422890810  0.1256155126364590
  0.0014041536926333  0.7461571037398873  0.6241499407226075
  0.5018854730910246  0.7550308683798865  0.6248713135351663
  0.9955696815609845  0.2473357389986455  0.3759064866013297
  0.2545727292262730  0.0036048275969952  0.1254896988982304
  0.2537034629904646  0.0037826418725615  0.6253674649657890
  0.2429904628007955  0.4959355329812911  0.6257826449210468
  0.7572683376964183  0.4891518627304877  0.1244233218292052
  0.7505799972292748  0.4908844900922848  0.6287358199654978
  0.7512348387671421  1.0005541150132549  0.3756000243406857
  0.7465400433673922  0.9991432874613163  0.8737477813046872
  0.2467815192874848  0.2500830798256000  0.1257467369177949
  0.2533659854293018  0.2495052079186615  0.6252266541070269
  0.7439139888790872  0.2607880999425634  0.1264195425370129
  0.2552266676012599  0.7472490782818402  0.3744148429629565
  0.2513802855844214  0.7529710581150302  0.8752561546030788
  0.7533489534120339  0.7486898383922712  0.3734331155935597
  0.7484527571518724  0.7523723082131357  0.8755559309418423
  0.1240193987373368  0.5035118128196476  1.0004483741964916
  0.6260885953236109  0.5066690498979445  0.0032067962151689
  0.1255034453401831  0.0015852440546502  0.2522575013411777
  0.6250290626146333  0.9982589437604190  0.2500019510318017
  0.6240659104140263  0.2572855058780228  0.4965630483926390
  0.6246546485194903  0.7426547441629217  0.0032241964699231
  0.6241961198619573  0.7641694937215628  0.4952320397660884
  0.1246562409779420  0.2505805268242263  0.7488197878183623
  0.1255121251283375  0.7537195723864781  0.2520691087900416
  0.6257085035252559  0.2499160236736267  0.2605838269870523
  0.6252932616995595  0.2519375830695992  0.7461247848937687
  0.6228052845690355  0.7563661623088824  0.2511524469812172
  0.3759099915943114  0.0003957145778321  0.9929139772763140
  0.3742167251849715  0.5060816007814527  0.5005328993644488
  0.8730839807889106  0.0027351803079239  0.0007051121295228
  0.8800856777516083  0.5083239892818946  0.4854615884179757
  0.3760125482936327  0.9961253948100431  0.7562247281648706
  0.3740865591361339  0.4981446901934050  0.2515785892588512
  0.8759884812416966  0.5070056917706035  0.2617353367722630
  0.8752006049665341  0.5076997737581611  0.7548331074562269
  0.3757523969914081  0.2480671248888749  0.0026005747500427
  0.8742283948952539  0.2479231714893979  0.0045624889337294
  0.8749321429159678  0.7447831503958349  0.7494151209802175
  0.5100278584186201  0.1226180540767759  0.4976491546212128
  0.9956207558634028  0.1261844649639490  0.7437045246477764
  0.4980988696452986  0.1254864540880446  0.2607257139799844
  0.5005944310071715  0.1236543152366429  0.7460476061362434
  0.5007708682143959  0.6254851449214005  0.7489288866382603
  0.9994976479939188  0.3753610696425267  0.0047664550470960
  0.0013843151641066  0.8751313110742385  0.0013610016083387
 -0.0025823034124595  0.8753070816417213  0.4982017764754890
  0.5022260532356417  0.3743399308261052  0.0064523961799336
  0.5039706979953785  0.8755025269346702  0.0024111601413446
  0.0021791676218474  0.3745846577746372  0.2462684171702067
  0.2549418195532522  0.6253291166345306  0.0018198801307840
  0.7417508261662504  0.1248757790271960  0.5048303776753578
  0.2484202622041310  0.6248586616221330  0.7503342095142564
  0.7518679389823926  0.1247054599047125  0.7440632047757428
  0.2523131975475293  0.3731616332984778  0.4937047109198777
  0.2525444162199522  0.8760509570801458  0.4999869818472603
  0.2431989778813159  0.3750915190422255  0.2563745721451571
  0.0003335084852012  0.0025323202132591  0.1267972482898455
  0.0046731966068456  0.9979236816047412  0.6234538622096548
  0.9925536882622372  0.5097761517205914  0.1246030304563936
  0.4946274412731699  0.0055404113711519  0.1264573593238608
  0.4978557771512399  0.9927244158239783  0.6232209921453120
  0.5004385682600404  0.5071216490936595  0.1279632965927143
  0.5026538208294359  0.4992696567174102  0.6254118778373157
  0.0085876240220735  0.4996144689274209  0.3733951381618368
  0.0016255186010538  0.4972324379805412  0.8732486457404828
  0.5027906586298958  0.9918781588385958  0.3769145936139555
  0.5142281099770305  0.0023183398849114  0.8750664284324083
  0.0067061062136013  0.2457541837521588  0.1274185808033533
  0.9990019939293389  0.2585154169982078  0.6210930872348895
  0.5072686614398565  0.2404525671153776  0.1268578810331455
  0.4938263378830244  0.2495826781123354  0.6232856768097983
  0.4963841115053966  0.7474313757116551  0.1270821899322196
  0.9963617332691371  0.2505923764911722  0.8743576252204491
  0.9924812194827826  0.7505679562048549  0.3745598522115229
  0.0019177159716528  0.7512136680406387  0.8739732940004785
  0.4927795403133586  0.2610750843627483  0.3759699449210043
  0.5020329417777101  0.2498933614775400  0.8748221538733009
  0.4925492416446980  0.7525313418081520  0.3755960089289503
  0.4983667085124086  0.7507025894912085  0.8741605835860355
  0.2489648393502552  0.4946643340303726  0.1250155341782030
  0.7490744895781530  0.0024317531652834  0.1265080651245607
  0.7461746241723417  0.9950164652794170  0.6230757672718412
  0.2533694713852669  0.0012418466544812  0.3754684046662541
  0.2437412904779698  0.9947326800610975  0.8746144285244780
  0.2429844903408897  0.5113683500551927  0.3746066633318501
  0.2546258412501000  0.4977069039795184  0.8741415453536516
  0.7495073061284254  0.5170852179905274  0.3728881715203863
  0.7474094891486794  0.5072409962343560  0.8757837332458697
  0.2521518759683145  0.7542085919200432  0.1251300660357194
  0.2489857033741638  0.7510719166559476  0.6249516734306148
  0.7524536955073510  0.2615722304977276  0.6231085523529890
  0.7526678329376572  0.7498610428725195  0.1257696089007950
  0.7474883949825414  0.7506708041334954  0.6244112304117563
  0.2516819321634495  0.2439304707313479  0.3742537247642569
  0.2507713385944042  0.2512247840197838  0.8754628160098070
  0.7608344011398328  0.2396511516754350  0.3733832548626143
  0.7506891801662977  0.2431798412275292  0.8763874852216390
  0.1260588749574220  0.0018916292315652  0.0018054652093494
  0.1251192349786695  0.0051156856060225  0.4973446632581613
  0.1241765329681527  0.4996870334517094  0.4954635146859500
  0.6250951914212585  0.0016338635386656  0.0072730619470505
  0.6240850856240768  0.9836125577247850  0.5015152692385648
  0.6195769544377074  0.4897078209561990  0.5004352573785678
  0.1268679312655884  0.0015244134049067  0.7478948806725552
  0.1234045871621299  0.5057205201380329  0.2427535723619372
  0.1229426242460156  0.4939826573605068  0.7578711811417402
  0.6236229977445710  0.9954651101457825  0.7417991058293608
  0.6270146030573948  0.4959381260185752  0.2481791114660920
  0.6255615157207565  0.4936375990520453  0.7536167341187038
  0.1249049828352417  0.2505178093366606  0.9957916338038666
  0.1238105520044279  0.2462312728989954  0.4990478689062012
  0.1251568606386830  0.7458762814378148  0.0008697844022982
  0.1247061747530411  0.7512395325036308  0.4953126836032871
  0.6260660056472284  0.2495281291811161  0.9961171504992972
  0.1242124736895908  0.2402296606161663  0.2554019725382213
  0.1234446308706329  0.7537034758914786  0.7506376900526456
  0.6261911608086806  0.7539438247225988  0.7506227147003892
  0.3776293335893096  0.0075751434925985  0.4965754595031154
  0.3733914750781057  0.4961968445178769  0.0055845769399596
  0.8750715795039835  0.0076316494951693  0.5088517566223277
  0.8745795077389190  0.4985461376445632  0.9942573071986828
  0.3774526226334395  0.9982709471937707  0.2558922581564495
  0.3742001504278629  0.4977227533780392  0.7458350856266922
  0.8739861996051106  0.0017933318807030  0.2464521313976265
  0.8743003099950555  0.9933489758514075  0.7420294665101137
  0.3785855743107311  0.2407537922643130  0.4965349649584323
  0.3766574614831882  0.7564222338423320  0.0019396637311278
  0.3772551358596121  0.7439051003710805  0.5027061861260649
  0.8750097339689088  0.2459700939440975  0.5044411504293967
  0.8723979433272153  0.7538383473279753  0.9987864816526129
  0.8731198702555569  0.7427103024341971  0.5018785561399205
  0.3782234505900015  0.2561436797877024  0.2478399398815754
  0.3761224942053913  0.2500303589800277  0.7537412205354532
  0.3772291872097609  0.7467174397954837  0.2470835995294908
  0.3750526292383010  0.7554469571274153  0.7487006910708882
  0.8742381117413764  0.2520977455944414  0.2449833281153331
  0.8741338400738425  0.2541156474265638  0.7474472718940778
  0.8736447498272216  0.7420834143575389  0.2493071685524683
  0.0039710865397378  0.1271168249601385  0.0014062684707697
  0.9999182365029039  0.1256748039538930  0.5086204405142345
  0.9940973048062957  0.6255276354153294  0.9939975665097891
  0.0059235383933185  0.6280278061877139  0.4901047101474192
  0.5045321712971329  0.1247251845776891  0.9987823165349203
  0.4904244148107136  0.6274400066198482  0.0008960903860868
  0.5081751292266464  0.6269670815246956  0.4984485388920469
  0.9941136249156263  0.1278371705318005  0.2463915911117186
  0.0013553435564066  0.6239439042076315  0.2587692321121931
  0.0102829814207133  0.6249754997131237  0.7556131813067382
  0.5043135260585966  0.6261432341998938  0.2543220601950892
  0.0015036773295329  0.3734716113321754  0.4971562113825025
  0.4894834772038664  0.3716292908341290  0.5059068936857161
  0.4873135667278610  0.8782265485283095  0.4966741016738223
  0.9957905125456848  0.3741376784677130  0.7511400883588568
  0.9927196520098783  0.8759928119592895  0.2507232455464609
  0.0005587055768630  0.8758641758552018  0.7474353580021472
  0.5023024723580097  0.3723445775961014  0.2409959531080462
  0.4966974981634504  0.3733016169162270  0.7468423090442751
  0.4942069052273907  0.8762272022335124  0.2477036237957821
  0.5028420000538305  0.8752563330904131  0.7550860364537187
  0.2459630379150650  0.1250346123955587  0.9936647564464921
  0.2495408010915830  0.1244940402194286  0.4966800916356644
  0.2454082835994167  0.6270854273372346  0.5043680289031884
  0.7432628465044187  0.1262257629086448  0.0044846561970638
  0.7602861104560111  0.6255688968086359  0.0050031415868183
  0.7424941508589421  0.6292850119485731  0.5028838317773932
  0.2580014418012941  0.1269064050862862  0.2535275827462684
  0.2522277648865295  0.1245837877424098  0.7577310215090967
  0.2493576667089720  0.6239206956396014  0.2415554460621450
  0.7547460900233064  0.1262615387699695  0.2455984650925628
  0.7434130778414209  0.6250174277322997  0.2426443101854988
  0.7394373510191578  0.6253696681623226  0.7478344941197752
  0.2489865516285358  0.3762996315876301  0.9976335422295604
  0.2457731209053333  0.8740987966019175  0.0035738224810900
  0.7481979812800114  0.3749679423248788  0.9867106880086929
  0.7585042405802773  0.3681248729584374  0.4841148883116314
  0.7459971721349060  0.8751591017055418  0.0076537662885937
  0.7626929907382174  0.8769290593322736  0.5016533686778590
  0.2530027150853045  0.3759224537198107  0.7561697721545031
  0.2562385909110430  0.8758361457181505  0.2506186798774980
  0.2460871554029206  0.8736872821668960  0.7460771857232973
  0.7535760897262347  0.3751879064764270  0.2671760565091021
  0.7536359486398568  0.3728845846203722  0.7625085396403852
  0.7577331860926478  0.8751829504154338  0.2446835387847092
  0.7504330241467387  0.8752359773127764  0.7449171007952847
 
  0.00000000E+00  0.00000000E+00  0.00000000E+00
  0.00000000E+00  0.00000000E+00  0.00000000E+00
  0.00000000E+00  0.00000000E+00  0.00000000E+00
  0.00000000E+00  0.00000000E+00  0.00000000E+00
  0.00000000E+00  0.00000000E+00  0.00000000E+00
  0.00000000E+00  0.00000000E+00  0.00000000E+00
  0.00000000E+00  0.00000000E+00  0.00000000E+00
  0.00000000E+00  0.00000000E+00  0.00000000E+00
  0.00000000E+00  0.00000000E+00  0.00000000E+00
  0.00000000E+00  0.00000000E+00  0.00000000E+00
  0.00000000E+00  0.00000000E+00  0.00000000E+00
  0.00000000E+00  0.00000000E+00  0.00000000E+00
  0.00000000E+00  0.00000000E+00  0.00000000E+00
  0.00000000E+00  0.00000000E+00  0.00000000E+00
  0.00000000E+00  0.00000000E+00  0.00000000E+00
  0.00000000E+00  0.00000000E+00  0.00000000E+00
  0.00000000E+00  0.00000000E+00  0.00000000E+00
  0.00000000E+00  0.00000000E+00  0.00000000E+00
  0.00000000E+00  0.00000000E+00  0.00000000E+00
  0.00000000E+00  0.00000000E+00  0.00000000E+00
  0.00000000E+00  0.00000000E+00  0.00000000E+00
  0.00000000E+00  0.00000000E+00  0.00000000E+00
  0.00000000E+00  0.00000000E+00  0.00000000E+00
  0.00000000E+00  0.00000000E+00  0.00000000E+00
  0.00000000E+00  0.00000000E+00  0.00000000E+00
  0.00000000E+00  0.00000000E+00  0.00000000E+00
  0.00000000E+00  0.00000000E+00  0.00000000E+00
  0.00000000E+00  0.00000000E+00  0.00000000E+00
  0.00000000E+00  0.00000000E+00  0.00000000E+00
  0.00000000E+00  0.00000000E+00  0.00000000E+00
  0.00000000E+00  0.00000000E+00  0.00000000E+00
  0.00000000E+00  0.00000000E+00  0.00000000E+00
  0.00000000E+00  0.00000000E+00  0.00000000E+00
  0.00000000E+00  0.00000000E+00  0.00000000E+00
  0.00000000E+00  0.00000000E+00  0.00000000E+00
  0.00000000E+00  0.00000000E+00  0.00000000E+00
  0.00000000E+00  0.00000000E+00  0.00000000E+00
  0.00000000E+00  0.00000000E+00  0.00000000E+00
  0.00000000E+00  0.00000000E+00  0.00000000E+00
  0.00000000E+00  0.00000000E+00  0.00000000E+00
  0.00000000E+00  0.00000000E+00  0.00000000E+00
  0.00000000E+00  0.00000000E+00  0.00000000E+00
  0.00000000E+00  0.00000000E+00  0.00000000E+00
  0.00000000E+00  0.00000000E+00  0.00000000E+00
  0.00000000E+00  0.00000000E+00  0.00000000E+00
  0.00000000E+00  0.00000000E+00  0.00000000E+00
  0.00000000E+00  0.00000000E+00  0.00000000E+00
  0.00000000E+00  0.00000000E+00  0.00000000E+00
  0.00000000E+00  0.00000000E+00  0.00000000E+00
  0.00000000E+00  0.00000000E+00  0.00000000E+00
  0.00000000E+00  0.00000000E+00  0.00000000E+00
  0.00000000E+00  0.00000000E+00  0.00000000E+00
  0.00000000E+00  0.00000000E+00  0.00000000E+00
  0.00000000E+00  0.00000000E+00  0.00000000E+00
  0.00000000E+00  0.00000000E+00  0.00000000E+00
  0.00000000E+00  0.00000000E+00  0.00000000E+00
  0.00000000E+00  0.00000000E+00  0.00000000E+00
  0.00000000E+00  0.00000000E+00  0.00000000E+00
  0.00000000E+00  0.00000000E+00  0.00000000E+00
  0.00000000E+00  0.00000000E+00  0.00000000E+00
  0.00000000E+00  0.00000000E+00  0.00000000E+00
  0.00000000E+00  0.00000000E+00  0.00000000E+00
  0.00000000E+00  0.00000000E+00  0.00000000E+00
  0.00000000E+00  0.00000000E+00  0.00000000E+00
  0.00000000E+00  0.00000000E+00  0.00000000E+00
  0.00000000E+00  0.00000000E+00  0.00000000E+00
  0.00000000E+00  0.00000000E+00  0.00000000E+00
  0.00000000E+00  0.00000000E+00  0.00000000E+00
  0.00000000E+00  0.00000000E+00  0.00000000E+00
  0.00000000E+00  0.00000000E+00  0.00000000E+00
  0.00000000E+00  0.00000000E+00  0.00000000E+00
  0.00000000E+00  0.00000000E+00  0.00000000E+00
  0.00000000E+00  0.00000000E+00  0.00000000E+00
  0.00000000E+00  0.00000000E+00  0.00000000E+00
  0.00000000E+00  0.00000000E+00  0.00000000E+00
  0.00000000E+00  0.00000000E+00  0.00000000E+00
  0.00000000E+00  0.00000000E+00  0.00000000E+00
  0.00000000E+00  0.00000000E+00  0.00000000E+00
  0.00000000E+00  0.00000000E+00  0.00000000E+00
  0.00000000E+00  0.00000000E+00  0.00000000E+00
  0.00000000E+00  0.00000000E+00  0.00000000E+00
  0.00000000E+00  0.00000000E+00  0.00000000E+00
  0.00000000E+00  0.00000000E+00  0.00000000E+00
  0.00000000E+00  0.00000000E+00  0.00000000E+00
  0.00000000E+00  0.00000000E+00  0.00000000E+00
  0.00000000E+00  0.00000000E+00  0.00000000E+00
  0.00000000E+00  0.00000000E+00  0.00000000E+00
  0.00000000E+00  0.00000000E+00  0.00000000E+00
  0.00000000E+00  0.00000000E+00  0.00000000E+00
  0.00000000E+00  0.00000000E+00  0.00000000E+00
  0.00000000E+00  0.00000000E+00  0.00000000E+00
  0.00000000E+00  0.00000000E+00  0.00000000E+00
  0.00000000E+00  0.00000000E+00  0.00000000E+00
  0.00000000E+00  0.00000000E+00  0.00000000E+00
  0.00000000E+00  0.00000000E+00  0.00000000E+00
  0.00000000E+00  0.00000000E+00  0.00000000E+00
  0.00000000E+00  0.00000000E+00  0.00000000E+00
  0.00000000E+00  0.00000000E+00  0.00000000E+00
  0.00000000E+00  0.00000000E+00  0.00000000E+00
  0.00000000E+00  0.00000000E+00  0.00000000E+00
  0.00000000E+00  0.00000000E+00  0.00000000E+00
  0.00000000E+00  0.00000000E+00  0.00000000E+00
  0.00000000E+00  0.00000000E+00  0.00000000E+00
  0.00000000E+00  0.00000000E+00  0.00000000E+00
  0.00000000E+00  0.00000000E+00  0.00000000E+00
  0.00000000E+00  0.00000000E+00  0.00000000E+00
  0.00000000E+00  0.00000000E+00  0.00000000E+00
  0.00000000E+00  0.00000000E+00  0.00000000E+00
  0.00000000E+00  0.00000000E+00  0.00000000E+00
  0.00000000E+00  0.00000000E+00  0.00000000E+00
  0.00000000E+00  0.00000000E+00  0.00000000E+00
  0.00000000E+00  0.00000000E+00  0.00000000E+00
  0.00000000E+00  0.00000000E+00  0.00000000E+00
  0.00000000E+00  0.00000000E+00  0.00000000E+00
  0.00000000E+00  0.00000000E+00  0.00000000E+00
  0.00000000E+00  0.00000000E+00  0.00000000E+00
  0.00000000E+00  0.00000000E+00  0.00000000E+00
  0.00000000E+00  0.00000000E+00  0.00000000E+00
  0.00000000E+00  0.00000000E+00  0.00000000E+00
  0.00000000E+00  0.00000000E+00  0.00000000E+00
  0.00000000E+00  0.00000000E+00  0.00000000E+00
  0.00000000E+00  0.00000000E+00  0.00000000E+00
  0.00000000E+00  0.00000000E+00  0.00000000E+00
  0.00000000E+00  0.00000000E+00  0.00000000E+00
  0.00000000E+00  0.00000000E+00  0.00000000E+00
  0.00000000E+00  0.00000000E+00  0.00000000E+00
  0.00000000E+00  0.00000000E+00  0.00000000E+00
  0.00000000E+00  0.00000000E+00  0.00000000E+00
  0.00000000E+00  0.00000000E+00  0.00000000E+00
  0.00000000E+00  0.00000000E+00  0.00000000E+00
  0.00000000E+00  0.00000000E+00  0.00000000E+00
  0.00000000E+00  0.00000000E+00  0.00000000E+00
  0.00000000E+00  0.00000000E+00  0.00000000E+00
  0.00000000E+00  0.00000000E+00  0.00000000E+00
  0.00000000E+00  0.00000000E+00  0.00000000E+00
  0.00000000E+00  0.00000000E+00  0.00000000E+00
  0.00000000E+00  0.00000000E+00  0.00000000E+00
  0.00000000E+00  0.00000000E+00  0.00000000E+00
  0.00000000E+00  0.00000000E+00  0.00000000E+00
  0.00000000E+00  0.00000000E+00  0.00000000E+00
  0.00000000E+00  0.00000000E+00  0.00000000E+00
  0.00000000E+00  0.00000000E+00  0.00000000E+00
  0.00000000E+00  0.00000000E+00  0.00000000E+00
  0.00000000E+00  0.00000000E+00  0.00000000E+00
  0.00000000E+00  0.00000000E+00  0.00000000E+00
  0.00000000E+00  0.00000000E+00  0.00000000E+00
  0.00000000E+00  0.00000000E+00  0.00000000E+00
  0.00000000E+00  0.00000000E+00  0.00000000E+00
  0.00000000E+00  0.00000000E+00  0.00000000E+00
  0.00000000E+00  0.00000000E+00  0.00000000E+00
  0.00000000E+00  0.00000000E+00  0.00000000E+00
  0.00000000E+00  0.00000000E+00  0.00000000E+00
  0.00000000E+00  0.00000000E+00  0.00000000E+00
  0.00000000E+00  0.00000000E+00  0.00000000E+00
  0.00000000E+00  0.00000000E+00  0.00000000E+00
  0.00000000E+00  0.00000000E+00  0.00000000E+00
  0.00000000E+00  0.00000000E+00  0.00000000E+00
  0.00000000E+00  0.00000000E+00  0.00000000E+00
  0.00000000E+00  0.00000000E+00  0.00000000E+00
  0.00000000E+00  0.00000000E+00  0.00000000E+00
  0.00000000E+00  0.00000000E+00  0.00000000E+00
  0.00000000E+00  0.00000000E+00  0.00000000E+00
  0.00000000E+00  0.00000000E+00  0.00000000E+00
  0.00000000E+00  0.00000000E+00  0.00000000E+00
  0.00000000E+00  0.00000000E+00  0.00000000E+00
  0.00000000E+00  0.00000000E+00  0.00000000E+00
  0.00000000E+00  0.00000000E+00  0.00000000E+00
  0.00000000E+00  0.00000000E+00  0.00000000E+00
  0.00000000E+00  0.00000000E+00  0.00000000E+00
  0.00000000E+00  0.00000000E+00  0.00000000E+00
  0.00000000E+00  0.00000000E+00  0.00000000E+00
  0.00000000E+00  0.00000000E+00  0.00000000E+00
  0.00000000E+00  0.00000000E+00  0.00000000E+00
  0.00000000E+00  0.00000000E+00  0.00000000E+00
  0.00000000E+00  0.00000000E+00  0.00000000E+00
  0.00000000E+00  0.00000000E+00  0.00000000E+00
  0.00000000E+00  0.00000000E+00  0.00000000E+00
  0.00000000E+00  0.00000000E+00  0.00000000E+00
  0.00000000E+00  0.00000000E+00  0.00000000E+00
  0.00000000E+00  0.00000000E+00  0.00000000E+00
  0.00000000E+00  0.00000000E+00  0.00000000E+00
  0.00000000E+00  0.00000000E+00  0.00000000E+00
  0.00000000E+00  0.00000000E+00  0.00000000E+00
  0.00000000E+00  0.00000000E+00  0.00000000E+00
  0.00000000E+00  0.00000000E+00  0.00000000E+00
  0.00000000E+00  0.00000000E+00  0.00000000E+00
  0.00000000E+00  0.00000000E+00  0.00000000E+00
  0.00000000E+00  0.00000000E+00  0.00000000E+00
  0.00000000E+00  0.00000000E+00  0.00000000E+00
  0.00000000E+00  0.00000000E+00  0.00000000E+00
  0.00000000E+00  0.00000000E+00  0.00000000E+00
  0.00000000E+00  0.00000000E+00  0.00000000E+00
  0.00000000E+00  0.00000000E+00  0.00000000E+00
  0.00000000E+00  0.00000000E+00  0.00000000E+00
  0.00000000E+00  0.00000000E+00  0.00000000E+00
  0.00000000E+00  0.00000000E+00  0.00000000E+00
  0.00000000E+00  0.00000000E+00  0.00000000E+00
  0.00000000E+00  0.00000000E+00  0.00000000E+00
  0.00000000E+00  0.00000000E+00  0.00000000E+00
  0.00000000E+00  0.00000000E+00  0.00000000E+00
  0.00000000E+00  0.00000000E+00  0.00000000E+00
  0.00000000E+00  0.00000000E+00  0.00000000E+00
  0.00000000E+00  0.00000000E+00  0.00000000E+00
  0.00000000E+00  0.00000000E+00  0.00000000E+00
  0.00000000E+00  0.00000000E+00  0.00000000E+00
  0.00000000E+00  0.00000000E+00  0.00000000E+00
  0.00000000E+00  0.00000000E+00  0.00000000E+00
  0.00000000E+00  0.00000000E+00  0.00000000E+00
  0.00000000E+00  0.00000000E+00  0.00000000E+00
  0.00000000E+00  0.00000000E+00  0.00000000E+00
  0.00000000E+00  0.00000000E+00  0.00000000E+00
  0.00000000E+00  0.00000000E+00  0.00000000E+00
  0.00000000E+00  0.00000000E+00  0.00000000E+00
  0.00000000E+00  0.00000000E+00  0.00000000E+00
  0.00000000E+00  0.00000000E+00  0.00000000E+00
  0.00000000E+00  0.00000000E+00  0.00000000E+00
  0.00000000E+00  0.00000000E+00  0.00000000E+00
  0.00000000E+00  0.00000000E+00  0.00000000E+00
  0.00000000E+00  0.00000000E+00  0.00000000E+00
  0.00000000E+00  0.00000000E+00  0.00000000E+00
  0.00000000E+00  0.00000000E+00  0.00000000E+00
  0.00000000E+00  0.00000000E+00  0.00000000E+00
  0.00000000E+00  0.00000000E+00  0.00000000E+00
  0.00000000E+00  0.00000000E+00  0.00000000E+00
  0.00000000E+00  0.00000000E+00  0.00000000E+00
  0.00000000E+00  0.00000000E+00  0.00000000E+00
  0.00000000E+00  0.00000000E+00  0.00000000E+00
  0.00000000E+00  0.00000000E+00  0.00000000E+00
  0.00000000E+00  0.00000000E+00  0.00000000E+00
  0.00000000E+00  0.00000000E+00  0.00000000E+00
  0.00000000E+00  0.00000000E+00  0.00000000E+00
  0.00000000E+00  0.00000000E+00  0.00000000E+00
  0.00000000E+00  0.00000000E+00  0.00000000E+00
  0.00000000E+00  0.00000000E+00  0.00000000E+00
  0.00000000E+00  0.00000000E+00  0.00000000E+00
  0.00000000E+00  0.00000000E+00  0.00000000E+00
  0.00000000E+00  0.00000000E+00  0.00000000E+00
  0.00000000E+00  0.00000000E+00  0.00000000E+00
  0.00000000E+00  0.00000000E+00  0.00000000E+00
  0.00000000E+00  0.00000000E+00  0.00000000E+00
  0.00000000E+00  0.00000000E+00  0.00000000E+00
  0.00000000E+00  0.00000000E+00  0.00000000E+00
  0.00000000E+00  0.00000000E+00  0.00000000E+00
  0.00000000E+00  0.00000000E+00  0.00000000E+00
  0.00000000E+00  0.00000000E+00  0.00000000E+00
  0.00000000E+00  0.00000000E+00  0.00000000E+00
  0.00000000E+00  0.00000000E+00  0.00000000E+00
  0.00000000E+00  0.00000000E+00  0.00000000E+00
  0.00000000E+00  0.00000000E+00  0.00000000E+00
  0.00000000E+00  0.00000000E+00  0.00000000E+00
  0.00000000E+00  0.00000000E+00  0.00000000E+00
  0.00000000E+00  0.00000000E+00  0.00000000E+00
  0.00000000E+00  0.00000000E+00  0.00000000E+00
  0.00000000E+00  0.00000000E+00  0.00000000E+00
  0.00000000E+00  0.00000000E+00  0.00000000E+00
  0.00000000E+00  0.00000000E+00  0.00000000E+00
  0.00000000E+00  0.00000000E+00  0.00000000E+00
