TiOF2 2x2x2 config 0017                 
   1.00000000000000     
     7.9180180149337032    0.0000228954356551    0.0000065339711236
     0.0000242691772200    7.7648984760891713   -0.0000464451986273
     0.0000061214153813   -0.0000450513577851    7.5476632738173093
   Ti   O    F 
     8     8    16
Direct
  0.9999977266090759  0.0000202622545208  0.9870414485596738
  0.0000000228098752  0.0000013691284796  0.5091846864065092
  0.9999999511174363  0.5000198985381360  0.0001204143594824
  0.0000021632232240  0.4999986204934715  0.4993056446010786
  0.4999973054721255 -0.0000050583875658  0.0173139216881062
  0.5000004415945286  1.0000224304414973  0.4980412084185800
  0.4999996647731519  0.4999939644374036  0.0014172665342614
  0.5000024286411576  0.5000409846832156  0.5033828898438363
  0.5000195497972549  0.2421609186239867  0.5021524076375038
  0.4999882229205832  0.7577659615404614  0.5021631120104181
  0.9999913664253511  0.0000130266507574  0.7509139474612784
  0.0000029787816875  0.5000121523070122  0.2486953029927224
  1.0000000935843603  0.5000219599804768  0.7510494408834771
  0.4999884180812764  0.9999638624781729  0.2439056789456530
  0.4999994663900236  0.4999790895163896  0.2423376017637698
  0.5000020218194997  0.4999643161838278  0.7552019651677843
  0.2443301170175764  0.0000169398429717  0.0016553137113629
  0.2387233341970499  0.0000050327867174  0.4971850460631437
  0.2454161159263351  0.5000256136741354  0.9992981370541030
  0.2427522525786008  0.4999581938418109  0.4995820121620715
  0.7556656808175567  0.0000177140493721  0.0016693681950989
  0.7612767348444921  0.9999618313052411  0.4971682433739840
  0.7545842921996049  0.5000250542715599  0.9993035625509604
  0.7572518711159305  0.5000002794305766  0.4995811152389615
  0.9999992449807521  0.2438898660965518  0.0060248858938801
  0.9999763953106120  0.2445214352958139  0.4945563504334268
  0.9999994036179378  0.7561484162616637  0.0060327696605734
  0.0000271509621659  0.7554770156263979  0.4945525559279060
  0.4999997318210100  0.2445272550030696  0.9918313399504068
  0.4999995725305458  0.7554526850483759  0.9918033978844246
  0.0000059995053822  0.0000178148866523  0.2482383526214371
  0.5000002805337993 -0.0000189062910927  0.7592906120041382
 
  0.00000000E+00  0.00000000E+00  0.00000000E+00
  0.00000000E+00  0.00000000E+00  0.00000000E+00
  0.00000000E+00  0.00000000E+00  0.00000000E+00
  0.00000000E+00  0.00000000E+00  0.00000000E+00
  0.00000000E+00  0.00000000E+00  0.00000000E+00
  0.00000000E+00  0.00000000E+00  0.00000000E+00
  0.00000000E+00  0.00000000E+00  0.00000000E+00
  0.00000000E+00  0.00000000E+00  0.00000000E+00
  0.00000000E+00  0.00000000E+00  0.00000000E+00
  0.00000000E+00  0.00000000E+00  0.00000000E+00
  0.00000000E+00  0.00000000E+00  0.00000000E+00
  0.00000000E+00  0.00000000E+00  0.00000000E+00
  0.00000000E+00  0.00000000E+00  0.00000000E+00
  0.00000000E+00  0.00000000E+00  0.00000000E+00
  0.00000000E+00  0.00000000E+00  0.00000000E+00
  0.00000000E+00  0.00000000E+00  0.00000000E+00
  0.00000000E+00  0.00000000E+00  0.00000000E+00
  0.00000000E+00  0.00000000E+00  0.00000000E+00
  0.00000000E+00  0.00000000E+00  0.00000000E+00
  0.00000000E+00  0.00000000E+00  0.00000000E+00
  0.00000000E+00  0.00000000E+00  0.00000000E+00
  0.00000000E+00  0.00000000E+00  0.00000000E+00
  0.00000000E+00  0.00000000E+00  0.00000000E+00
  0.00000000E+00  0.00000000E+00  0.00000000E+00
  0.00000000E+00  0.00000000E+00  0.00000000E+00
  0.00000000E+00  0.00000000E+00  0.00000000E+00
  0.00000000E+00  0.00000000E+00  0.00000000E+00
  0.00000000E+00  0.00000000E+00  0.00000000E+00
  0.00000000E+00  0.00000000E+00  0.00000000E+00
  0.00000000E+00  0.00000000E+00  0.00000000E+00
  0.00000000E+00  0.00000000E+00  0.00000000E+00
  0.00000000E+00  0.00000000E+00  0.00000000E+00
