TiOF2 2x2x2 config 0273                 
   1.00000000000000     
     7.8685415853062253   -0.0000024305987237   -0.0000005390594420
    -0.0000023565328671    7.6480629496856007   -0.0000012804379531
    -0.0000005273865364   -0.0000012818521450    7.6552871216206890
   Ti   O    F 
     8     8    16
Direct
  0.0000000089596028  0.9887256995425986  0.9880475777927202
  0.9999999893334461  0.9880856097699677  0.5118844016979409
  0.9999999986786747  0.5112742655568638  0.9880473473127935
  0.0000000038058587  0.5119139573236495  0.5118841540579737
  0.5000000014621406  0.9879577284689560  0.0118407055957519
  0.5000000092855217  0.0125683816884603  0.4882338637243464
  0.4999999750491213  0.5120423576048836  0.0118407865791283
  0.4999999969674320  0.4874320365540541  0.4882338892435527
  0.0000000218347225  0.7499994613003693  0.0071005853177013
  0.0000000103763469  0.7500006538366506  0.4928557424652524
  0.4999999884392707  0.2500000124203154  0.5056417502900388
  0.4999999824921844  0.7500003181307235  0.9940549600718782
  0.0000000133972051  0.0065142131716840  0.7500182649130736
  0.9999999829953410  0.4934855386031245  0.7500193441148397
  0.5000000057258518  0.9995016792308533  0.2499994843257767
  0.4999999990834780  0.5004985973192788  0.2499995696589465
  0.2500072158428353  0.0068188448556441  0.9999025177040224
  0.2500290248639203  0.9993558815915975  0.5001252112681343
  0.2500068887255651  0.4931808745101804  0.9999026163994387
  0.2500291871950964  0.5006441825514472  0.5001250729217404
  0.7499927828007671  0.0068188235881124  0.9999025099694592
  0.7499709793488307  0.9993558958303552  0.5001252236478635
  0.7499931112382114  0.4931809156617533  0.9999026088958871
  0.7499708130637401  0.5006441894523945  0.5001250357353655
  0.9999999896098259  0.2500000268286229  0.0094691156749960
  0.0000000149413779  0.2499999534096276  0.4908009581183705
  0.5000000099914388  0.2499999160795241  0.9894116650113745
  0.4999999820186503  0.7499999838437432  0.5105169429148333
  0.9999999648790237  0.0089352031273577  0.2500986044796321
  0.9999999952441385  0.4910645871351420  0.2500984174080116
  0.5000000250390144  0.9996370799780578  0.7498956831413182
  0.5000000273113443  0.5003631310340282  0.7498953895478451
 
  0.00000000E+00  0.00000000E+00  0.00000000E+00
  0.00000000E+00  0.00000000E+00  0.00000000E+00
  0.00000000E+00  0.00000000E+00  0.00000000E+00
  0.00000000E+00  0.00000000E+00  0.00000000E+00
  0.00000000E+00  0.00000000E+00  0.00000000E+00
  0.00000000E+00  0.00000000E+00  0.00000000E+00
  0.00000000E+00  0.00000000E+00  0.00000000E+00
  0.00000000E+00  0.00000000E+00  0.00000000E+00
  0.00000000E+00  0.00000000E+00  0.00000000E+00
  0.00000000E+00  0.00000000E+00  0.00000000E+00
  0.00000000E+00  0.00000000E+00  0.00000000E+00
  0.00000000E+00  0.00000000E+00  0.00000000E+00
  0.00000000E+00  0.00000000E+00  0.00000000E+00
  0.00000000E+00  0.00000000E+00  0.00000000E+00
  0.00000000E+00  0.00000000E+00  0.00000000E+00
  0.00000000E+00  0.00000000E+00  0.00000000E+00
  0.00000000E+00  0.00000000E+00  0.00000000E+00
  0.00000000E+00  0.00000000E+00  0.00000000E+00
  0.00000000E+00  0.00000000E+00  0.00000000E+00
  0.00000000E+00  0.00000000E+00  0.00000000E+00
  0.00000000E+00  0.00000000E+00  0.00000000E+00
  0.00000000E+00  0.00000000E+00  0.00000000E+00
  0.00000000E+00  0.00000000E+00  0.00000000E+00
  0.00000000E+00  0.00000000E+00  0.00000000E+00
  0.00000000E+00  0.00000000E+00  0.00000000E+00
  0.00000000E+00  0.00000000E+00  0.00000000E+00
  0.00000000E+00  0.00000000E+00  0.00000000E+00
  0.00000000E+00  0.00000000E+00  0.00000000E+00
  0.00000000E+00  0.00000000E+00  0.00000000E+00
  0.00000000E+00  0.00000000E+00  0.00000000E+00
  0.00000000E+00  0.00000000E+00  0.00000000E+00
  0.00000000E+00  0.00000000E+00  0.00000000E+00
