TiOF2 2x2x2 config 0273                 
   1.00000000000000     
     7.8685415853062253   -0.0000024305987237   -0.0000005390594420
    -0.0000023565328671    7.6480629496856007   -0.0000012804379531
    -0.0000005273865364   -0.0000012818521450    7.6552871216206890
   Ti   O    F 
     8     8    16
Direct
  1.0000000089596037  0.9887256995426019  0.9880475777927175
 -0.0000000106665504  0.9880856097699676  0.5118844016979377
  0.9999999986786777  0.5112742655568655  0.9880473473127925
  0.0000000038058620  0.5119139573236524  0.5118841540579768
  0.5000000014621420  0.9879577284689559  0.0118407055957550
  0.5000000092855248  0.0125683816884597  0.4882338637243485
  0.4999999750491186  0.5120423576048846  0.0118407865791284
  0.4999999969674339  0.4874320365540547  0.4882338892435509
  1.0000000218347191  0.7499994613003681  0.0071005853177000
  0.0000000103763504  0.7500006538366540  0.4928557424652525
  0.4999999884392705  0.2500000124203183  0.5056417502900395
  0.4999999824921841  0.7500003181307214  0.9940549600718771
  1.0000000133972058  0.0065142131716854  0.7500182649130765
  0.9999999829953395  0.4934855386031216  0.7500193441148425
  0.5000000057258497  0.9995016792308525  0.2499994843257756
  0.4999999990834751  0.5004985973192757  0.2499995696589439
  0.2500072158428372  0.0068188448556449  0.9999025177040237
  0.2500290248639229  0.9993558815916007  0.5001252112681348
  0.2500068887255616  0.4931808745101822  0.9999026163994390
  0.2500291871950993  0.5006441825514492  0.5001250729217438
  0.7499927828007659  0.0068188235881118  0.9999025099694563
  0.7499709793488334  0.9993558958303568  0.5001252236478630
  0.7499931112382114  0.4931809156617559  0.9999026088958857
  0.7499708130637407  0.5006441894523935  0.5001250357353667
  0.9999999896098276  0.2500000268286263  0.0094691156749972
  0.0000000149413772  0.2499999534096261  0.4908009581183714
  0.5000000099914360  0.2499999160795232  0.9894116650113749
  0.4999999820186537  0.7499999838437409  0.5105169429148353
 -0.0000000351209742  0.0089352031273567  0.2500986044796330
 -0.0000000047558632  0.4910645871351402  0.2500984174080099
  0.5000000250390151  0.9996370799780592  0.7498956831413156
  0.5000000273113427  0.5003631310340287  0.7498953895478419
 
  0.00000000E+00  0.00000000E+00  0.00000000E+00
  0.00000000E+00  0.00000000E+00  0.00000000E+00
  0.00000000E+00  0.00000000E+00  0.00000000E+00
  0.00000000E+00  0.00000000E+00  0.00000000E+00
  0.00000000E+00  0.00000000E+00  0.00000000E+00
  0.00000000E+00  0.00000000E+00  0.00000000E+00
  0.00000000E+00  0.00000000E+00  0.00000000E+00
  0.00000000E+00  0.00000000E+00  0.00000000E+00
  0.00000000E+00  0.00000000E+00  0.00000000E+00
  0.00000000E+00  0.00000000E+00  0.00000000E+00
  0.00000000E+00  0.00000000E+00  0.00000000E+00
  0.00000000E+00  0.00000000E+00  0.00000000E+00
  0.00000000E+00  0.00000000E+00  0.00000000E+00
  0.00000000E+00  0.00000000E+00  0.00000000E+00
  0.00000000E+00  0.00000000E+00  0.00000000E+00
  0.00000000E+00  0.00000000E+00  0.00000000E+00
  0.00000000E+00  0.00000000E+00  0.00000000E+00
  0.00000000E+00  0.00000000E+00  0.00000000E+00
  0.00000000E+00  0.00000000E+00  0.00000000E+00
  0.00000000E+00  0.00000000E+00  0.00000000E+00
  0.00000000E+00  0.00000000E+00  0.00000000E+00
  0.00000000E+00  0.00000000E+00  0.00000000E+00
  0.00000000E+00  0.00000000E+00  0.00000000E+00
  0.00000000E+00  0.00000000E+00  0.00000000E+00
  0.00000000E+00  0.00000000E+00  0.00000000E+00
  0.00000000E+00  0.00000000E+00  0.00000000E+00
  0.00000000E+00  0.00000000E+00  0.00000000E+00
  0.00000000E+00  0.00000000E+00  0.00000000E+00
  0.00000000E+00  0.00000000E+00  0.00000000E+00
  0.00000000E+00  0.00000000E+00  0.00000000E+00
  0.00000000E+00  0.00000000E+00  0.00000000E+00
  0.00000000E+00  0.00000000E+00  0.00000000E+00
