TiOF2 2x2x2 config 0281                 
   1.00000000000000     
     7.8725096088146111    0.0000000014194134    0.0000000072284508
    -0.0000000034246520    7.6464552292829504    0.0000001824660375
     0.0000000074330665    0.0000001799717337    7.6464602917570161
   Ti   O    F 
     8     8    16
Direct
  0.9999999997480131  0.9881646891757896  0.9881654874478656
  0.0000000002419043  0.9881653068982104  0.5118341143335741
  0.9999999997545501  0.5118317811174364  0.9881661146095624
  0.0000000002498268  0.5118323169692758  0.5118346473943660
  0.5000000002601226  0.0118385298193928  0.0118310242608004
  0.4999999997556017  0.0118386292561325  0.4881685969091620
  0.5000000002508003  0.4881694036503177  0.0118365996231731
  0.4999999997356710  0.4881695783854951  0.4881633842390585
  0.9999999975736955  0.7500050441035029  0.0068382099178521
  0.0000000024327349  0.7500032069131635  0.4931617458394228
  0.5000000024411904  0.2499880485440755  0.9931613108741359
  0.4999999975624050  0.2499875408349013  0.5068386440687718
  0.9999999999902514  0.0068382794372255  0.7500005438043544
  0.0000000000057412  0.4931620641241139  0.7499994656455797
  0.5000000000095710  0.9931621121818139  0.2500003978471668
  0.4999999999861515  0.5068376500402749  0.2499999516303859
  0.2500009317600345  0.0000000393255064  0.0000000844887182
  0.2500011774230586  0.0000000478711470  0.4999998366378335
  0.2499989944941134  0.5000001655381894  0.9999998451310148
  0.2499986741217484  0.5000001770398939  0.5000001465644672
  0.7499990682489823  0.0000000393416997  0.0000000845050039
  0.7499988225672780  0.0000000478733568  0.4999998366398728
  0.7500010055108817  0.5000001655445061  0.9999998451332459
  0.7500013258586620  0.5000001770468216  0.5000001465891657
  0.9999999950746812  0.2499985744366242  0.0091751309567627
  0.0000000049288360  0.2499989904751416  0.4908248814279474
  0.5000000049453988  0.7500032902416720  0.9908251394864749
  0.4999999950602430  0.7500034128908979  0.5091747926053500
  0.0000000000199734  0.0091749740590501  0.2499998513264856
  0.9999999999797637  0.4908244593616402  0.2500002960444050
  0.4999999999861160  0.9908247793626970  0.7499998617729062
  0.5000000000219984  0.5091764781400201  0.7499999822451144
 
  0.00000000E+00  0.00000000E+00  0.00000000E+00
  0.00000000E+00  0.00000000E+00  0.00000000E+00
  0.00000000E+00  0.00000000E+00  0.00000000E+00
  0.00000000E+00  0.00000000E+00  0.00000000E+00
  0.00000000E+00  0.00000000E+00  0.00000000E+00
  0.00000000E+00  0.00000000E+00  0.00000000E+00
  0.00000000E+00  0.00000000E+00  0.00000000E+00
  0.00000000E+00  0.00000000E+00  0.00000000E+00
  0.00000000E+00  0.00000000E+00  0.00000000E+00
  0.00000000E+00  0.00000000E+00  0.00000000E+00
  0.00000000E+00  0.00000000E+00  0.00000000E+00
  0.00000000E+00  0.00000000E+00  0.00000000E+00
  0.00000000E+00  0.00000000E+00  0.00000000E+00
  0.00000000E+00  0.00000000E+00  0.00000000E+00
  0.00000000E+00  0.00000000E+00  0.00000000E+00
  0.00000000E+00  0.00000000E+00  0.00000000E+00
  0.00000000E+00  0.00000000E+00  0.00000000E+00
  0.00000000E+00  0.00000000E+00  0.00000000E+00
  0.00000000E+00  0.00000000E+00  0.00000000E+00
  0.00000000E+00  0.00000000E+00  0.00000000E+00
  0.00000000E+00  0.00000000E+00  0.00000000E+00
  0.00000000E+00  0.00000000E+00  0.00000000E+00
  0.00000000E+00  0.00000000E+00  0.00000000E+00
  0.00000000E+00  0.00000000E+00  0.00000000E+00
  0.00000000E+00  0.00000000E+00  0.00000000E+00
  0.00000000E+00  0.00000000E+00  0.00000000E+00
  0.00000000E+00  0.00000000E+00  0.00000000E+00
  0.00000000E+00  0.00000000E+00  0.00000000E+00
  0.00000000E+00  0.00000000E+00  0.00000000E+00
  0.00000000E+00  0.00000000E+00  0.00000000E+00
  0.00000000E+00  0.00000000E+00  0.00000000E+00
  0.00000000E+00  0.00000000E+00  0.00000000E+00
