TiOF2 2x2x2 config 0281                 
   1.00000000000000     
     7.8725096088146111    0.0000000014194134    0.0000000072284508
    -0.0000000034246520    7.6464552292829504    0.0000001824660375
     0.0000000074330665    0.0000001799717337    7.6464602917570161
   Ti   O    F 
     8     8    16
Direct
 -0.0000000002519852 -0.0118353108242102 -0.0118345125521341
  0.0000000002419010 -0.0118346931017880  0.5118341143335732
 -0.0000000002454474  0.5118317811174369 -0.0118338853904361
  0.0000000002498281  0.5118323169692760  0.5118346473943696
  0.5000000002601255  0.0118385298193925  0.0118310242607986
  0.4999999997556018  0.0118386292561332  0.4881685969091637
  0.5000000002507980  0.4881694036503211  0.0118365996231702
  0.4999999997356676  0.4881695783854981  0.4881633842390565
 -0.0000000024263049  0.7500050441035030  0.0068382099178552
  0.0000000024327365  0.7500032069131628  0.4931617458394239
  0.5000000024411908  0.2499880485440772 -0.0068386891258614
  0.4999999975624044  0.2499875408349040  0.5068386440687709
 -0.0000000000097453  0.0068382794372224  0.7500005438043550
  0.0000000000057397  0.4931620641241172  0.7499994656455765
  0.5000000000095693 -0.0068378878181886  0.2500003978471678
  0.4999999999861481  0.5068376500402757  0.2499999516303838
  0.2500009317600330  0.0000000393255071  0.0000000844887201
  0.2500011774230577  0.0000000478711489  0.4999998366378370
  0.2499989944941154  0.5000001655381908 -0.0000001548689868
  0.2499986741217466  0.5000001770398939  0.5000001465644692
  0.7499990682489834  0.0000000393417010  0.0000000845050009
  0.7499988225672757  0.0000000478733533  0.4999998366398695
  0.7500010055108843  0.5000001655445088 -0.0000001548667560
  0.7500013258586612  0.5000001770468228  0.5000001465891648
 -0.0000000049253186  0.2499985744366245  0.0091751309567636
  0.0000000049288326  0.2499989904751440  0.4908248814279508
  0.5000000049454011  0.7500032902416693 -0.0091748605135248
  0.4999999950602426  0.7500034128909012  0.5091747926053513
  0.0000000000199768  0.0091749740590482  0.2499998513264846
 -0.0000000000202333  0.4908244593616370  0.2500002960444023
  0.4999999999861152 -0.0091752206373017  0.7499998617729078
  0.5000000000220003  0.5091764781400175  0.7499999822451124
 
  0.00000000E+00  0.00000000E+00  0.00000000E+00
  0.00000000E+00  0.00000000E+00  0.00000000E+00
  0.00000000E+00  0.00000000E+00  0.00000000E+00
  0.00000000E+00  0.00000000E+00  0.00000000E+00
  0.00000000E+00  0.00000000E+00  0.00000000E+00
  0.00000000E+00  0.00000000E+00  0.00000000E+00
  0.00000000E+00  0.00000000E+00  0.00000000E+00
  0.00000000E+00  0.00000000E+00  0.00000000E+00
  0.00000000E+00  0.00000000E+00  0.00000000E+00
  0.00000000E+00  0.00000000E+00  0.00000000E+00
  0.00000000E+00  0.00000000E+00  0.00000000E+00
  0.00000000E+00  0.00000000E+00  0.00000000E+00
  0.00000000E+00  0.00000000E+00  0.00000000E+00
  0.00000000E+00  0.00000000E+00  0.00000000E+00
  0.00000000E+00  0.00000000E+00  0.00000000E+00
  0.00000000E+00  0.00000000E+00  0.00000000E+00
  0.00000000E+00  0.00000000E+00  0.00000000E+00
  0.00000000E+00  0.00000000E+00  0.00000000E+00
  0.00000000E+00  0.00000000E+00  0.00000000E+00
  0.00000000E+00  0.00000000E+00  0.00000000E+00
  0.00000000E+00  0.00000000E+00  0.00000000E+00
  0.00000000E+00  0.00000000E+00  0.00000000E+00
  0.00000000E+00  0.00000000E+00  0.00000000E+00
  0.00000000E+00  0.00000000E+00  0.00000000E+00
  0.00000000E+00  0.00000000E+00  0.00000000E+00
  0.00000000E+00  0.00000000E+00  0.00000000E+00
  0.00000000E+00  0.00000000E+00  0.00000000E+00
  0.00000000E+00  0.00000000E+00  0.00000000E+00
  0.00000000E+00  0.00000000E+00  0.00000000E+00
  0.00000000E+00  0.00000000E+00  0.00000000E+00
  0.00000000E+00  0.00000000E+00  0.00000000E+00
  0.00000000E+00  0.00000000E+00  0.00000000E+00
