config 14                               
   1.00000000000000     
    15.4263309999999993    0.0000000000000000    0.0000000000000000
     0.0000000000000000   15.4263309999999993    0.0000000000000000
     0.0000000000000000    0.0000000000000000   15.4263309999999993
   Li   Ti   O    F 
     1    64    64   128
Direct
  0.0894627606373647  0.8706623760802580  0.3624498753499223
  0.9948536855364298  0.9964983900562805  0.9950940858523285
  0.0012019599664274  0.9964928854339336  0.4971600243521869
  0.0059031262701345  0.4959628761614652  0.9968053649301294
  0.9939511859677572  0.5027626459277075  0.5072209492681412
  0.4940418015177089  0.9940729299797663  0.0003747073692002
  0.4994338296725055  0.0079469490807450  0.4992264461843620
  0.5042892685398591  0.4953703772616663  0.9962206175939327
  0.4918852928062620  0.4977026387656048  0.4953311112990643
  0.0044797783243277  0.0046654284801258  0.2571090548675244
  0.0011154271864626  0.0086893570649129  0.7577394467910148
  0.9930905407121161  0.4942646210535636  0.2517464652205992
  0.9928224778351432  0.4990075639437739  0.7415616985611603
  0.5060283141560986  0.0081297442255461  0.2510241909893132
  0.4928019028197583  0.0052113108110331  0.7517696333489776
  0.4926904640847616  0.4971761900648017  0.2574113508519034
  0.5009702551630472  0.5041076042326251  0.7586278849459511
  0.9956126529459168  0.2578867374800075  0.0008257867789496
  0.9980976709025353  0.2492619846704901  0.4914355800674408
  0.9987017797485128  0.7590689928981290  0.0030963312764536
  0.0008434227302992  0.7605488027094349  0.5038514820525337
  0.4952034033937438  0.2580870794356229  0.0015569321891469
  0.5082209402128287  0.2444268357848712  0.4984552311201508
  0.5072945813651036  0.7563163109875723  0.9991783727702729
  0.5081107590197917  0.7510295882441653  0.5087073809692081
  0.9987130771556431  0.2582719703731949  0.2561198706317546
  0.0065907989650920  0.2427838591673109  0.7466290216488681
  0.0062075873645724  0.7481543856307271  0.2406089451206687
  0.9938488542183693  0.7524411773152269  0.7412270062801984
  0.5087109726603504  0.2424875678562029  0.2519845678102829
  0.5069043644275348  0.2431508287572214  0.7505262997066288
  0.5063447554152627  0.7519198910195758  0.2525411870512255
  0.5024403418953396  0.7419380832127898  0.7437779972480076
  0.2557166570115603  0.9981236098491508  0.0066712682236054
  0.2485575166851889  0.9934725941674957  0.5069556245061579
  0.2437924949729627  0.5077967133362179  0.9980712876312446
  0.2536886881225359  0.4929760717754523  0.5066698159796139
  0.7570484201655986  0.0005395682393270  0.9944785628312610
  0.7529495101298008  0.0065497917117866  0.4946585421800038
  0.7418646271797186  0.5006904626302191  0.0047043974078875
  0.7558775987990225  0.4968947753292225  0.5050974646574661
  0.2432536985436714  0.0002593916903376  0.2444210304150497
  0.2572674167095788  0.9974204006935022  0.7447582729506933
  0.2555295780933290  0.4925364342873395  0.2522403036067368
  0.2469939472372023  0.5057449019490040  0.7410293050415264
  0.7440876614904893 -0.0000198164741148  0.2561100732798310
  0.7485277954720836  0.0068789457427130  0.7559733874945415
  0.7556968987359983  0.4995500982332274  0.2423787750701183
  0.7573365584977714  0.4982387193102671  0.7422542747114643
  0.2573482438152326  0.2514362161981879  0.0062162501751784
  0.2521951031808920  0.2564624210976838  0.5054007719324507
  0.2524933589339272  0.7420785572709329  0.9945610392915060
  0.2513588137666068  0.7547442462135909  0.4943417514603123
  0.7572489062024397  0.2514624198972186  0.0071179801381895
  0.7446328699508694  0.2417472442636875  0.4974993880484078
  0.7421794459390030  0.7492642860513601  0.9932973663715667
  0.7428245715443483  0.7509605718828432  0.4933714629492250
  0.2515778059213106  0.2573474480797176  0.2440065210156450
  0.2439176957417940  0.2516668084307565  0.7438812627431201
  0.2432940195620309  0.7484875799781138  0.2574427154604231
  0.2488030604302725  0.7413547374139794  0.7574746954593170
  0.7422184230126323  0.2519014452301359  0.2421057696464229
  0.7443134916185647  0.2423866596518992  0.7505745951482542
  0.7452127013396108  0.7503040147865944  0.2566209525310852
  0.7585361092882114  0.7507397786720148  0.7559840487120018
  0.0083331267719555  0.4951633362751288  0.6244887941793805
  0.9941168924815982  0.0110232832427273  0.3724405729932697
  0.9968324509901162  0.0096264886619748  0.8738651258585359
  0.4994319683721151  0.4907828229996704  0.3751349426684165
  0.4940386931988008  0.4951967485949607  0.8749334288126557
  0.0059560441423910  0.7524820336762477  0.1248438383700370
  0.0056355825505364  0.7585353725233324  0.6240973149357314
  0.5060236727850120  0.7498714299836211  0.6246899703522398
  0.9924231476494911  0.2412587832741353  0.3763561190867633
  0.2500844913044207  0.0009322971626000  0.1258945420377789
  0.2510957448493041  0.9995830867121672  0.6256979721922986
  0.2386203409517295  0.4928364870804855  0.6259299796170054
  0.7504384864385591  0.4904723156468209  0.1254317428185875
  0.7456790128531512  0.4927765511393979  0.6239407426549228
  0.7541593888995944  0.0013288334812888  0.3754176386152501
  0.7488332283011937  0.0003880135813016  0.8737609956912147
  0.2448602448788995  0.2509373028844981  0.1260439275756420
  0.2501105091273611  0.2509839394002740  0.6251374519363990
  0.7414030329697906  0.2607883109075239  0.1260583738415590
  0.2581208704217470  0.7446370873540188  0.3752997696188523
  0.2564649788485890  0.7496310858596889  0.8760063289572015
  0.7565461767421972  0.7499595052264050  0.3734457701195642
  0.7530512223957571  0.7508743451127678  0.8753577357917962
  0.1246033655690749  0.5051914990892821  0.9944975072890933
  0.6258012636045344  0.5090565633809613  0.9981643017420148
  0.1255477617556972  0.9854261546882767  0.2599867743560338
  0.6244423835452706  0.9952601967095164  0.2530171489209239
  0.6249195619861714  0.2436540020866092  0.4923379732460927
  0.6245537688179269  0.7405203482223435  0.9987671735583027
  0.6251380295043839  0.7461807277438262  0.4915821704627579
  0.1246589638977873  0.2518359825556731  0.7513277468186790
  0.1242410128779791  0.7680228609815372  0.2640767220908083
  0.6256022832415108  0.2523445185947175  0.2630267429451528
  0.6255809210885873  0.2530919582435122  0.7495236695281478
  0.6226034700696984  0.7581433042198709  0.2547826575055770
  0.3756212223113981  0.9983381032098032  0.9960704822100596
  0.3752855956613774  0.4944187074017277  0.5043190813913091
  0.8729865557069779  0.0008358216537702  0.0036542123602975
  0.8754646845074711  0.4919482622796578  0.4990469714028400
  0.3759736593769071  0.9968724202281469  0.7539245606257838
  0.3737083267835225  0.5032071495983963  0.2486158898651635
  0.8756003409857943  0.5050809370569418  0.2519140649748123
  0.8752625947263821  0.5078521776862408  0.7457121862718841
  0.3759189569613063  0.2495048963541489  0.0053100404855944
  0.8742921389015031  0.2501330362874592  0.0062361648052287
  0.8752247243677259  0.7444137521283847  0.7451002330508164
  0.4954820357440534  0.1224917017710861  0.4920652899605203
  0.9971088060849366  0.1262929804822310  0.7372150746414113
  0.5015107038374477  0.1250893984355181  0.2650587376965615
  0.5016911259915243  0.1238039399403128  0.7503318909676941
  0.5019164142732324  0.6252549355642441  0.7524750649118931
  0.0016420025376978  0.3754938936979546  0.9976824554197483
  0.0027675092078080  0.8751380646848793  0.9949487065501627
  0.0241869392983815  0.8706230533814634  0.4774927329605947
  0.5045087458055318  0.3740711748769663  0.0092539927274275
  0.5055628673249281  0.8751480405711370  0.0063146213932099
 -0.0006690694610536  0.3743742189554654  0.2539499507610243
  0.2568080298437559  0.6250482661447608  0.0052621060572908
  0.7582249884015280  0.1253438015435064  0.5056932847544828
  0.2479612722341397  0.6244649347922361  0.7475979892331716
  0.7512395315714622  0.1250111892887682  0.7429543536719680
  0.2432811734746752  0.3724472386944030  0.4916636705438277
  0.2364052998008976  0.8745579685717827  0.4952765905609043
  0.2491668885457610  0.3743928877201032  0.2583748076409705
  0.0043914620036772  0.9957643621280566  0.1264594324589235
  0.0074484760492963  0.9881493904984109  0.6260494100234949
  0.0008218510553990  0.5022495783736427  0.1248996635033920
  0.4978543186431495  0.0098270684834247  0.1266700441145005
  0.5009002074503288  0.9983474213557956  0.6229771597368499
  0.5027623595326376  0.5089723749661307  0.1276234939418018
  0.5075246845882325  0.5024545911266384  0.6246356233889601
  0.0032453468841927  0.5050357356982011  0.3758480233927694
  0.9950792077755173  0.5051856640807630  0.8725253384430792
  0.4974089348265805  0.9863225982433358  0.3765573141321032
  0.5113286538193137  0.9968953930267084  0.8752466417790288
  0.0086241064203977  0.2531524133777298  0.1272494332817363
  0.0019436427477765  0.2652474237849085  0.6212763797071953
  0.5103072432588633  0.2368815613866001  0.1271226330715395
  0.4989676715878399  0.2447684683426289  0.6227965750284774
  0.5004212731603555  0.7434834688398101  0.1274230065910036
  0.9941614381596540  0.2440087070109754  0.8739930241911569
  0.9924526085721646  0.7409926737596217  0.3732404331244906
  0.9975732269948484  0.7446985572720725  0.8739024557544951
  0.4896043239873802  0.2649192285925285  0.3757264428389938
  0.4981435722168296  0.2544544315418871  0.8747746010350491
  0.4885909915119084  0.7570605081701762  0.3757056621697423
  0.4932857248192362  0.7548505614262992  0.8743431728456467
  0.2443645920030092  0.4926263237494314  0.1251838969152129
  0.7457941971988133  0.0010858052843238  0.1264572098362318
  0.7427130050945608  0.9952029959077885  0.6232621836822344
  0.2574638312094844  0.0011448480596448  0.3758827694921311
  0.2459083231240765  0.9964421971626166  0.8749580852159162
  0.2476891148809702  0.5128268475204615  0.3755035650715665
  0.2595735300262149  0.5002241353454008  0.8739338266068466
  0.7465030394395514  0.5074951917026278  0.3744359979522034
  0.7527852538279433  0.5068574806198844  0.8739882465149971
  0.2447869753249297  0.7555104732168902  0.1266914570169200
  0.2459909813699749  0.7535798606767009  0.6254056213994423
  0.7490865763822632  0.2621415950772105  0.6227841001258269
  0.7485561354102450  0.7503636368324906  0.1258614325173676
  0.7448200148663399  0.7497893389546616  0.6238763976858716
  0.2546257591312140  0.2408578452246761  0.3746971019168330
  0.2535581682167491  0.2488798665248517  0.8754365610157339
  0.7637033840790894  0.2424738072022854  0.3736143468973930
  0.7539927265346013  0.2436400320145132  0.8758576182377003
  0.1258326554576944  0.0032540429850623  0.9990628502439634
  0.1291544177022059  0.0210674312441300  0.4934470460134825
  0.1235505534429928  0.5088245785503671  0.4924852094502939
  0.6250213049228284  0.0035199099502122  0.0048750228851136
  0.6238870009751235  1.0011988555639761  0.4976693617510095
  0.6253899441136940  0.5040922846503598  0.4974128841033841
  0.1267920355066903  0.0004519748554652  0.7513908781784929
  0.1240198887595766  0.5001572979405041  0.2498869121620109
  0.1233325676485958  0.4937071049341391  0.7631713621393816
  0.6236946542727441  0.9947215258020218  0.7447295546179780
  0.6251715367090301  0.4949298425695185  0.2503007934498474
  0.6264969386036718  0.4927381650610942  0.7555944736905228
  0.1250675380727212  0.2483715960155361  0.9937440630649355
  0.1232837022296806  0.2364784862538092  0.4968611268675059
  0.1252200076384439  0.7437021545606287  0.9951969468569787
  0.1260660009607101  0.7315132197260077  0.4919520372050215
  0.6261306615149171  0.2471417052608610  0.9929700142533326
  0.1243918005973603  0.2453991865114698  0.2587181638493035
  0.1239774245699619  0.7538001181563614  0.7558877267915511
  0.6265393087983788  0.7546651396336893  0.7550424787986453
  0.3771627825664082  0.9895621037685431  0.5008514926199046
  0.3734943849494023  0.4941859445053671  0.0081075812409867
  0.8721290259351815  0.9836709996721600  0.5115776413237437
  0.8746879889335732  0.4966506425995276  0.9992423267500358
  0.3768479794290969  0.0023188182826459  0.2520795240787173
  0.3746840985196884  0.4984217882335749  0.7406049003771854
  0.8737949035209570  0.0039686464549682  0.2416794113154542
  0.8743774672762916  0.9943476660402323  0.7402867145641614
  0.3789915371913534  0.2546527856210687  0.5007381884183763
  0.3763094219524681  0.7582328700591671  0.0082389505684764
  0.3771101116620501  0.7571541203407592  0.5065182264481329
  0.8741783548489425  0.2640095585663500  0.5058336834022915
  0.8727225878295946  0.7558223164301411  0.0044708903940944
  0.8735148528297955  0.7615842911390470  0.5051909615496292
  0.3779656544227031  0.2490646290257505  0.2453693609330636
  0.3762356781044742  0.2493303901722205  0.7500716009176349
  0.3762456571060421  0.7427941136479564  0.2442158635002715
  0.3753594313371495  0.7544776520903006  0.7444246468304195
  0.8740908242893985  0.2474528428676832  0.2424036250023236
  0.8744017564881553  0.2540207476891501  0.7449785497082384
  0.8746654389094554  0.7429741975015646  0.2441104728551461
  0.0024292926597663  0.1272556080889532  0.0075429416244552
  0.9841048301938113  0.1295524429917952  0.5160301710320336
  0.9924302794554359  0.6257200378254352  1.0001444315218588
  0.9902966060470958  0.6269032887809143  0.5017435904651687
  0.5026914072102472  0.1244940623668037  0.9951853362596222
  0.4882736036411624  0.6273246984801636  0.9979271731719515
  0.4952557785071063  0.6259739038247321  0.4940538339697710
  0.0022503416757891  0.1283440807702214  0.2384474813439090
  0.0087814078055130  0.6236119049808418  0.2481879285779367
  0.0107179485814086  0.6253240272705458  0.7470284325075793
  0.5057471070986295  0.6262782223931483  0.2583668616175719
  0.0113857020769788  0.3746219009442406  0.4907063331434059
  0.5059506304666226  0.3716129123769507  0.5093720701276554
  0.5043199209302139  0.8775458363800078  0.5013253325965163
  0.9953479509633554  0.3746920386213512  0.7571576014210676
  0.9900340896636681  0.8746068756204295  0.2639938682359351
  0.9998278211784536  0.8765141722131196  0.7578979427106003
  0.4974108891178741  0.3717459200010445  0.2383487944325216
  0.4963450057174639  0.3732711962559556  0.7425920348816525
  0.4910871304443816  0.8758743014564955  0.2434574665076232
  0.5021299205533650  0.8751647375059172  0.7502369674586551
  0.2477318333976201  0.1246386203075083  0.9957109929229325
  0.2635205877825215  0.1237962816573614  0.4993588385208152
  0.2576024649784018  0.6257124578676219  0.5076392370526013
  0.7456017970738981  0.1262869520566047  0.0051959291550568
  0.7626075742458662  0.6255547273967703  0.0053367321358038
  0.7571520846696987  0.6253880428656420  0.5030123051517355
  0.2486183119256312  0.1251508975386327  0.2523433189053130
  0.2510700288880506  0.1242772987725401  0.7550458197600198
  0.2408679978807707  0.6245948788595371  0.2406313156914891
  0.7512728740477120  0.1260607764951135  0.2456976553176418
  0.7415816542552827  0.6254297820666327  0.2447518152799961
  0.7392646420103969  0.6250094352597654  0.7458775323958179
  0.2472772807785624  0.3759720101471284  0.9959171019575805
  0.2437260057898437  0.8734566425080583  0.0016502534177909
  0.7458721556097391  0.3751293131547709  0.9861291314241366
  0.7435282947099389  0.3723591800826549  0.4877957163304064
  0.7436016935777546  0.8748899633179997  0.0056358222868045
  0.7421152715910569  0.8761032438090410  0.5011247048060118
  0.2543255885610673  0.3758532472265381  0.7584762143241262
  0.2644663770698450  0.8745846912568679  0.2540777618322730
  0.2469066530570943  0.8731041535730572  0.7498440015998734
  0.7554670356825816  0.3745609673819080  0.2652204793231241
  0.7550588145519852  0.3739529982244829  0.7589174069512230
  0.7597250324992952  0.8750644564953027  0.2454993866067107
  0.7511725861909210  0.8753869929786432  0.7454632987642571
 
  0.00000000E+00  0.00000000E+00  0.00000000E+00
  0.00000000E+00  0.00000000E+00  0.00000000E+00
  0.00000000E+00  0.00000000E+00  0.00000000E+00
  0.00000000E+00  0.00000000E+00  0.00000000E+00
  0.00000000E+00  0.00000000E+00  0.00000000E+00
  0.00000000E+00  0.00000000E+00  0.00000000E+00
  0.00000000E+00  0.00000000E+00  0.00000000E+00
  0.00000000E+00  0.00000000E+00  0.00000000E+00
  0.00000000E+00  0.00000000E+00  0.00000000E+00
  0.00000000E+00  0.00000000E+00  0.00000000E+00
  0.00000000E+00  0.00000000E+00  0.00000000E+00
  0.00000000E+00  0.00000000E+00  0.00000000E+00
  0.00000000E+00  0.00000000E+00  0.00000000E+00
  0.00000000E+00  0.00000000E+00  0.00000000E+00
  0.00000000E+00  0.00000000E+00  0.00000000E+00
  0.00000000E+00  0.00000000E+00  0.00000000E+00
  0.00000000E+00  0.00000000E+00  0.00000000E+00
  0.00000000E+00  0.00000000E+00  0.00000000E+00
  0.00000000E+00  0.00000000E+00  0.00000000E+00
  0.00000000E+00  0.00000000E+00  0.00000000E+00
  0.00000000E+00  0.00000000E+00  0.00000000E+00
  0.00000000E+00  0.00000000E+00  0.00000000E+00
  0.00000000E+00  0.00000000E+00  0.00000000E+00
  0.00000000E+00  0.00000000E+00  0.00000000E+00
  0.00000000E+00  0.00000000E+00  0.00000000E+00
  0.00000000E+00  0.00000000E+00  0.00000000E+00
  0.00000000E+00  0.00000000E+00  0.00000000E+00
  0.00000000E+00  0.00000000E+00  0.00000000E+00
  0.00000000E+00  0.00000000E+00  0.00000000E+00
  0.00000000E+00  0.00000000E+00  0.00000000E+00
  0.00000000E+00  0.00000000E+00  0.00000000E+00
  0.00000000E+00  0.00000000E+00  0.00000000E+00
  0.00000000E+00  0.00000000E+00  0.00000000E+00
  0.00000000E+00  0.00000000E+00  0.00000000E+00
  0.00000000E+00  0.00000000E+00  0.00000000E+00
  0.00000000E+00  0.00000000E+00  0.00000000E+00
  0.00000000E+00  0.00000000E+00  0.00000000E+00
  0.00000000E+00  0.00000000E+00  0.00000000E+00
  0.00000000E+00  0.00000000E+00  0.00000000E+00
  0.00000000E+00  0.00000000E+00  0.00000000E+00
  0.00000000E+00  0.00000000E+00  0.00000000E+00
  0.00000000E+00  0.00000000E+00  0.00000000E+00
  0.00000000E+00  0.00000000E+00  0.00000000E+00
  0.00000000E+00  0.00000000E+00  0.00000000E+00
  0.00000000E+00  0.00000000E+00  0.00000000E+00
  0.00000000E+00  0.00000000E+00  0.00000000E+00
  0.00000000E+00  0.00000000E+00  0.00000000E+00
  0.00000000E+00  0.00000000E+00  0.00000000E+00
  0.00000000E+00  0.00000000E+00  0.00000000E+00
  0.00000000E+00  0.00000000E+00  0.00000000E+00
  0.00000000E+00  0.00000000E+00  0.00000000E+00
  0.00000000E+00  0.00000000E+00  0.00000000E+00
  0.00000000E+00  0.00000000E+00  0.00000000E+00
  0.00000000E+00  0.00000000E+00  0.00000000E+00
  0.00000000E+00  0.00000000E+00  0.00000000E+00
  0.00000000E+00  0.00000000E+00  0.00000000E+00
  0.00000000E+00  0.00000000E+00  0.00000000E+00
  0.00000000E+00  0.00000000E+00  0.00000000E+00
  0.00000000E+00  0.00000000E+00  0.00000000E+00
  0.00000000E+00  0.00000000E+00  0.00000000E+00
  0.00000000E+00  0.00000000E+00  0.00000000E+00
  0.00000000E+00  0.00000000E+00  0.00000000E+00
  0.00000000E+00  0.00000000E+00  0.00000000E+00
  0.00000000E+00  0.00000000E+00  0.00000000E+00
  0.00000000E+00  0.00000000E+00  0.00000000E+00
  0.00000000E+00  0.00000000E+00  0.00000000E+00
  0.00000000E+00  0.00000000E+00  0.00000000E+00
  0.00000000E+00  0.00000000E+00  0.00000000E+00
  0.00000000E+00  0.00000000E+00  0.00000000E+00
  0.00000000E+00  0.00000000E+00  0.00000000E+00
  0.00000000E+00  0.00000000E+00  0.00000000E+00
  0.00000000E+00  0.00000000E+00  0.00000000E+00
  0.00000000E+00  0.00000000E+00  0.00000000E+00
  0.00000000E+00  0.00000000E+00  0.00000000E+00
  0.00000000E+00  0.00000000E+00  0.00000000E+00
  0.00000000E+00  0.00000000E+00  0.00000000E+00
  0.00000000E+00  0.00000000E+00  0.00000000E+00
  0.00000000E+00  0.00000000E+00  0.00000000E+00
  0.00000000E+00  0.00000000E+00  0.00000000E+00
  0.00000000E+00  0.00000000E+00  0.00000000E+00
  0.00000000E+00  0.00000000E+00  0.00000000E+00
  0.00000000E+00  0.00000000E+00  0.00000000E+00
  0.00000000E+00  0.00000000E+00  0.00000000E+00
  0.00000000E+00  0.00000000E+00  0.00000000E+00
  0.00000000E+00  0.00000000E+00  0.00000000E+00
  0.00000000E+00  0.00000000E+00  0.00000000E+00
  0.00000000E+00  0.00000000E+00  0.00000000E+00
  0.00000000E+00  0.00000000E+00  0.00000000E+00
  0.00000000E+00  0.00000000E+00  0.00000000E+00
  0.00000000E+00  0.00000000E+00  0.00000000E+00
  0.00000000E+00  0.00000000E+00  0.00000000E+00
  0.00000000E+00  0.00000000E+00  0.00000000E+00
  0.00000000E+00  0.00000000E+00  0.00000000E+00
  0.00000000E+00  0.00000000E+00  0.00000000E+00
  0.00000000E+00  0.00000000E+00  0.00000000E+00
  0.00000000E+00  0.00000000E+00  0.00000000E+00
  0.00000000E+00  0.00000000E+00  0.00000000E+00
  0.00000000E+00  0.00000000E+00  0.00000000E+00
  0.00000000E+00  0.00000000E+00  0.00000000E+00
  0.00000000E+00  0.00000000E+00  0.00000000E+00
  0.00000000E+00  0.00000000E+00  0.00000000E+00
  0.00000000E+00  0.00000000E+00  0.00000000E+00
  0.00000000E+00  0.00000000E+00  0.00000000E+00
  0.00000000E+00  0.00000000E+00  0.00000000E+00
  0.00000000E+00  0.00000000E+00  0.00000000E+00
  0.00000000E+00  0.00000000E+00  0.00000000E+00
  0.00000000E+00  0.00000000E+00  0.00000000E+00
  0.00000000E+00  0.00000000E+00  0.00000000E+00
  0.00000000E+00  0.00000000E+00  0.00000000E+00
  0.00000000E+00  0.00000000E+00  0.00000000E+00
  0.00000000E+00  0.00000000E+00  0.00000000E+00
  0.00000000E+00  0.00000000E+00  0.00000000E+00
  0.00000000E+00  0.00000000E+00  0.00000000E+00
  0.00000000E+00  0.00000000E+00  0.00000000E+00
  0.00000000E+00  0.00000000E+00  0.00000000E+00
  0.00000000E+00  0.00000000E+00  0.00000000E+00
  0.00000000E+00  0.00000000E+00  0.00000000E+00
  0.00000000E+00  0.00000000E+00  0.00000000E+00
  0.00000000E+00  0.00000000E+00  0.00000000E+00
  0.00000000E+00  0.00000000E+00  0.00000000E+00
  0.00000000E+00  0.00000000E+00  0.00000000E+00
  0.00000000E+00  0.00000000E+00  0.00000000E+00
  0.00000000E+00  0.00000000E+00  0.00000000E+00
  0.00000000E+00  0.00000000E+00  0.00000000E+00
  0.00000000E+00  0.00000000E+00  0.00000000E+00
  0.00000000E+00  0.00000000E+00  0.00000000E+00
  0.00000000E+00  0.00000000E+00  0.00000000E+00
  0.00000000E+00  0.00000000E+00  0.00000000E+00
  0.00000000E+00  0.00000000E+00  0.00000000E+00
  0.00000000E+00  0.00000000E+00  0.00000000E+00
  0.00000000E+00  0.00000000E+00  0.00000000E+00
  0.00000000E+00  0.00000000E+00  0.00000000E+00
  0.00000000E+00  0.00000000E+00  0.00000000E+00
  0.00000000E+00  0.00000000E+00  0.00000000E+00
  0.00000000E+00  0.00000000E+00  0.00000000E+00
  0.00000000E+00  0.00000000E+00  0.00000000E+00
  0.00000000E+00  0.00000000E+00  0.00000000E+00
  0.00000000E+00  0.00000000E+00  0.00000000E+00
  0.00000000E+00  0.00000000E+00  0.00000000E+00
  0.00000000E+00  0.00000000E+00  0.00000000E+00
  0.00000000E+00  0.00000000E+00  0.00000000E+00
  0.00000000E+00  0.00000000E+00  0.00000000E+00
  0.00000000E+00  0.00000000E+00  0.00000000E+00
  0.00000000E+00  0.00000000E+00  0.00000000E+00
  0.00000000E+00  0.00000000E+00  0.00000000E+00
  0.00000000E+00  0.00000000E+00  0.00000000E+00
  0.00000000E+00  0.00000000E+00  0.00000000E+00
  0.00000000E+00  0.00000000E+00  0.00000000E+00
  0.00000000E+00  0.00000000E+00  0.00000000E+00
  0.00000000E+00  0.00000000E+00  0.00000000E+00
  0.00000000E+00  0.00000000E+00  0.00000000E+00
  0.00000000E+00  0.00000000E+00  0.00000000E+00
  0.00000000E+00  0.00000000E+00  0.00000000E+00
  0.00000000E+00  0.00000000E+00  0.00000000E+00
  0.00000000E+00  0.00000000E+00  0.00000000E+00
  0.00000000E+00  0.00000000E+00  0.00000000E+00
  0.00000000E+00  0.00000000E+00  0.00000000E+00
  0.00000000E+00  0.00000000E+00  0.00000000E+00
  0.00000000E+00  0.00000000E+00  0.00000000E+00
  0.00000000E+00  0.00000000E+00  0.00000000E+00
  0.00000000E+00  0.00000000E+00  0.00000000E+00
  0.00000000E+00  0.00000000E+00  0.00000000E+00
  0.00000000E+00  0.00000000E+00  0.00000000E+00
  0.00000000E+00  0.00000000E+00  0.00000000E+00
  0.00000000E+00  0.00000000E+00  0.00000000E+00
  0.00000000E+00  0.00000000E+00  0.00000000E+00
  0.00000000E+00  0.00000000E+00  0.00000000E+00
  0.00000000E+00  0.00000000E+00  0.00000000E+00
  0.00000000E+00  0.00000000E+00  0.00000000E+00
  0.00000000E+00  0.00000000E+00  0.00000000E+00
  0.00000000E+00  0.00000000E+00  0.00000000E+00
  0.00000000E+00  0.00000000E+00  0.00000000E+00
  0.00000000E+00  0.00000000E+00  0.00000000E+00
  0.00000000E+00  0.00000000E+00  0.00000000E+00
  0.00000000E+00  0.00000000E+00  0.00000000E+00
  0.00000000E+00  0.00000000E+00  0.00000000E+00
  0.00000000E+00  0.00000000E+00  0.00000000E+00
  0.00000000E+00  0.00000000E+00  0.00000000E+00
  0.00000000E+00  0.00000000E+00  0.00000000E+00
  0.00000000E+00  0.00000000E+00  0.00000000E+00
  0.00000000E+00  0.00000000E+00  0.00000000E+00
  0.00000000E+00  0.00000000E+00  0.00000000E+00
  0.00000000E+00  0.00000000E+00  0.00000000E+00
  0.00000000E+00  0.00000000E+00  0.00000000E+00
  0.00000000E+00  0.00000000E+00  0.00000000E+00
  0.00000000E+00  0.00000000E+00  0.00000000E+00
  0.00000000E+00  0.00000000E+00  0.00000000E+00
  0.00000000E+00  0.00000000E+00  0.00000000E+00
  0.00000000E+00  0.00000000E+00  0.00000000E+00
  0.00000000E+00  0.00000000E+00  0.00000000E+00
  0.00000000E+00  0.00000000E+00  0.00000000E+00
  0.00000000E+00  0.00000000E+00  0.00000000E+00
  0.00000000E+00  0.00000000E+00  0.00000000E+00
  0.00000000E+00  0.00000000E+00  0.00000000E+00
  0.00000000E+00  0.00000000E+00  0.00000000E+00
  0.00000000E+00  0.00000000E+00  0.00000000E+00
  0.00000000E+00  0.00000000E+00  0.00000000E+00
  0.00000000E+00  0.00000000E+00  0.00000000E+00
  0.00000000E+00  0.00000000E+00  0.00000000E+00
  0.00000000E+00  0.00000000E+00  0.00000000E+00
  0.00000000E+00  0.00000000E+00  0.00000000E+00
  0.00000000E+00  0.00000000E+00  0.00000000E+00
  0.00000000E+00  0.00000000E+00  0.00000000E+00
  0.00000000E+00  0.00000000E+00  0.00000000E+00
  0.00000000E+00  0.00000000E+00  0.00000000E+00
  0.00000000E+00  0.00000000E+00  0.00000000E+00
  0.00000000E+00  0.00000000E+00  0.00000000E+00
  0.00000000E+00  0.00000000E+00  0.00000000E+00
  0.00000000E+00  0.00000000E+00  0.00000000E+00
  0.00000000E+00  0.00000000E+00  0.00000000E+00
  0.00000000E+00  0.00000000E+00  0.00000000E+00
  0.00000000E+00  0.00000000E+00  0.00000000E+00
  0.00000000E+00  0.00000000E+00  0.00000000E+00
  0.00000000E+00  0.00000000E+00  0.00000000E+00
  0.00000000E+00  0.00000000E+00  0.00000000E+00
  0.00000000E+00  0.00000000E+00  0.00000000E+00
  0.00000000E+00  0.00000000E+00  0.00000000E+00
  0.00000000E+00  0.00000000E+00  0.00000000E+00
  0.00000000E+00  0.00000000E+00  0.00000000E+00
  0.00000000E+00  0.00000000E+00  0.00000000E+00
  0.00000000E+00  0.00000000E+00  0.00000000E+00
  0.00000000E+00  0.00000000E+00  0.00000000E+00
  0.00000000E+00  0.00000000E+00  0.00000000E+00
  0.00000000E+00  0.00000000E+00  0.00000000E+00
  0.00000000E+00  0.00000000E+00  0.00000000E+00
  0.00000000E+00  0.00000000E+00  0.00000000E+00
  0.00000000E+00  0.00000000E+00  0.00000000E+00
  0.00000000E+00  0.00000000E+00  0.00000000E+00
  0.00000000E+00  0.00000000E+00  0.00000000E+00
  0.00000000E+00  0.00000000E+00  0.00000000E+00
  0.00000000E+00  0.00000000E+00  0.00000000E+00
  0.00000000E+00  0.00000000E+00  0.00000000E+00
  0.00000000E+00  0.00000000E+00  0.00000000E+00
  0.00000000E+00  0.00000000E+00  0.00000000E+00
  0.00000000E+00  0.00000000E+00  0.00000000E+00
  0.00000000E+00  0.00000000E+00  0.00000000E+00
  0.00000000E+00  0.00000000E+00  0.00000000E+00
  0.00000000E+00  0.00000000E+00  0.00000000E+00
  0.00000000E+00  0.00000000E+00  0.00000000E+00
  0.00000000E+00  0.00000000E+00  0.00000000E+00
  0.00000000E+00  0.00000000E+00  0.00000000E+00
  0.00000000E+00  0.00000000E+00  0.00000000E+00
  0.00000000E+00  0.00000000E+00  0.00000000E+00
  0.00000000E+00  0.00000000E+00  0.00000000E+00
  0.00000000E+00  0.00000000E+00  0.00000000E+00
  0.00000000E+00  0.00000000E+00  0.00000000E+00
  0.00000000E+00  0.00000000E+00  0.00000000E+00
  0.00000000E+00  0.00000000E+00  0.00000000E+00
  0.00000000E+00  0.00000000E+00  0.00000000E+00
  0.00000000E+00  0.00000000E+00  0.00000000E+00
  0.00000000E+00  0.00000000E+00  0.00000000E+00
  0.00000000E+00  0.00000000E+00  0.00000000E+00
  0.00000000E+00  0.00000000E+00  0.00000000E+00
  0.00000000E+00  0.00000000E+00  0.00000000E+00
  0.00000000E+00  0.00000000E+00  0.00000000E+00
  0.00000000E+00  0.00000000E+00  0.00000000E+00
  0.00000000E+00  0.00000000E+00  0.00000000E+00
