TiOF2 2x2x2 config 0257                 
   1.00000000000000     
     7.8617079733681416    0.0000000004867634    0.0000000058435187
    -0.0000000006279525    7.6541572316392044   -0.0000000075284006
     0.0000000076830697   -0.0000000081106457    7.6600050344594246
   Ti   O    F 
     8     8    16
Direct
  0.0000000001765631 -0.0112858529014275 -0.0127087722433212
 -0.0000000002078486 -0.0112858527526421  0.5127087745437465
 -0.0000000001835097  0.5112856948079907  0.0127087584382477
  0.0000000002067395  0.5112856948877248  0.4872912403180118
  0.4999999998034774 -0.0112857624772904  0.0127088343859530
  0.5000000001700047 -0.0112857628094621  0.4872911659803696
  0.5000000001952681  0.5112859467411257 -0.0127088208327686
  0.4999999998247784  0.5112859465010762  0.5127088186285795
  0.0000000000005727  0.7499999428385752  0.0000000271143149
 -0.0000000000021165  0.7499999402855926  0.4999999741963434
  0.4999999999935579  0.7500000650763391  0.0000001668403963
  0.5000000000040794  0.7500000638932965  0.4999998315993515
 -0.0000000000282501  0.0045342370268788  0.7500000061235141
  0.0000000000316191  0.4954655254336879  0.2499999972838837
  0.4999999999711941  0.0045345321093647  0.2500000034692795
  0.5000000000306746  0.4954660206307723  0.7499999946363277
  0.2500000448990865  0.0061736936644115  0.0000000462507956
  0.2500000463624199  0.0061736937293846  0.5000000004088767
  0.2500000667514148  0.4938262648490774 -0.0000000147886064
  0.2500000675517253  0.4938262642822611  0.4999999683496145
  0.7499999550829741  0.0061736935443012  0.0000000462502223
  0.7499999536160465  0.0061736938413445  0.5000000003916436
  0.7499999332663567  0.4938262647370619 -0.0000000147930807
  0.7499999324736990  0.4938262643736264  0.4999999683466667
 -0.0000000000077115  0.2499999260259592 -0.0000000278021390
  0.0000000000058896  0.2499999267849444  0.5000000290823323
  0.5000000000051303  0.2500000718453068 -0.0000001512979634
  0.4999999999902812  0.2500000719208899  0.5000001497542230
  0.0000000000113040  0.0087073171284323  0.2500000066323872
  0.0000000000005986  0.4912925481261817  0.7499999935668974
  0.4999999999995622  0.0087072317275473  0.7500000059539158
  0.5000000000044195  0.4912926941276676  0.2499999932119847
 
  0.00000000E+00  0.00000000E+00  0.00000000E+00
  0.00000000E+00  0.00000000E+00  0.00000000E+00
  0.00000000E+00  0.00000000E+00  0.00000000E+00
  0.00000000E+00  0.00000000E+00  0.00000000E+00
  0.00000000E+00  0.00000000E+00  0.00000000E+00
  0.00000000E+00  0.00000000E+00  0.00000000E+00
  0.00000000E+00  0.00000000E+00  0.00000000E+00
  0.00000000E+00  0.00000000E+00  0.00000000E+00
  0.00000000E+00  0.00000000E+00  0.00000000E+00
  0.00000000E+00  0.00000000E+00  0.00000000E+00
  0.00000000E+00  0.00000000E+00  0.00000000E+00
  0.00000000E+00  0.00000000E+00  0.00000000E+00
  0.00000000E+00  0.00000000E+00  0.00000000E+00
  0.00000000E+00  0.00000000E+00  0.00000000E+00
  0.00000000E+00  0.00000000E+00  0.00000000E+00
  0.00000000E+00  0.00000000E+00  0.00000000E+00
  0.00000000E+00  0.00000000E+00  0.00000000E+00
  0.00000000E+00  0.00000000E+00  0.00000000E+00
  0.00000000E+00  0.00000000E+00  0.00000000E+00
  0.00000000E+00  0.00000000E+00  0.00000000E+00
  0.00000000E+00  0.00000000E+00  0.00000000E+00
  0.00000000E+00  0.00000000E+00  0.00000000E+00
  0.00000000E+00  0.00000000E+00  0.00000000E+00
  0.00000000E+00  0.00000000E+00  0.00000000E+00
  0.00000000E+00  0.00000000E+00  0.00000000E+00
  0.00000000E+00  0.00000000E+00  0.00000000E+00
  0.00000000E+00  0.00000000E+00  0.00000000E+00
  0.00000000E+00  0.00000000E+00  0.00000000E+00
  0.00000000E+00  0.00000000E+00  0.00000000E+00
  0.00000000E+00  0.00000000E+00  0.00000000E+00
  0.00000000E+00  0.00000000E+00  0.00000000E+00
  0.00000000E+00  0.00000000E+00  0.00000000E+00
