TiOF2 2x2x2 config 2663
   1.00000000000000     
     7.7632141657203224    0.0009495919432260    0.0009494125221596
     0.0009419439530870    7.7074088820076012   -0.0050194695842878
     0.0009414795065361   -0.0050194573691580    7.7074084860454297
   Ti   O    F 
     8     8    16
Direct
  0.9849357249808719  0.0003834686955742  0.9875306619616708
  0.0001751734418605  0.9857352826132342  0.5125404099073450
  0.9998952433927357  0.5003620824030008  0.9805638247602531
  0.0107734130917478  0.5111739011091672  0.5015700984401761
  0.5107733251771194  0.0015701100005430  0.0111740041917301
  0.5001750729522740  0.0125404084286842  0.4857353570157414
  0.4998952264296364  0.4805640417825856  0.0003620771176926
  0.4849356678433665  0.4875306810058078  0.5003834798834745
  0.2507722021132111  0.4996013187860697  0.4986089729577046
  0.7507721230496571  0.9986089784830483  0.9996014077019950
  0.9982956850717954  0.7501915114361069  0.4968601544410163
  0.4982634115846309  0.2549265410211348  0.9975050932936540
  0.5015929361726421  0.2513427449620451  0.5020681699968890
  0.0015929033597644  0.0020680725411850  0.7513427727424471
  0.9982633992753307  0.4975050885863865  0.7549267217096443
  0.4982946390690444  0.9968605393637588  0.2501914462060881
  0.2484686217382972  0.9977306850250400  0.0000772867866345
  0.2501169543416992  0.0003004220008620  0.5003777910927738
  0.2501644425965921  0.5045895673712906  0.0046332652154319
  0.7501169822608631  0.0003777203603121  0.5003004239360251
  0.7501645255170430  0.5046333173900877  0.0045895334319894
  0.7484686242302416  0.5000772908670399  0.4977306837145079
  0.0052676627435844  0.2532969944104835  0.0108913642448201
  0.9958614023947234  0.2488198472582681  0.4942197115456395
  0.0045383719624184  0.7474941918788858  0.0123668417476424
  0.4968592920714343  0.7438655067786613  0.9963710344013492
  0.5040201440309886  0.7501564672264962  0.5038443241285506
  0.0040201119913448  0.0038443467906433  0.2501564850374578
  0.9968592965711380  0.4963709300817030  0.2438654370535858
  0.4958613971272214  0.9942197164855031  0.7488199663766153
  0.5045383651742696  0.5123667836856214  0.2474942250633347
  0.5052676582424453  0.5108914411707701  0.7532969738961341
 
  0.00000000E+00  0.00000000E+00  0.00000000E+00
  0.00000000E+00  0.00000000E+00  0.00000000E+00
  0.00000000E+00  0.00000000E+00  0.00000000E+00
  0.00000000E+00  0.00000000E+00  0.00000000E+00
  0.00000000E+00  0.00000000E+00  0.00000000E+00
  0.00000000E+00  0.00000000E+00  0.00000000E+00
  0.00000000E+00  0.00000000E+00  0.00000000E+00
  0.00000000E+00  0.00000000E+00  0.00000000E+00
  0.00000000E+00  0.00000000E+00  0.00000000E+00
  0.00000000E+00  0.00000000E+00  0.00000000E+00
  0.00000000E+00  0.00000000E+00  0.00000000E+00
  0.00000000E+00  0.00000000E+00  0.00000000E+00
  0.00000000E+00  0.00000000E+00  0.00000000E+00
  0.00000000E+00  0.00000000E+00  0.00000000E+00
  0.00000000E+00  0.00000000E+00  0.00000000E+00
  0.00000000E+00  0.00000000E+00  0.00000000E+00
  0.00000000E+00  0.00000000E+00  0.00000000E+00
  0.00000000E+00  0.00000000E+00  0.00000000E+00
  0.00000000E+00  0.00000000E+00  0.00000000E+00
  0.00000000E+00  0.00000000E+00  0.00000000E+00
  0.00000000E+00  0.00000000E+00  0.00000000E+00
  0.00000000E+00  0.00000000E+00  0.00000000E+00
  0.00000000E+00  0.00000000E+00  0.00000000E+00
  0.00000000E+00  0.00000000E+00  0.00000000E+00
  0.00000000E+00  0.00000000E+00  0.00000000E+00
  0.00000000E+00  0.00000000E+00  0.00000000E+00
  0.00000000E+00  0.00000000E+00  0.00000000E+00
  0.00000000E+00  0.00000000E+00  0.00000000E+00
  0.00000000E+00  0.00000000E+00  0.00000000E+00
  0.00000000E+00  0.00000000E+00  0.00000000E+00
  0.00000000E+00  0.00000000E+00  0.00000000E+00
  0.00000000E+00  0.00000000E+00  0.00000000E+00
