TiOF2 2x2x2 config 0006                 
   1.00000000000000     
     7.8977275431728771    0.0011781926590378   -0.0001428745992691
    -0.0012002669355476    7.7946280256493141   -0.0006129796354281
     0.0001682457546776   -0.0002422970082519    7.5337961140973109
   Ti   O    F 
     8     8    16
Direct
  0.9999980842264914  0.0003696522865654  0.9884609344647106
  0.0000103968754881  0.0003828313926062  0.5096744088985421
  0.9999950741267790  0.5000502038450890  0.0149671149021818
  0.0000014400420918  0.5000743320610465  0.5141947206319528
  0.4999936460847326  0.9831276826929657  0.9890558474989436
  0.5000061039834444  0.9831991805770636  0.5098971322813720
  0.4999941371293021  0.5070435712674972  0.9986229156284356
  0.5000015835629424  0.5071307897336125  0.4979151913292691
  0.4999878657154742  0.7554429275801133  0.0029461931999267
  0.5000008495765712  0.7555041589383420  0.4956787877168002
  0.0000329104025130  0.9996204861104996  0.7490326683759327
  0.9999982476872664  0.5009266460795673  0.2503496049059123
  0.9999968514303645  0.5013006192263374  0.7501316721960332
  0.4999811008347592  0.0102356064047509  0.7494595658013047
  0.4999967016453922  0.4962134268026454  0.2487656471617512
  0.5000005147919487  0.4950175566499931  0.7487879182138599
  0.2415199100637327  0.0012013950675517  0.0071757028417831
  0.2415599612680292  0.0012189262717721  0.4914138796873297
  0.2443407878861747  0.4983145037981697  0.9976974036590139
  0.2444189157930934  0.4982876301819370  0.4981595577627605
  0.7584732857354304  0.0011953692271556  0.0071295679282492
  0.7584555449566036  0.0012088384510704  0.4914739108188661
  0.7556492319817626  0.4983231589108100  0.9977013073533658
  0.7555839069879144  0.4982981860929654  0.4981568393852659
  0.9999869280262360  0.2444156999712658  0.0037640055830306
  0.9999994543827279  0.2446722187798124  0.4943146505501830
  1.0000004457433389  0.7561055236335417  0.0039661755370525
  0.0000125334859997  0.7558577251373593  0.4939426797356153
  0.4999844758467402  0.2451717732359621  0.0041503447285865
  0.5000089155452232  0.2451398178753992  0.4944749701045968
  0.9999773495982930  1.0000179757608219  0.2491085840361717
  0.5000328445832436  0.0149315859557607  0.2494300970811129
 
  0.00000000E+00  0.00000000E+00  0.00000000E+00
  0.00000000E+00  0.00000000E+00  0.00000000E+00
  0.00000000E+00  0.00000000E+00  0.00000000E+00
  0.00000000E+00  0.00000000E+00  0.00000000E+00
  0.00000000E+00  0.00000000E+00  0.00000000E+00
  0.00000000E+00  0.00000000E+00  0.00000000E+00
  0.00000000E+00  0.00000000E+00  0.00000000E+00
  0.00000000E+00  0.00000000E+00  0.00000000E+00
  0.00000000E+00  0.00000000E+00  0.00000000E+00
  0.00000000E+00  0.00000000E+00  0.00000000E+00
  0.00000000E+00  0.00000000E+00  0.00000000E+00
  0.00000000E+00  0.00000000E+00  0.00000000E+00
  0.00000000E+00  0.00000000E+00  0.00000000E+00
  0.00000000E+00  0.00000000E+00  0.00000000E+00
  0.00000000E+00  0.00000000E+00  0.00000000E+00
  0.00000000E+00  0.00000000E+00  0.00000000E+00
  0.00000000E+00  0.00000000E+00  0.00000000E+00
  0.00000000E+00  0.00000000E+00  0.00000000E+00
  0.00000000E+00  0.00000000E+00  0.00000000E+00
  0.00000000E+00  0.00000000E+00  0.00000000E+00
  0.00000000E+00  0.00000000E+00  0.00000000E+00
  0.00000000E+00  0.00000000E+00  0.00000000E+00
  0.00000000E+00  0.00000000E+00  0.00000000E+00
  0.00000000E+00  0.00000000E+00  0.00000000E+00
  0.00000000E+00  0.00000000E+00  0.00000000E+00
  0.00000000E+00  0.00000000E+00  0.00000000E+00
  0.00000000E+00  0.00000000E+00  0.00000000E+00
  0.00000000E+00  0.00000000E+00  0.00000000E+00
  0.00000000E+00  0.00000000E+00  0.00000000E+00
  0.00000000E+00  0.00000000E+00  0.00000000E+00
  0.00000000E+00  0.00000000E+00  0.00000000E+00
  0.00000000E+00  0.00000000E+00  0.00000000E+00
