TiOF2 2x2x2 config 1788                 
   1.00000000000000     
     7.7797243661225775    0.0010130351161696    0.0021495377287932
     0.0009817823263067    7.6818751725949159    0.0018955712105212
     0.0020933082061208    0.0018475371749200    7.7477928865844037
   Ti   O    F 
     8     8    16
Direct
  0.0002562794311061  0.0003180447262210  0.9754763186402755
  0.9832596037815904  0.9944637098017353  0.4985298977673693
  0.9969725736070245  0.4997145913173995  0.0204592464277553
  0.0006701019755155  0.5176189110610068  0.4955927710556836
  0.4988448435702040  0.9997386491079112  0.0209190377067614
  0.5088227736122235  0.9988363247468683  0.4995128739598869
  0.5218727484954471  0.4997834334512490  0.9988437005025759
  0.4992189783712107  0.4981581848220742  0.5001361517730700
  0.7521568925984852  0.0018302317163545  0.4984044906956768
  0.7484699197294802  0.5000038842092991  0.0000530016858420
  0.0012788668162074  0.7481595933308398  0.4988952435445881
  0.4999189109578808  0.2550625312291785  0.5004099887370117
  0.5002202092342714  0.7429537007652129  0.5004277358171834
  0.9995906670937913  0.0019378346110699  0.7528576641747478
  0.0011848671998038  0.4995145440637003  0.2480864152867781
  0.4992032208118431  0.9993595285361323  0.2427839290224298
  0.2492943568407071  0.9995941553014447  0.9992115552064362
  0.2468967885730606  0.0025052210545624  0.4985949515286379
  0.2527198679446769  0.5001425867734781  0.9981944393458875
  0.2474903440463763  0.4946414631804359  0.5055352895059428
  0.7498117169417355  0.9996372491812906  0.9992561807822113
  0.7526548075583790  0.4934658557260718  0.5065468740204579
  0.0041146039797511  0.2492308102498271  0.9994963168296280
  0.0039260365267566  0.2535902361516449  0.4992385396646526
  0.0038441919023242  0.7509188631195869  0.9991986875624335
  0.4946603018367099  0.2511442807466153  0.9947672752313537
  0.4946327958821470  0.7483447321995200  0.9946753726279169
  0.0012709852838668  0.0032284793878006  0.2390656739997468
  0.0023256919352050  0.4976272688669354  0.7554018962020166
  0.4981408097448323  0.9994120786293692  0.7606259510748288
  0.4926505388020885  0.4995429819928958  0.2428475049380765
  0.4936247049152911  0.4995200399422970  0.7559550246821587
 
  0.00000000E+00  0.00000000E+00  0.00000000E+00
  0.00000000E+00  0.00000000E+00  0.00000000E+00
  0.00000000E+00  0.00000000E+00  0.00000000E+00
  0.00000000E+00  0.00000000E+00  0.00000000E+00
  0.00000000E+00  0.00000000E+00  0.00000000E+00
  0.00000000E+00  0.00000000E+00  0.00000000E+00
  0.00000000E+00  0.00000000E+00  0.00000000E+00
  0.00000000E+00  0.00000000E+00  0.00000000E+00
  0.00000000E+00  0.00000000E+00  0.00000000E+00
  0.00000000E+00  0.00000000E+00  0.00000000E+00
  0.00000000E+00  0.00000000E+00  0.00000000E+00
  0.00000000E+00  0.00000000E+00  0.00000000E+00
  0.00000000E+00  0.00000000E+00  0.00000000E+00
  0.00000000E+00  0.00000000E+00  0.00000000E+00
  0.00000000E+00  0.00000000E+00  0.00000000E+00
  0.00000000E+00  0.00000000E+00  0.00000000E+00
  0.00000000E+00  0.00000000E+00  0.00000000E+00
  0.00000000E+00  0.00000000E+00  0.00000000E+00
  0.00000000E+00  0.00000000E+00  0.00000000E+00
  0.00000000E+00  0.00000000E+00  0.00000000E+00
  0.00000000E+00  0.00000000E+00  0.00000000E+00
  0.00000000E+00  0.00000000E+00  0.00000000E+00
  0.00000000E+00  0.00000000E+00  0.00000000E+00
  0.00000000E+00  0.00000000E+00  0.00000000E+00
  0.00000000E+00  0.00000000E+00  0.00000000E+00
  0.00000000E+00  0.00000000E+00  0.00000000E+00
  0.00000000E+00  0.00000000E+00  0.00000000E+00
  0.00000000E+00  0.00000000E+00  0.00000000E+00
  0.00000000E+00  0.00000000E+00  0.00000000E+00
  0.00000000E+00  0.00000000E+00  0.00000000E+00
  0.00000000E+00  0.00000000E+00  0.00000000E+00
  0.00000000E+00  0.00000000E+00  0.00000000E+00
