TiOF2 2x2x2 config 0003                 
   1.00000000000000     
     7.9195825159221087   -0.0002465163155024   -0.0000024303894830
    -0.0001721788988274    7.8256842625548959   -0.0000032394152178
    -0.0000025054749401   -0.0000029470911895    7.5553542533808109
   Ti   O    F 
     8     8    16
Direct
  0.0000009703126716  0.0004477267208839 -0.0000193465052937
  0.9999975413790990  0.0003988965302871  0.5000013280329872
  0.9999964998754142  0.4999747102325767  0.0000052200984714
  0.0000030549954223  0.4999342747973647  0.5000099964170411
  0.4999997238451804  0.9878606516861757  0.9999997371475929
  0.4999987533130917  0.9886987676778304  0.5000004460724130
  0.4999961398061048  0.5099589655668746  0.0000001584302688
  0.5000018879704310  0.5101691790502207  0.5000002845864215
  0.4999933295315837  0.7513998309231600  0.9999999293806544
  0.5000273876258919  0.7511959587361926  0.5000002468513322
  0.9999976526579676  0.5010739873353826  0.2476177716878341
  0.9999972602144289  0.5010750187931341  0.7523762849683920
  0.5000002487036729  0.9999704043845689  0.2490031463883119
  0.5000005466633697  0.9999704394482307  0.7509970688592763
  0.4999982986329862  0.5012318016967439  0.2497321011893256
  0.4999983088728873  0.5012317256447424  0.7502676174765661
  0.2379970658155217  0.0019569469676900  0.0000002038835707
  0.2437953787423672  0.0027465756778803  0.5000002068657164
  0.2456752255537760  0.4968624448070063  0.9999990485709106
  0.2459661290810934  0.4971213974771744  0.4999990866687670
  0.7620048747326588  0.0019516068672193  0.0000000407489569
  0.7562050273417372  0.0028503304208824  0.4999991505143139
  0.7543181169404343  0.4968686372313141  0.9999990784407189
  0.7540357935089254  0.4971774936604138  0.4999990858232050
 -0.0000029542625757  0.2424453448653406  0.9999985675714310
  0.9999498491233758  0.2524095429973770  0.4999994797628779
  0.0000034883272807  0.7581229800047281  0.0000006001937910
  0.0000708559379717  0.7480785428576509  0.4999974958693738
  0.5000005287063110  0.2482337084054060  0.0000000654478715
  0.4999714821088726  0.2490540212151697  0.5000001213394339
  0.0000003409236863  0.9997652088582858  0.2432234783998953
  0.0000011930183102  0.9997628784620922  0.7567922988175224
 
  0.00000000E+00  0.00000000E+00  0.00000000E+00
  0.00000000E+00  0.00000000E+00  0.00000000E+00
  0.00000000E+00  0.00000000E+00  0.00000000E+00
  0.00000000E+00  0.00000000E+00  0.00000000E+00
  0.00000000E+00  0.00000000E+00  0.00000000E+00
  0.00000000E+00  0.00000000E+00  0.00000000E+00
  0.00000000E+00  0.00000000E+00  0.00000000E+00
  0.00000000E+00  0.00000000E+00  0.00000000E+00
  0.00000000E+00  0.00000000E+00  0.00000000E+00
  0.00000000E+00  0.00000000E+00  0.00000000E+00
  0.00000000E+00  0.00000000E+00  0.00000000E+00
  0.00000000E+00  0.00000000E+00  0.00000000E+00
  0.00000000E+00  0.00000000E+00  0.00000000E+00
  0.00000000E+00  0.00000000E+00  0.00000000E+00
  0.00000000E+00  0.00000000E+00  0.00000000E+00
  0.00000000E+00  0.00000000E+00  0.00000000E+00
  0.00000000E+00  0.00000000E+00  0.00000000E+00
  0.00000000E+00  0.00000000E+00  0.00000000E+00
  0.00000000E+00  0.00000000E+00  0.00000000E+00
  0.00000000E+00  0.00000000E+00  0.00000000E+00
  0.00000000E+00  0.00000000E+00  0.00000000E+00
  0.00000000E+00  0.00000000E+00  0.00000000E+00
  0.00000000E+00  0.00000000E+00  0.00000000E+00
  0.00000000E+00  0.00000000E+00  0.00000000E+00
  0.00000000E+00  0.00000000E+00  0.00000000E+00
  0.00000000E+00  0.00000000E+00  0.00000000E+00
  0.00000000E+00  0.00000000E+00  0.00000000E+00
  0.00000000E+00  0.00000000E+00  0.00000000E+00
  0.00000000E+00  0.00000000E+00  0.00000000E+00
  0.00000000E+00  0.00000000E+00  0.00000000E+00
  0.00000000E+00  0.00000000E+00  0.00000000E+00
  0.00000000E+00  0.00000000E+00  0.00000000E+00
