config 48                               
   1.00000000000000     
    15.4263309999999993    0.0000000000000000    0.0000000000000000
     0.0000000000000000   15.4263309999999993    0.0000000000000000
     0.0000000000000000    0.0000000000000000   15.4263309999999993
   Li   Ti   O    F 
     1    64    64   128
Direct
  0.6648865572187730  0.8746552290447487  0.8902088800437271
  0.9968178041343772  0.9952510138132460  0.9941285089601589
  0.9999181328489160  0.9917456123276287  0.4933287958202403
  0.0059558776968342  0.4951943481786913  0.9979839122609865
  0.9936022406724527  0.5024514248607435  0.5074411009754138
  0.4937328124980722  0.9940945099789690  0.9983014656348922
  0.5005627897415357  0.0078924301030920  0.4996003608522828
  0.5043674174971621  0.4953597917462018  0.9957303363358478
  0.4916439338617982  0.4992336760854827  0.4950533355053460
  0.0067722206197184  0.0029101710893471  0.2559145552562773
  0.0017479888059319  0.0076502800194516  0.7566799651979698
  0.9933345691627342  0.4939426685053057  0.2518341029289184
  0.9923669556591005  0.4990659521426266  0.7423983513185748
  0.5062909943033456  0.0079149829000999  0.2493236224409431
  0.4919721900160036  0.0052898148724542  0.7505695928704220
  0.4927355981173224  0.4970765018434380  0.2571654953891764
  0.5005097247481815  0.5041401031046525  0.7578855700183164
  0.9958409518582553  0.2572245424018887  0.0011905555756845
  0.9987837665972220  0.2480383111682969  0.4912956538600122
  0.9999887343663081  0.7579522691088565  0.0066743630838674
  0.9973216475097871  0.7565369251836893  0.5070659170734649
  0.4949492462887367  0.2577825545601093  0.0002159743053319
  0.5081782637259816  0.2453827902955274  0.4993655096514931
  0.5083970979373220  0.7549935053356099  0.9987990166259078
  0.5058941918543011  0.7530483601589435  0.5087211724225006
 -0.0002481699545053  0.2582832141325586  0.2551707707186405
  0.0063262661402833  0.2423561170208486  0.7472714684814548
  0.0064133215497546  0.7486852059099278  0.2437238000277508
  0.9916700213329097  0.7509759382056946  0.7446436798620518
  0.5082234840460808  0.2421295103583407  0.2506887489958620
  0.5063688591102743  0.2428489922610705  0.7495192997259387
  0.5065966884796396  0.7514805449255474  0.2519758512258014
  0.4997061857757071  0.7415952537271842  0.7423053695021566
  0.2564935785772729  0.9985265465353185  0.0057514180647320
  0.2496105441725155  0.9936772803586668  0.5062522145659583
  0.2438249339256383  0.5078319695591287  0.9976967551739282
  0.2539072552193061  0.4942298689404165  0.5065924076180376
  0.7581611576302747  0.0020219192590589  0.9946563469513541
  0.7505735969000054  0.0065606791785940  0.4936777552982450
  0.7420173937013123  0.5007549677894167  0.0049364589143258
  0.7551954592394882  0.4982681294393456  0.5057933697873747
  0.2448011630575680  0.0023043960353114  0.2434255231149155
  0.2572610910568645  0.9976725647276624  0.7440044011726105
  0.2550524524424778  0.4922956832698562  0.2518517427644134
  0.2469654950993025  0.5061925559843317  0.7412726770029239
  0.7447426318218494 -0.0002415688112873  0.2555773992412578
  0.7481751167278777  0.0064147018655682  0.7554693680347440
  0.7555270080695062  0.4994055003161906  0.2431032120412912
  0.7569173109314926  0.4991158044850205  0.7431804663431130
  0.2574416247270086  0.2512740483759654  0.0056298013187764
  0.2529191606925296  0.2565984854938441  0.5054423086423077
  0.2528864055751334  0.7426087066881866  0.9936323458560965
  0.2508063012999531  0.7551766339034519  0.4928544326483134
  0.7576922512442821  0.2510910368286407  0.0068040893873436
  0.7431266573573800  0.2425820517069743  0.4977638096273400
  0.7461498120792053  0.7484640552015159  0.9996049884036888
  0.7411580235872034  0.7524530918377128  0.4958686482546856
  0.2514341669844217  0.2575341690080457  0.2434958310740062
  0.2439728580998169  0.2513147019437964  0.7435718001598574
  0.2435674020206903  0.7481735691348111  0.2556339118333380
  0.2470782953144065  0.7418334584732452  0.7567278364381986
  0.7426349763866292  0.2502734080413452  0.2422293923256412
  0.7439740924432228  0.2428071483960320  0.7514609388064482
  0.7454579507569898  0.7501175092901062  0.2589675481854965
  0.7560062830599141  0.7525069774361235  0.7581205084808237
  0.0064108877209250  0.5013977607782232  0.6249724344533161
  0.9961873605133842  0.0054580131407549  0.3758153212663855
  0.0023660063070925  0.0021720018878423  0.8729089884418557
  0.5002189617180264  0.4956303662603749  0.3751525110847431
  0.4953091694743703  0.4993107521405370  0.8742266049315502
  0.9963238512111671  0.7466879036128988  0.1260137266898198
 -0.0015534682267389  0.7466143270351634  0.6247816015689823
  0.4964355461940521  0.7575947664517640  0.6242570748217406
  0.9961298570901639  0.2466796156232581  0.3765065612821911
  0.2551003841937370  0.0030595014593572  0.1252034750583889
  0.2545729008278918  0.0031031368686964  0.6251938896253618
  0.2401784863501559  0.4960000635217384  0.6257923257675657
  0.7509287301909611  0.4964481070734003  0.1261474662931374
  0.7464497146154707  0.4985884242260932  0.6245407685872904
  0.7501721666237228  0.9964215726902974  0.3756231371673577
  0.7372387035108161  0.9840146500223599  0.8730070271291631
  0.2475970914189958  0.2493496118220521  0.1255390468887268
  0.2534703489291144  0.2489689831482886  0.6251513554802735
  0.7446421727822184  0.2528157706427828  0.1259869320735099
  0.2525060873710328  0.7471113474947076  0.3746293551567368
  0.2494475202783971  0.7523847843872923  0.8752412849379705
  0.7505363395053614  0.7560123423260469  0.3762314631333475
  0.7376330315704140  0.7712997621582312  0.8705421392422773
  0.1245712021766019  0.5039652789202709  0.9958545146515156
  0.6253787226599372  0.5068910801079670  0.9992663793811509
  0.1253156303051070  0.0031404755652281  0.2509734957843174
  0.6253341557995284  1.0003857014035793  0.2484651890889628
  0.6244625552780647  0.2543722331180008  0.4968190094822031
  0.6223506090475321  0.7437262375907886  0.0032155928804111
  0.6236122349416735  0.7597035264530542  0.4989898772333127
  0.1245318003806415  0.2498084090665852  0.7483762669039092
  0.1251036281709350  0.7517284186448175  0.2502040535599430
  0.6255705924154861  0.2460573808560760  0.2595478504087366
  0.6254800601260090  0.2507761108985109  0.7457599192349780
  0.6224398581066334  0.7537979843967637  0.2516075475620199
  0.3754951136753811  0.9991126727501682  0.9917351915942016
  0.3749535654033904  0.5032499858542406  0.5030343148196678
  0.8730195185027106  0.0019165722039901  0.9959736030525691
  0.8750364688118105  0.4997394191776799  0.4991435834648684
  0.3760026630550728  0.9945421114699698  0.7565744346646436
  0.3737851433219724  0.4967693476441372  0.2498720356444925
  0.8755634343354731  0.4980713145867114  0.2531351627753006
  0.8749286241593867  0.5064923684485517  0.7480188721192575
  0.3757850519149544  0.2483553340405871  0.0016232443067033
  0.8745303105305170  0.2479674593768285  0.0037056823176829
  0.8751402143890992  0.7461634774503169  0.7547948115597992
  0.5074712298269833  0.1224514788633013  0.4984725024224008
  0.9951190157680104  0.1258537089143562  0.7440997780394698
  0.4961418581793792  0.1246971576682576  0.2579382097880101
  0.4996101958409460  0.1236588579914133  0.7441312771513160
  0.4988613957910555  0.6249468382882702  0.7460237283521920
  1.0013201444123589  0.3747052859961146  0.0037654513186556
  0.0030859066815996  0.8754012079072461  0.0017534484209772
 -0.0003811950550545  0.8751133920373492  0.4987233725954064
  0.5026536445564589  0.3738143048184567  0.0044225752393444
  0.5073205020496904  0.8766023616632839  0.9937716112496173
  0.0058852909316491  0.3738636504808582  0.2481049996000887
  0.2564164582027408  0.6251640136700000  0.0015004034533672
  0.7450030124770519  0.1249589530212989  0.4997689581623948
  0.2493505069059700  0.6245502901860446  0.7502521262433294
  0.7521331932336356  0.1241740261778601  0.7536667974127544
  0.2502965700354454  0.3728792192102909  0.4944530480031589
  0.2497100567542783  0.8757631108004037  0.4998662043864167
  0.2429196050723906  0.3744002585321195  0.2555833343024200
 -0.0018263251803899  0.0026000744721681  0.1263100321920888
  0.0022727755051223  0.9982356686477221  0.6238441302182200
  0.9998958983230321  0.5074771163227123  0.1254782671039553
  0.4948166400207742  0.0010720731501612  0.1253778989572453
  0.4965704522549662  0.9906949418911770  0.6226079672719111
  0.5010910455404801  0.5049850025967413  0.1272126958022425
  0.5058093903328719  0.4975072922394352  0.6244340312101010
  0.0039041313099743  0.4968712476699117  0.3764237174976630
  0.9964257225396306  0.4980687941969634  0.8731935696689643
  0.5037748616863494  0.9937405703736998  0.3763099228856111
  0.5171474144289088  0.0045874718976301  0.8735044803358547
  0.0058289619706894  0.2456056919529454  0.1273013085646328
  0.9980657573740301  0.2574827744714663  0.6213600720211334
  0.5064549791887891  0.2415285704457500  0.1262550403013163
  0.4941083881292084  0.2503742409134154  0.6228648761043672
  0.4946927905644731  0.7517950137054071  0.1269914993333413
  0.9968673599209907  0.2502162477238959  0.8741434602477909
  0.9963431019496720  0.7503101115025362  0.3755758172478915
  0.0061445582746627  0.7509883117506687  0.8747140402968563
  0.4934421792332475  0.2589630301348073  0.3756872321037005
  0.5024667024930544  0.2485456621577242  0.8740254626503042
  0.4931670525219989  0.7509004301485476  0.3758311460393288
  0.5007967904997260  0.7480705939340192  0.8725927805772131
  0.2458086624494628  0.4953118481664703  0.1248535150282640
  0.7509027732653445  0.0087692380613463  0.1252636134972150
  0.7479151622406619  0.0030582884549217  0.6234617061787762
  0.2524927295207764  0.0009012926713249  0.3753845949361506
  0.2430344138063819  0.9951706713621429  0.8741701017929037
  0.2460690116422476  0.5100006747755109  0.3753542510457824
  0.2575495992151363  0.4971832550881466  0.8735574299244100
  0.7458603226089277  0.5016674223114447  0.3754934708272443
  0.7509243824175629  0.4971175727909047  0.8736175143976509
  0.2532411903965565  0.7539051387956252  0.1251862351115609
  0.2499608092025647  0.7507422357109110  0.6249675818643192
  0.7530206987570497  0.2542651670494301  0.6235555642171405
  0.7545051379207508  0.7417876431891600  0.1318655326925164
  0.7500089295335451  0.7442623024195224  0.6237718461566177
  0.2515568968166484  0.2439844321081692  0.3745317784422933
  0.2507145313493402  0.2510046368975605  0.8749960454671706
  0.7601732394929834  0.2472743712750406  0.3741411356156369
  0.7503600472090738  0.2523225213551128  0.8758364821235880
  0.1262270498346684  0.0029721694372469  0.0027233981623093
  0.1247144130205936  0.0076444153308642  0.4990542930516346
  0.1230456264805560  0.5011303373651687  0.4937617096451288
  0.6249587520171829  0.0035560070953186  0.0058150586822425
  0.6239010184870828  0.9866164663829576  0.5030176729319572
  0.6248634166111542  0.4951143261317476  0.4987122700414802
  0.1270471263332409  0.0022078192534156  0.7461755443204139
  0.1239383728634395  0.5063598987485385  0.2489053847196171
  0.1229864891019864  0.4943970402571312  0.7613307873775971
  0.6232735859780042  0.9957832446597191  0.7392222225380216
  0.6248343581894565  0.4983267612809464  0.2498096450885677
  0.6260150123088537  0.4946623972714147  0.7536237344177711
  0.1251866349937178  0.2488169809693943  0.9960342376444850
  0.1235397330168746  0.2441501720678154  0.4999102184016053
  0.1260979723414490  0.7448893166163806  0.0036835833445384
  0.1238270619900081  0.7473449234828893  0.4983899917013289
  0.6261967423580007  0.2484424322741890  0.9963717918369241
  0.1246238965525866  0.2379280151234261  0.2549035872703190
  0.1230529548352630  0.7525994839357186  0.7485582482598940
  0.6243637271363186  0.7531698155507354  0.7440727646501649
  0.3772097632250734  0.0047866338477212  0.4955362585740374
  0.3732837461216418  0.4948248273740057  0.0060397566769565
  0.8745571761962789  0.0037487706352219  0.5073596215014613
  0.8754082421241476  0.4957113677223808  0.9992231638480662
  0.3773953193847380  0.9967468296235823  0.2554761097915227
  0.3742696991945951  0.4959245417115123  0.7424068239919926
  0.8736665047935432  0.9990737541245266  0.2471174081565271
  0.8737681820650993  0.9930067711851791  0.7471066629503303
  0.3788290238558472  0.2439281852067671  0.4966658557718711
  0.3764302691921895  0.7589747408231684  0.0006504526682530
  0.3761837334767192  0.7454601928304241  0.5002999453127357
  0.8741335835522223  0.2515947534989414  0.5035762864036223
  0.8747666549591007  0.7556809776214236  0.9933388395786933
  0.8721852717537444  0.7461650691340874  0.5012704404368830
  0.3781842878533704  0.2559622672434345  0.2484347119525198
  0.3763154676818074  0.2505173612584017  0.7533254644533903
  0.3766110807599257  0.7484270248221223  0.2485750218920643
  0.3740577040240068  0.7573255182008988  0.7506337704973050
  0.8741314290557816  0.2541979585155326  0.2461750678644021
  0.8738993297057327  0.2538419453957326  0.7480494653111945
  0.8739734261104176  0.7477795481212562  0.2531939741319686
  0.0033198025885307  0.1266081296760528  0.0012198992226160
  0.9958270896953160  0.1254994222582870  0.5086202354741490
  0.9940289072316288  0.6254324359821914  0.9954628734690213
  0.9997975490267077  0.6264191131928455  0.4935605250073556
  0.5033460008211685  0.1244851248092250  0.9989417436327975
  0.4882252009618656  0.6268622068155588  0.0017387768545407
  0.5057714396740236  0.6266081692913045  0.4998908332155347
  0.9922744724832774  0.1275466444079120  0.2466245685287111
 -0.0007712785921048  0.6234490313849163  0.2566062140817690
  0.0089736765694693  0.6245170920672165  0.7553001026167283
  0.5010851337427061  0.6260232174555949  0.2520741444346594
  0.0031694509472646  0.3735773491182144  0.4983190249509452
  0.4950203733968424  0.3718307765056473  0.5045538695393431
  0.4900416775188444  0.8782078228992544  0.4942689675253791
  0.9961145837336843  0.3741117724028947  0.7510634639663493
  0.9955134292983793  0.8761189010574711  0.2511350703093461
  0.0012320696835984  0.8762836279042601  0.7475664987591105
  0.5030514048031328  0.3716153595679557  0.2424129887433326
  0.4978556432579471  0.3727803149604527  0.7466658958571880
  0.4960537331798785  0.8762591093135884  0.2503654168368253
  0.5061147927618624  0.8754667916725476  0.7589883264258194
  0.2468781997646353  0.1246843674067538  0.9934319250379758
  0.2514941026191139  0.1242334554207802  0.4967670289237365
  0.2468959348737010  0.6262642608580670  0.5041199974301551
  0.7440489608131429  0.1265840474366813  0.9926270891740752
  0.7634967748395270  0.6212154966754255  0.9930134798310275
  0.7446942699883224  0.6254971805608756  0.4978737961343541
  0.2591445544841383  0.1263658202681522  0.2537956957347361
  0.2531242981250100  0.1242843628849931  0.7570996676471776
  0.2507679974543420  0.6236923182450295  0.2423524267253559
  0.7580468913892811  0.1255854595555908  0.2522214525432293
  0.7461772714621880  0.6246106304044766  0.2551486754545669
  0.7407799301702743  0.6252969026334713  0.7551982992355178
  0.2481467107109274  0.3759371255618389  0.9978116730477943
  0.2441071115578929  0.8740713744119047  0.0029313507203985
  0.7479533381643205  0.3746383517504161  0.9935351128364589
  0.7525175472648422  0.3721474897020354  0.4945767172529156
  0.7377291373813751  0.8794257541800767  0.0101165532358171
  0.7579584063795689  0.8771355485674722  0.5079794022082326
  0.2521867762685082  0.3756291741685263  0.7554947839741478
  0.2543455120990115  0.8756779314243568  0.2508463586542620
  0.2447502269812015  0.8736341592880124  0.7464203586730802
  0.7483891215406220  0.3738941107186939  0.2603105216688754
  0.7532027566044789  0.3735372768373636  0.7517142717639494
  0.7540722793316836  0.8752866188062344  0.2405982814260352
  0.7469595169189521  0.8769424854883442  0.7333907872187204
 
  0.00000000E+00  0.00000000E+00  0.00000000E+00
  0.00000000E+00  0.00000000E+00  0.00000000E+00
  0.00000000E+00  0.00000000E+00  0.00000000E+00
  0.00000000E+00  0.00000000E+00  0.00000000E+00
  0.00000000E+00  0.00000000E+00  0.00000000E+00
  0.00000000E+00  0.00000000E+00  0.00000000E+00
  0.00000000E+00  0.00000000E+00  0.00000000E+00
  0.00000000E+00  0.00000000E+00  0.00000000E+00
  0.00000000E+00  0.00000000E+00  0.00000000E+00
  0.00000000E+00  0.00000000E+00  0.00000000E+00
  0.00000000E+00  0.00000000E+00  0.00000000E+00
  0.00000000E+00  0.00000000E+00  0.00000000E+00
  0.00000000E+00  0.00000000E+00  0.00000000E+00
  0.00000000E+00  0.00000000E+00  0.00000000E+00
  0.00000000E+00  0.00000000E+00  0.00000000E+00
  0.00000000E+00  0.00000000E+00  0.00000000E+00
  0.00000000E+00  0.00000000E+00  0.00000000E+00
  0.00000000E+00  0.00000000E+00  0.00000000E+00
  0.00000000E+00  0.00000000E+00  0.00000000E+00
  0.00000000E+00  0.00000000E+00  0.00000000E+00
  0.00000000E+00  0.00000000E+00  0.00000000E+00
  0.00000000E+00  0.00000000E+00  0.00000000E+00
  0.00000000E+00  0.00000000E+00  0.00000000E+00
  0.00000000E+00  0.00000000E+00  0.00000000E+00
  0.00000000E+00  0.00000000E+00  0.00000000E+00
  0.00000000E+00  0.00000000E+00  0.00000000E+00
  0.00000000E+00  0.00000000E+00  0.00000000E+00
  0.00000000E+00  0.00000000E+00  0.00000000E+00
  0.00000000E+00  0.00000000E+00  0.00000000E+00
  0.00000000E+00  0.00000000E+00  0.00000000E+00
  0.00000000E+00  0.00000000E+00  0.00000000E+00
  0.00000000E+00  0.00000000E+00  0.00000000E+00
  0.00000000E+00  0.00000000E+00  0.00000000E+00
  0.00000000E+00  0.00000000E+00  0.00000000E+00
  0.00000000E+00  0.00000000E+00  0.00000000E+00
  0.00000000E+00  0.00000000E+00  0.00000000E+00
  0.00000000E+00  0.00000000E+00  0.00000000E+00
  0.00000000E+00  0.00000000E+00  0.00000000E+00
  0.00000000E+00  0.00000000E+00  0.00000000E+00
  0.00000000E+00  0.00000000E+00  0.00000000E+00
  0.00000000E+00  0.00000000E+00  0.00000000E+00
  0.00000000E+00  0.00000000E+00  0.00000000E+00
  0.00000000E+00  0.00000000E+00  0.00000000E+00
  0.00000000E+00  0.00000000E+00  0.00000000E+00
  0.00000000E+00  0.00000000E+00  0.00000000E+00
  0.00000000E+00  0.00000000E+00  0.00000000E+00
  0.00000000E+00  0.00000000E+00  0.00000000E+00
  0.00000000E+00  0.00000000E+00  0.00000000E+00
  0.00000000E+00  0.00000000E+00  0.00000000E+00
  0.00000000E+00  0.00000000E+00  0.00000000E+00
  0.00000000E+00  0.00000000E+00  0.00000000E+00
  0.00000000E+00  0.00000000E+00  0.00000000E+00
  0.00000000E+00  0.00000000E+00  0.00000000E+00
  0.00000000E+00  0.00000000E+00  0.00000000E+00
  0.00000000E+00  0.00000000E+00  0.00000000E+00
  0.00000000E+00  0.00000000E+00  0.00000000E+00
  0.00000000E+00  0.00000000E+00  0.00000000E+00
  0.00000000E+00  0.00000000E+00  0.00000000E+00
  0.00000000E+00  0.00000000E+00  0.00000000E+00
  0.00000000E+00  0.00000000E+00  0.00000000E+00
  0.00000000E+00  0.00000000E+00  0.00000000E+00
  0.00000000E+00  0.00000000E+00  0.00000000E+00
  0.00000000E+00  0.00000000E+00  0.00000000E+00
  0.00000000E+00  0.00000000E+00  0.00000000E+00
  0.00000000E+00  0.00000000E+00  0.00000000E+00
  0.00000000E+00  0.00000000E+00  0.00000000E+00
  0.00000000E+00  0.00000000E+00  0.00000000E+00
  0.00000000E+00  0.00000000E+00  0.00000000E+00
  0.00000000E+00  0.00000000E+00  0.00000000E+00
  0.00000000E+00  0.00000000E+00  0.00000000E+00
  0.00000000E+00  0.00000000E+00  0.00000000E+00
  0.00000000E+00  0.00000000E+00  0.00000000E+00
  0.00000000E+00  0.00000000E+00  0.00000000E+00
  0.00000000E+00  0.00000000E+00  0.00000000E+00
  0.00000000E+00  0.00000000E+00  0.00000000E+00
  0.00000000E+00  0.00000000E+00  0.00000000E+00
  0.00000000E+00  0.00000000E+00  0.00000000E+00
  0.00000000E+00  0.00000000E+00  0.00000000E+00
  0.00000000E+00  0.00000000E+00  0.00000000E+00
  0.00000000E+00  0.00000000E+00  0.00000000E+00
  0.00000000E+00  0.00000000E+00  0.00000000E+00
  0.00000000E+00  0.00000000E+00  0.00000000E+00
  0.00000000E+00  0.00000000E+00  0.00000000E+00
  0.00000000E+00  0.00000000E+00  0.00000000E+00
  0.00000000E+00  0.00000000E+00  0.00000000E+00
  0.00000000E+00  0.00000000E+00  0.00000000E+00
  0.00000000E+00  0.00000000E+00  0.00000000E+00
  0.00000000E+00  0.00000000E+00  0.00000000E+00
  0.00000000E+00  0.00000000E+00  0.00000000E+00
  0.00000000E+00  0.00000000E+00  0.00000000E+00
  0.00000000E+00  0.00000000E+00  0.00000000E+00
  0.00000000E+00  0.00000000E+00  0.00000000E+00
  0.00000000E+00  0.00000000E+00  0.00000000E+00
  0.00000000E+00  0.00000000E+00  0.00000000E+00
  0.00000000E+00  0.00000000E+00  0.00000000E+00
  0.00000000E+00  0.00000000E+00  0.00000000E+00
  0.00000000E+00  0.00000000E+00  0.00000000E+00
  0.00000000E+00  0.00000000E+00  0.00000000E+00
  0.00000000E+00  0.00000000E+00  0.00000000E+00
  0.00000000E+00  0.00000000E+00  0.00000000E+00
  0.00000000E+00  0.00000000E+00  0.00000000E+00
  0.00000000E+00  0.00000000E+00  0.00000000E+00
  0.00000000E+00  0.00000000E+00  0.00000000E+00
  0.00000000E+00  0.00000000E+00  0.00000000E+00
  0.00000000E+00  0.00000000E+00  0.00000000E+00
  0.00000000E+00  0.00000000E+00  0.00000000E+00
  0.00000000E+00  0.00000000E+00  0.00000000E+00
  0.00000000E+00  0.00000000E+00  0.00000000E+00
  0.00000000E+00  0.00000000E+00  0.00000000E+00
  0.00000000E+00  0.00000000E+00  0.00000000E+00
  0.00000000E+00  0.00000000E+00  0.00000000E+00
  0.00000000E+00  0.00000000E+00  0.00000000E+00
  0.00000000E+00  0.00000000E+00  0.00000000E+00
  0.00000000E+00  0.00000000E+00  0.00000000E+00
  0.00000000E+00  0.00000000E+00  0.00000000E+00
  0.00000000E+00  0.00000000E+00  0.00000000E+00
  0.00000000E+00  0.00000000E+00  0.00000000E+00
  0.00000000E+00  0.00000000E+00  0.00000000E+00
  0.00000000E+00  0.00000000E+00  0.00000000E+00
  0.00000000E+00  0.00000000E+00  0.00000000E+00
  0.00000000E+00  0.00000000E+00  0.00000000E+00
  0.00000000E+00  0.00000000E+00  0.00000000E+00
  0.00000000E+00  0.00000000E+00  0.00000000E+00
  0.00000000E+00  0.00000000E+00  0.00000000E+00
  0.00000000E+00  0.00000000E+00  0.00000000E+00
  0.00000000E+00  0.00000000E+00  0.00000000E+00
  0.00000000E+00  0.00000000E+00  0.00000000E+00
  0.00000000E+00  0.00000000E+00  0.00000000E+00
  0.00000000E+00  0.00000000E+00  0.00000000E+00
  0.00000000E+00  0.00000000E+00  0.00000000E+00
  0.00000000E+00  0.00000000E+00  0.00000000E+00
  0.00000000E+00  0.00000000E+00  0.00000000E+00
  0.00000000E+00  0.00000000E+00  0.00000000E+00
  0.00000000E+00  0.00000000E+00  0.00000000E+00
  0.00000000E+00  0.00000000E+00  0.00000000E+00
  0.00000000E+00  0.00000000E+00  0.00000000E+00
  0.00000000E+00  0.00000000E+00  0.00000000E+00
  0.00000000E+00  0.00000000E+00  0.00000000E+00
  0.00000000E+00  0.00000000E+00  0.00000000E+00
  0.00000000E+00  0.00000000E+00  0.00000000E+00
  0.00000000E+00  0.00000000E+00  0.00000000E+00
  0.00000000E+00  0.00000000E+00  0.00000000E+00
  0.00000000E+00  0.00000000E+00  0.00000000E+00
  0.00000000E+00  0.00000000E+00  0.00000000E+00
  0.00000000E+00  0.00000000E+00  0.00000000E+00
  0.00000000E+00  0.00000000E+00  0.00000000E+00
  0.00000000E+00  0.00000000E+00  0.00000000E+00
  0.00000000E+00  0.00000000E+00  0.00000000E+00
  0.00000000E+00  0.00000000E+00  0.00000000E+00
  0.00000000E+00  0.00000000E+00  0.00000000E+00
  0.00000000E+00  0.00000000E+00  0.00000000E+00
  0.00000000E+00  0.00000000E+00  0.00000000E+00
  0.00000000E+00  0.00000000E+00  0.00000000E+00
  0.00000000E+00  0.00000000E+00  0.00000000E+00
  0.00000000E+00  0.00000000E+00  0.00000000E+00
  0.00000000E+00  0.00000000E+00  0.00000000E+00
  0.00000000E+00  0.00000000E+00  0.00000000E+00
  0.00000000E+00  0.00000000E+00  0.00000000E+00
  0.00000000E+00  0.00000000E+00  0.00000000E+00
  0.00000000E+00  0.00000000E+00  0.00000000E+00
  0.00000000E+00  0.00000000E+00  0.00000000E+00
  0.00000000E+00  0.00000000E+00  0.00000000E+00
  0.00000000E+00  0.00000000E+00  0.00000000E+00
  0.00000000E+00  0.00000000E+00  0.00000000E+00
  0.00000000E+00  0.00000000E+00  0.00000000E+00
  0.00000000E+00  0.00000000E+00  0.00000000E+00
  0.00000000E+00  0.00000000E+00  0.00000000E+00
  0.00000000E+00  0.00000000E+00  0.00000000E+00
  0.00000000E+00  0.00000000E+00  0.00000000E+00
  0.00000000E+00  0.00000000E+00  0.00000000E+00
  0.00000000E+00  0.00000000E+00  0.00000000E+00
  0.00000000E+00  0.00000000E+00  0.00000000E+00
  0.00000000E+00  0.00000000E+00  0.00000000E+00
  0.00000000E+00  0.00000000E+00  0.00000000E+00
  0.00000000E+00  0.00000000E+00  0.00000000E+00
  0.00000000E+00  0.00000000E+00  0.00000000E+00
  0.00000000E+00  0.00000000E+00  0.00000000E+00
  0.00000000E+00  0.00000000E+00  0.00000000E+00
  0.00000000E+00  0.00000000E+00  0.00000000E+00
  0.00000000E+00  0.00000000E+00  0.00000000E+00
  0.00000000E+00  0.00000000E+00  0.00000000E+00
  0.00000000E+00  0.00000000E+00  0.00000000E+00
  0.00000000E+00  0.00000000E+00  0.00000000E+00
  0.00000000E+00  0.00000000E+00  0.00000000E+00
  0.00000000E+00  0.00000000E+00  0.00000000E+00
  0.00000000E+00  0.00000000E+00  0.00000000E+00
  0.00000000E+00  0.00000000E+00  0.00000000E+00
  0.00000000E+00  0.00000000E+00  0.00000000E+00
  0.00000000E+00  0.00000000E+00  0.00000000E+00
  0.00000000E+00  0.00000000E+00  0.00000000E+00
  0.00000000E+00  0.00000000E+00  0.00000000E+00
  0.00000000E+00  0.00000000E+00  0.00000000E+00
  0.00000000E+00  0.00000000E+00  0.00000000E+00
  0.00000000E+00  0.00000000E+00  0.00000000E+00
  0.00000000E+00  0.00000000E+00  0.00000000E+00
  0.00000000E+00  0.00000000E+00  0.00000000E+00
  0.00000000E+00  0.00000000E+00  0.00000000E+00
  0.00000000E+00  0.00000000E+00  0.00000000E+00
  0.00000000E+00  0.00000000E+00  0.00000000E+00
  0.00000000E+00  0.00000000E+00  0.00000000E+00
  0.00000000E+00  0.00000000E+00  0.00000000E+00
  0.00000000E+00  0.00000000E+00  0.00000000E+00
  0.00000000E+00  0.00000000E+00  0.00000000E+00
  0.00000000E+00  0.00000000E+00  0.00000000E+00
  0.00000000E+00  0.00000000E+00  0.00000000E+00
  0.00000000E+00  0.00000000E+00  0.00000000E+00
  0.00000000E+00  0.00000000E+00  0.00000000E+00
  0.00000000E+00  0.00000000E+00  0.00000000E+00
  0.00000000E+00  0.00000000E+00  0.00000000E+00
  0.00000000E+00  0.00000000E+00  0.00000000E+00
  0.00000000E+00  0.00000000E+00  0.00000000E+00
  0.00000000E+00  0.00000000E+00  0.00000000E+00
  0.00000000E+00  0.00000000E+00  0.00000000E+00
  0.00000000E+00  0.00000000E+00  0.00000000E+00
  0.00000000E+00  0.00000000E+00  0.00000000E+00
  0.00000000E+00  0.00000000E+00  0.00000000E+00
  0.00000000E+00  0.00000000E+00  0.00000000E+00
  0.00000000E+00  0.00000000E+00  0.00000000E+00
  0.00000000E+00  0.00000000E+00  0.00000000E+00
  0.00000000E+00  0.00000000E+00  0.00000000E+00
  0.00000000E+00  0.00000000E+00  0.00000000E+00
  0.00000000E+00  0.00000000E+00  0.00000000E+00
  0.00000000E+00  0.00000000E+00  0.00000000E+00
  0.00000000E+00  0.00000000E+00  0.00000000E+00
  0.00000000E+00  0.00000000E+00  0.00000000E+00
  0.00000000E+00  0.00000000E+00  0.00000000E+00
  0.00000000E+00  0.00000000E+00  0.00000000E+00
  0.00000000E+00  0.00000000E+00  0.00000000E+00
  0.00000000E+00  0.00000000E+00  0.00000000E+00
  0.00000000E+00  0.00000000E+00  0.00000000E+00
  0.00000000E+00  0.00000000E+00  0.00000000E+00
  0.00000000E+00  0.00000000E+00  0.00000000E+00
  0.00000000E+00  0.00000000E+00  0.00000000E+00
  0.00000000E+00  0.00000000E+00  0.00000000E+00
  0.00000000E+00  0.00000000E+00  0.00000000E+00
  0.00000000E+00  0.00000000E+00  0.00000000E+00
  0.00000000E+00  0.00000000E+00  0.00000000E+00
  0.00000000E+00  0.00000000E+00  0.00000000E+00
  0.00000000E+00  0.00000000E+00  0.00000000E+00
  0.00000000E+00  0.00000000E+00  0.00000000E+00
  0.00000000E+00  0.00000000E+00  0.00000000E+00
  0.00000000E+00  0.00000000E+00  0.00000000E+00
  0.00000000E+00  0.00000000E+00  0.00000000E+00
  0.00000000E+00  0.00000000E+00  0.00000000E+00
  0.00000000E+00  0.00000000E+00  0.00000000E+00
  0.00000000E+00  0.00000000E+00  0.00000000E+00
  0.00000000E+00  0.00000000E+00  0.00000000E+00
  0.00000000E+00  0.00000000E+00  0.00000000E+00
  0.00000000E+00  0.00000000E+00  0.00000000E+00
  0.00000000E+00  0.00000000E+00  0.00000000E+00
  0.00000000E+00  0.00000000E+00  0.00000000E+00
  0.00000000E+00  0.00000000E+00  0.00000000E+00
  0.00000000E+00  0.00000000E+00  0.00000000E+00
  0.00000000E+00  0.00000000E+00  0.00000000E+00
  0.00000000E+00  0.00000000E+00  0.00000000E+00
  0.00000000E+00  0.00000000E+00  0.00000000E+00
  0.00000000E+00  0.00000000E+00  0.00000000E+00
