TiOF2 2x2x2 config 0004                 
   1.00000000000000     
     7.9339714044798839    0.0000000038435497    0.0000000595877069
     0.0000000021412515    7.7925503331367239   -0.0000000356009667
     0.0000000527707117   -0.0000000350709757    7.5337612716747264
   Ti   O    F 
     8     8    16
Direct
  0.9999999954502314  0.0001384556483970  0.9894328468038367
  0.0000000042578137  0.0001384486271192  0.5105671130714811
  0.9999999955248526  0.4998615813941356  0.9894330666046613
  0.0000000043712163  0.4998615734928364  0.5105669039794023
  0.4999999984977208  0.9877511564375538  0.0003518925368482
  0.5000000013557440  0.9877511470460121  0.4996482582962471
  0.4999999986940651  0.5122488158308229  0.0003517933222668
  0.5000000015573534  0.5122488093675486  0.4996481296960980
  0.5000000015948132  0.7499999905696910  0.9998044243282180
  0.4999999977865457  0.7499999890793987  0.5001955644910652
  0.9999999999583338  0.9996514713772413  0.7500000385276095
  0.9999999998135536  0.5003485669272933  0.7500000640763176
  0.4999999999705409  0.0056750545460531  0.2500000002866045
  0.4999999999708322  0.0056453123760392  0.7500000070371868
  0.5000000000298854  0.4943249054136061  0.2499999822204160
  0.5000000004682690  0.4943546471960687  0.7499999973289491
  0.2368908464248136  0.0010161495321839  0.0052774438302876
  0.2368908614476339  0.0010161381428944  0.4947224818593341
  0.2368908316947440  0.4989838628021275  0.0052774718560045
  0.2368908508495196  0.4989838544568741  0.4947225360377629
  0.7631091492673789  0.0010161360504881  0.0052774721838915
  0.7631091426934091  0.0010161518808331  0.4947225102607220
  0.7631091643469503  0.4989838771076904  0.0052775008066988
  0.7631091536206682  0.4989838417332280  0.4947225638122461
  0.9999999766074765  0.2500000269225779  0.0074311984376152
  0.0000000231118520  0.2500000175943953  0.4925687964875038
  0.9999999932314907  0.7500000083284277  0.0074206035546069
  0.0000000070272748  0.7500000030074929  0.4925793928885298
  0.5000000205444621  0.2499999852965828  0.9998588139550222
  0.4999999794773515  0.2499999807624746  0.5001411601920509
  0.9999999999721396  0.9996137787573645  0.2499999819686920
  0.0000000003810570  0.5003862622945476  0.2499999892618234
 
  0.00000000E+00  0.00000000E+00  0.00000000E+00
  0.00000000E+00  0.00000000E+00  0.00000000E+00
  0.00000000E+00  0.00000000E+00  0.00000000E+00
  0.00000000E+00  0.00000000E+00  0.00000000E+00
  0.00000000E+00  0.00000000E+00  0.00000000E+00
  0.00000000E+00  0.00000000E+00  0.00000000E+00
  0.00000000E+00  0.00000000E+00  0.00000000E+00
  0.00000000E+00  0.00000000E+00  0.00000000E+00
  0.00000000E+00  0.00000000E+00  0.00000000E+00
  0.00000000E+00  0.00000000E+00  0.00000000E+00
  0.00000000E+00  0.00000000E+00  0.00000000E+00
  0.00000000E+00  0.00000000E+00  0.00000000E+00
  0.00000000E+00  0.00000000E+00  0.00000000E+00
  0.00000000E+00  0.00000000E+00  0.00000000E+00
  0.00000000E+00  0.00000000E+00  0.00000000E+00
  0.00000000E+00  0.00000000E+00  0.00000000E+00
  0.00000000E+00  0.00000000E+00  0.00000000E+00
  0.00000000E+00  0.00000000E+00  0.00000000E+00
  0.00000000E+00  0.00000000E+00  0.00000000E+00
  0.00000000E+00  0.00000000E+00  0.00000000E+00
  0.00000000E+00  0.00000000E+00  0.00000000E+00
  0.00000000E+00  0.00000000E+00  0.00000000E+00
  0.00000000E+00  0.00000000E+00  0.00000000E+00
  0.00000000E+00  0.00000000E+00  0.00000000E+00
  0.00000000E+00  0.00000000E+00  0.00000000E+00
  0.00000000E+00  0.00000000E+00  0.00000000E+00
  0.00000000E+00  0.00000000E+00  0.00000000E+00
  0.00000000E+00  0.00000000E+00  0.00000000E+00
  0.00000000E+00  0.00000000E+00  0.00000000E+00
  0.00000000E+00  0.00000000E+00  0.00000000E+00
  0.00000000E+00  0.00000000E+00  0.00000000E+00
  0.00000000E+00  0.00000000E+00  0.00000000E+00
