TiOF2 2x2x2 config 0012                 
   1.00000000000000     
     7.8836497548333346   -0.0000012974395641   -0.0000012055753377
    -0.0000012817246832    7.7839462927892020   -0.0000042281734930
    -0.0000011413706025   -0.0000039163031725    7.5083060978214746
   Ti   O    F 
     8     8    16
Direct
  0.0000000197096952  0.0002293361966252  0.0003414573252272
  0.9999999998446825  0.0002292162787114  0.4996547588947777
  0.9999999822367656  0.4997708549348800  0.9996578766088717
  0.9999999980735979  0.4997709457610213  0.5003445220910905
  0.5000000206360298  0.9870442371349881  0.9892180349991335
  0.5000000017511184  0.9870416709541772  0.5107776963535784
  0.4999999848845675  0.5129560269009943  0.0107825123719181
  0.5000000067042620  0.5129584191003929  0.4892227722178006
  0.4999999980796801  0.7499991555568855  0.0000000330120429
  0.4999999997510258  0.7500004290545021  0.5000000113694725
  0.0000000127845823  0.9994573659744006  0.2500003206962802
  0.0000000150434971  0.9994462113052194  0.7500008526417687
  0.9999999861638713  0.5005538709649002  0.2499993716922972
  0.9999999881437063  0.5005434320261699  0.7500001358319750
  0.4999999989949870  0.0069877437538111  0.7500100340440099
  0.4999999992654338  0.4930116986773854  0.2499884886019927
  0.2506188573402923  0.0019845183781868  0.0043964651902257
  0.2506174814471720  0.0019836546007852  0.4956038135643226
  0.2506189400361336  0.4980155398970680  0.9956035747172152
  0.2506173781675969  0.4980162548450480  0.5043962618322624
  0.7493811645336024  0.0019844335874382  0.0043965158657713
  0.7493824925988335  0.0019836429367217  0.4956038653082757
  0.7493810280795259  0.4980154553636922  0.9956036258425911
  0.7493826468552385  0.4980162434817359  0.5043963132721956
  0.0000000005505143  0.2500001684093860  0.9999999554446646
  0.0000000000713314  0.2500001084705019  0.5000003714292731
  0.0000000006896457  0.7500000917226899  0.0000003717472978
  0.0000000001815508  0.7500001285781153  0.4999999534640196
  0.4999999985997974  0.2500001409155246  0.0000000207051798
  0.4999999998559588  0.2499997968354819  0.5000000113693730
  0.4999999844639831  0.0132266419607987  0.2499995879307306
  0.5000000144613352  0.4867725654417612  0.7500004135643508
 
  0.00000000E+00  0.00000000E+00  0.00000000E+00
  0.00000000E+00  0.00000000E+00  0.00000000E+00
  0.00000000E+00  0.00000000E+00  0.00000000E+00
  0.00000000E+00  0.00000000E+00  0.00000000E+00
  0.00000000E+00  0.00000000E+00  0.00000000E+00
  0.00000000E+00  0.00000000E+00  0.00000000E+00
  0.00000000E+00  0.00000000E+00  0.00000000E+00
  0.00000000E+00  0.00000000E+00  0.00000000E+00
  0.00000000E+00  0.00000000E+00  0.00000000E+00
  0.00000000E+00  0.00000000E+00  0.00000000E+00
  0.00000000E+00  0.00000000E+00  0.00000000E+00
  0.00000000E+00  0.00000000E+00  0.00000000E+00
  0.00000000E+00  0.00000000E+00  0.00000000E+00
  0.00000000E+00  0.00000000E+00  0.00000000E+00
  0.00000000E+00  0.00000000E+00  0.00000000E+00
  0.00000000E+00  0.00000000E+00  0.00000000E+00
  0.00000000E+00  0.00000000E+00  0.00000000E+00
  0.00000000E+00  0.00000000E+00  0.00000000E+00
  0.00000000E+00  0.00000000E+00  0.00000000E+00
  0.00000000E+00  0.00000000E+00  0.00000000E+00
  0.00000000E+00  0.00000000E+00  0.00000000E+00
  0.00000000E+00  0.00000000E+00  0.00000000E+00
  0.00000000E+00  0.00000000E+00  0.00000000E+00
  0.00000000E+00  0.00000000E+00  0.00000000E+00
  0.00000000E+00  0.00000000E+00  0.00000000E+00
  0.00000000E+00  0.00000000E+00  0.00000000E+00
  0.00000000E+00  0.00000000E+00  0.00000000E+00
  0.00000000E+00  0.00000000E+00  0.00000000E+00
  0.00000000E+00  0.00000000E+00  0.00000000E+00
  0.00000000E+00  0.00000000E+00  0.00000000E+00
  0.00000000E+00  0.00000000E+00  0.00000000E+00
  0.00000000E+00  0.00000000E+00  0.00000000E+00
