TiOF2 2x2x2 config 1016                 
   1.00000000000000     
     7.8195273821099329   -0.0008486439853184    0.0012228989113485
    -0.0008390750150541    7.7164782282220621    0.0036336677002661
     0.0012703812424787    0.0036815340155633    7.6683839942839311
   Ti   O    F 
     8     8    16
Direct
 -0.0000092348568530 -0.0167338017491712 -0.0055974132203063
  0.0007946462184215  0.0014096289312456  0.5188182323881696
  0.0009111173401118  0.5085069765868925  0.0151910028441715
 -0.0191236462080745  0.5000438387175633  0.4899687499879544
  0.5000702337069931  0.0153386252226415  0.0130618770867419
  0.5000526379871958 -0.0160997577426419  0.4875947065671532
  0.5001223675245735  0.4887106979421219 -0.0155735480588373
  0.5070161522572667  0.5092785263694289  0.5095805714615969
  0.7525941423903375  0.4992550601436287  0.4997512737973060
 -0.0000119683049705  0.7514590082874418 -0.0000261476612527
  0.5004211733439898  0.2498666850547167 -0.0005145411833741
  0.4991887193255524  0.7518723973711726  0.5002564882792592
 -0.0003457920060707  0.0018661007005029  0.7481161791776180
  0.0012804286391246  0.4985612091932964  0.2488100326654694
  0.5003478715052371 -0.0001665482828236  0.2496256473173228
  0.4987828683546960  0.5002864475963134  0.7507035510867723
  0.2480401788230650  0.0008640398849565 -0.0002263089754602
  0.2464897439485426  0.0032168140485844  0.4988373561921279
  0.2490482100317273  0.5003310634167993 -0.0011755295007016
  0.2466267229535243  0.4980669423949456  0.5001320929019870
  0.7520548274805956  0.0008203827458719 -0.0001817440095473
  0.7546725793948823  0.0036530603528478  0.4986094675865262
  0.7518571900711009  0.5002364365310195 -0.0013513123052397
 -0.0000581185074705  0.2480598259723092 -0.0007682467264061
  0.0048016259000012  0.2476478042427620  0.4976057105928104
  0.0048934431415028  0.7538995802804314  0.4978996612604961
  0.4979828934884477  0.2468660263610196  0.5008822725181096
  0.5004315612033811  0.7515184242983337 -0.0008764114175533
 -0.0003059597632098  0.0041915770204634  0.2532706491739675
  0.0041664226083079  0.4962604888028350  0.7503594487465510
  0.5004325929499482 -0.0000743837682901  0.7499653744985869
  0.4967743690581248  0.5009868230727790  0.2472508569279782
 
  0.00000000E+00  0.00000000E+00  0.00000000E+00
  0.00000000E+00  0.00000000E+00  0.00000000E+00
  0.00000000E+00  0.00000000E+00  0.00000000E+00
  0.00000000E+00  0.00000000E+00  0.00000000E+00
  0.00000000E+00  0.00000000E+00  0.00000000E+00
  0.00000000E+00  0.00000000E+00  0.00000000E+00
  0.00000000E+00  0.00000000E+00  0.00000000E+00
  0.00000000E+00  0.00000000E+00  0.00000000E+00
  0.00000000E+00  0.00000000E+00  0.00000000E+00
  0.00000000E+00  0.00000000E+00  0.00000000E+00
  0.00000000E+00  0.00000000E+00  0.00000000E+00
  0.00000000E+00  0.00000000E+00  0.00000000E+00
  0.00000000E+00  0.00000000E+00  0.00000000E+00
  0.00000000E+00  0.00000000E+00  0.00000000E+00
  0.00000000E+00  0.00000000E+00  0.00000000E+00
  0.00000000E+00  0.00000000E+00  0.00000000E+00
  0.00000000E+00  0.00000000E+00  0.00000000E+00
  0.00000000E+00  0.00000000E+00  0.00000000E+00
  0.00000000E+00  0.00000000E+00  0.00000000E+00
  0.00000000E+00  0.00000000E+00  0.00000000E+00
  0.00000000E+00  0.00000000E+00  0.00000000E+00
  0.00000000E+00  0.00000000E+00  0.00000000E+00
  0.00000000E+00  0.00000000E+00  0.00000000E+00
  0.00000000E+00  0.00000000E+00  0.00000000E+00
  0.00000000E+00  0.00000000E+00  0.00000000E+00
  0.00000000E+00  0.00000000E+00  0.00000000E+00
  0.00000000E+00  0.00000000E+00  0.00000000E+00
  0.00000000E+00  0.00000000E+00  0.00000000E+00
  0.00000000E+00  0.00000000E+00  0.00000000E+00
  0.00000000E+00  0.00000000E+00  0.00000000E+00
  0.00000000E+00  0.00000000E+00  0.00000000E+00
  0.00000000E+00  0.00000000E+00  0.00000000E+00
