Ti64 O64 F128                           
   1.00000000000000     
    15.4991587383259404   -0.0030617325796107   -0.0004603406754474
    -0.0030440185138481   15.3515110359398737   -0.0006668240260886
    -0.0004584543817639   -0.0006694727452699   15.4278904498853855
   Ti   O    F 
    64    64   128
Direct
  0.9995646378016800  0.0076047653797889  0.0068038844892471
  0.9927189957930883  0.9922549637734017  0.4989110536815454
  0.9929467660079710  0.4985450596886568  0.9933609711243402
  0.9943432604206427  0.4932784881485307  0.5015792998902491
  0.4989815906857697  0.9920069013715682  0.0059376999722048
  0.5020153375148010  0.9931398052878615  0.5055861203929088
  0.4937015179681623  0.5018155245082560  0.9915898002475291
  0.4941503915970341  0.4938125017378667  0.5008552479685885
  0.9997430084242273  0.0065160821120272  0.2428449713337623
  0.9916596542549754  0.0069264454366398  0.7519509271131963
  0.9937587721481163  0.5063563137430993  0.2480660804882243
  0.0073661255496806  0.4988754070788564  0.7581492885390716
  0.4994339930809585  0.9950885708963803  0.2440300865561436
  0.5016255086949766  0.0064321854257252  0.7435270058187967
  0.4938017691334744  0.4961983505473824  0.2478610208050998
  0.4979088256833136  0.5064167229073749  0.7565541445006527
  0.9996010039303930  0.2431974660653504  0.0058183629991741
  0.9988056361894140  0.2554156960661148  0.5064807602237168
  0.0076167878124625  0.7516908184560258  0.9936228209689111
  0.0055973628979065  0.7544655767907135  0.4945016842942432
  0.5003581447210352  0.2475789939369591  0.0087968673522307
  0.5073273637983692  0.2558881807881151  0.4993862286314184
  0.4979286925700583  0.7566749290139108  0.0079204123943013
  0.5063691004251365  0.7557396270484490  0.4975872874096808
  0.9996820182493991  0.2445505767583616  0.2443027360140736
  0.9981226614542599  0.2417628216693321  0.7443821495548278
  0.0000768790767253  0.7441094584239141  0.2562853971274855
  0.9923318433555172  0.7516641602083562  0.7553657743439534
  0.4998992680390273  0.2568255721241494  0.2451022891460499
  0.5073678410490577  0.2440287701456678  0.7522723822324179
  0.4999314288117420  0.7567924238299231  0.2432973690634386
  0.4934831757643793  0.7442074897419846  0.7519933715221211
  0.2507467548785426  0.9940955246630618  0.0072330593708753
  0.2491148488653941  0.0023313078414982  0.5080474243437826
  0.2568193888980120  0.4945323907308591  0.0002047162016056
  0.2572781886935719  0.4931555210268214  0.4994982804770041
  0.7501814667760066  0.0055672670203359  0.0071823831014690
  0.7585092196107207  0.0069070363164393  0.4982916503231806
  0.7561102160027900  0.5056779440907458  0.9987317291378620
  0.7576784930589686  0.4989795727649954  0.5065829024164252
  0.2505131194023889  0.9939190091821501  0.2445474099543175
  0.2478427012503926  0.9930704817898284  0.7465634032323837
  0.2561759792174850  0.4943248519109695  0.2500795049461292
  0.2417871494960517  0.4931443092568252  0.7499054698774215
  0.7504976193725703  0.0053449094219416  0.2428298865002905
  0.7566469892975565  0.9919950079665566  0.7512127021178224
  0.7567484954100853  0.5051225294856698  0.2514802442508395
  0.7516966659525470  0.4942629237118061  0.7416972049119962
  0.2492615234736691  0.2559242316496181  0.0059902362081650
  0.2512974316674842  0.2572967355315744  0.5062748822642016
  0.2419395799305543  0.7558576445346704  0.0026030762144885
  0.2423087721203962  0.7477255083776836  0.4934364116045932
  0.7507189625381465  0.2443274012612965  0.0074231548707073
  0.7419512769550622  0.2423133593282889  0.4981355701346190
  0.7510825880327180  0.7438978119913873  0.0068479753816837
  0.7431561461384266  0.7506906482547007  0.5071171786949984
  0.2500151390404303  0.2556176817990017  0.2441889772857005
  0.2518491694516867  0.2555700732433102  0.7440316799023031
  0.2502018779419611  0.7555674853550901  0.2579456643805566
  0.2563302514170218  0.7552046356944691  0.7488177066509549
  0.7503876782515143  0.2441780213435682  0.2428647239822092
  0.7424338042958254  0.2564305782238204  0.7512685303004627
  0.7501025488287438  0.7438609696692662  0.2443429211439420
  0.7549144028633398  0.7544412327970649  0.7447426972021228
  0.9992411846079465  0.0007184983913943  0.1242181211308625
  0.4994834775916059  0.0050141203086977  0.1246115375315512
  0.4996892931768327  0.9992575577891966  0.6251969921365230
  0.9995904185734422  0.5036273915703240  0.8756935071372398
  0.4977581518176447  0.4956508245811094  0.8750577513908662
  0.9999780175331771  0.2506222175109774  0.1244279348514172
  0.0000390024801063  0.2462390731370055  0.6257093704769834
  0.5015470771143328  0.2439800354560113  0.1233736575032124
  0.5025871465607276  0.7478794083759167  0.1254628751769478
  0.0020986641871482  0.7479895773711469  0.3728743370242882
  0.0033094983939633  0.7479423838557923  0.8763600189937534
  0.2503118462875069  0.0047036110569883  0.1254723053518132
  0.2503369246844617  0.0032770235594468  0.6236081161574444
  0.7511044935852773  0.9960076656642739  0.1249956884642623
  0.7503159770769139  0.5047331711355147  0.6243391889459193
  0.2502151410385676  0.2473479149949229  0.1249971335167263
  0.2501183824806290  0.2475084455997479  0.6248983410253564
  0.7480333099077149  0.2536627489563557  0.1250265883825908
  0.7458185800930144  0.7552406226662146  0.1255934872371366
  0.7476847747717095  0.7450225214252981  0.6240263940347446
  0.2500491094105183  0.7478416166426883  0.3738708610893028
  0.1247091663142943  0.4974720311179530  0.7494780221123576
  0.1258512633883571  0.7521954982656656  0.0062703126647641
  0.1269924925446442  0.7503975127713786  0.5014183997446536
  0.6245679137339210  0.2498760313130758  0.5023588938544534
  0.6236404828800794  0.7507156339275575  0.4950458190395540
  0.6246770179433618  0.2521101630100520  0.7485270990799721
  0.3752710818422878  0.5010661802041768  0.0040022908568847
  0.3749275748732808  0.5006769753373360  0.4971825276951071
  0.8746810719005466  0.0005642207225011  0.5026466078673225
  0.8748348703443223  0.4953149592884836  0.0024965011455646
  0.8754758611599527  0.4981835020344388  0.4967806004154016
  0.3754212525041529  0.5039239449888059  0.2491069103708684
  0.8757278303675424  0.9983020629057485  0.7474723583284564
  0.8748589072624221  0.4948883990958101  0.2498803834461423
  0.3748952865181816  0.7516351985230570  0.7522742775474587
  0.8760995945229282  0.7518532440242943  0.7517360763719365
  0.9940792169568665  0.1251270547793983  0.9931247610426127
  0.9944252888579190  0.1251170959116388  0.2517765584715474
  0.0012893816063268  0.1248338471913037  0.7591060016999908
  0.9983543203443892  0.6246563356957953  0.2435173726139127
  0.4985098643865910  0.1260057399946221  0.7540396395333037
  0.5002419296231311  0.6242252599502939  0.7493243042821996
  0.0043455856050811  0.3741495012815464  0.5000990563007701
  0.0007799338544178  0.8760506157723449  0.5020915786633451
  0.4985765262257957  0.3743468191592341  0.4966547816250274
  0.4928768770304272  0.8752749731865624  0.9998843975909636
  0.4964913224734235  0.8756498400464596  0.4941794233367909
  0.4979969068731330  0.3735624433517111  0.2486660360568873
  0.4952993989143323  0.8759995808171065  0.2524164542996083
  0.7533917191187540  0.1253266025012004  0.0011003186118050
  0.7496336770962547  0.1252232624891772  0.4946199688478857
  0.7497370680649622  0.6242263721334007  0.0033839223686593
  0.7551102443937127  0.1249804873749736  0.2520303068380680
  0.7512784289662722  0.6247852600105345  0.2492555020783081
  0.2498888295833840  0.3747556294069049  0.9985401780253049
  0.2480259181306826  0.3749474866180315  0.4974295256770733
  0.2560094425495733  0.8756694651135216  0.0002810539101874
  0.2528355504619059  0.3747328808358575  0.2515731713914831
  0.2521974311926851  0.3750009393828484  0.7521746965194911
  0.2550863907961134  0.8755043379983817  0.2485786230067585
  0.2468023910810107  0.8756659542052904  0.7512099085109565
  0.7541664638951355  0.3748625189207099  0.7490104900522118
  0.7463917327815242  0.8760917313922262  0.7499066765728803
  0.0073950080012726  0.0060916805154099  0.6253520450374634
  0.0055932046792386  0.4913432149665753  0.1235352078310445
  0.9974392847949797  0.4986845727054535  0.6274634346677742
  0.5046225496891215  0.5028435380033628  0.1234397565863862
  0.5013124455895007  0.4970820048319124  0.6259253766633158
  0.0011673148525808  0.9981450179774369  0.3731278671949582
  0.0009326233519648  0.9902988123300308  0.8766326726811285
  0.0063896550426527  0.5027643987833683  0.3747639242907591
  0.5012322508840600  0.0062659227099152  0.3739907472227386
  0.5008297364809083  0.9992978376273702  0.8761650581074008
  0.5040386595406541  0.5049191608009553  0.3739744250379304
  0.9951025340404949  0.7565069334643661  0.1243916457851961
  0.9998427270740142  0.7485935933648258  0.6257231722310735
  0.4930013702736017  0.2493324457506235  0.6253024169807530
  0.5007785183585154  0.7541545419546388  0.6254560527249382
  0.9985305926998729  0.2501980932315502  0.3743259403554716
  0.9987339533874270  0.2578005958249601  0.8759523956262550
  0.4988025781722935  0.2457838548909967  0.3732095760870098
  0.4994865741652119  0.2584106490570988  0.8784571380167236
  0.4927579823979414  0.7418740966188431  0.3725015231457933
  0.5003475801662182  0.7481791515698059  0.8778219452642333
  0.2441441531496703  0.5032851622333249  0.1252144375731858
  0.2517767371098448  0.5024622708448228  0.6248443928998387
  0.7430498962014974  0.0030591750819507  0.6243589656895413
  0.7448039479982468  0.4905179590972317  0.1251691855325351
  0.2489395199765591  0.9984135103577678  0.3760328827881259
  0.2492034999313084  0.0026191293645494  0.8756887227570836
  0.2446198506226416  0.5083824568471235  0.3747214191045964
  0.2524420983112505  0.5074149492069028  0.8748929957260332
  0.7493616421102709  0.9954438528413760  0.3734210927459448
  0.7492746777065415  0.0028357520177798  0.8766432851664724
  0.7447146399253932  0.4946115524131358  0.3757963362608427
  0.7485377334331372  0.4994614760891784  0.8737851170476574
  0.2581208841780250  0.7457811249128058  0.1262443210031000
  0.2534262406534796  0.7504571129746218  0.6237755209468007
  0.7561422374299994  0.2477217155424006  0.6244394946462225
  0.2519209433077266  0.2483942892242673  0.3744563861734421
  0.2514708392652805  0.2473961389939553  0.8758371122751754
  0.2478474983513584  0.7445134437198824  0.8758799004721014
  0.7503170905243799  0.2556958299912579  0.3733911321603225
  0.7500797946516209  0.2486519685494528  0.8766716206599962
  0.7542748188350998  0.7536470058035178  0.3738509735912942
  0.7489251346510405  0.7492766498471405  0.8772012990709831
  0.1246051561912421  0.0005500413323447  0.9969723910259101
  0.1258093419074172  0.0022577830657671  0.4971869831178723
  0.1258294783892026  0.5030985107784177  0.9987658196306684
  0.1260946930269055  0.5038085169429171  0.5036847452699267
  0.6247308825134511  0.0000378087063259  0.9977455590996682
  0.6263973953272471  0.9992408963248706  0.4969247413934710
  0.6239629146847259  0.4966812982513295  0.9996914680050821
  0.6249539953291012  0.5001677312654217  0.4996836733996486
  0.1248675001453102  0.0012841794693962  0.2530167830698926
  0.1242262597984939  0.0029312450389056  0.7526632814489537
  0.1259353262240193  0.4989028654270132  0.2497688402152019
  0.6251745202840128  0.0014091352717735  0.2521869680908762
  0.6261395357764863  0.0044168844859378  0.7531396435130890
  0.6241156716095808  0.4989223830442228  0.2494973365033157
  0.6243485734546462  0.4955316179931891  0.7500642659249529
  0.1245752208200965  0.2460195267149398  0.9957900110459741
  0.1256866675410981  0.2433452131116422  0.4954646526627985
  0.6241355401830148  0.2496492544975777  0.9950576315177836
  0.6237809392516958  0.7538070005877875  0.9963250079580277
  0.1249128792864493  0.2475617513635169  0.2537841574744323
  0.1248748166722034  0.2526345283077172  0.7548708405775381
  0.1259555692690699  0.7526387451437062  0.2397597443461816
  0.1267077974425593  0.7457878185701442  0.7475427657663789
  0.6247889334384562  0.2471138206610112  0.2545556527961708
  0.6241135466208939  0.7526626109955284  0.2588570358260951
  0.6230355555257105  0.7494342392980042  0.7532397230832325
  0.3754386100536349  0.0116591332398527  0.9959474698220719
  0.3739948890537383  0.0049135033146872  0.4953124389358545
  0.8747547458256837  0.9938101269154022  0.9951786635460417
  0.3751091509699891  0.0098805714643282  0.2546888031561750
  0.3745480436989650  0.9983893866023247  0.7541825074085509
  0.3730263130746131  0.5014024386065128  0.7469197768931498
  0.8750656551684390  0.9914598519944214  0.2544274130276911
  0.8764006686860644  0.5047273207658941  0.7505273469111546
  0.3766714769745919  0.2456215439706733  0.9973805430322751
  0.3756903220984499  0.2452379423669905  0.4972268116418353
  0.3747494782849003  0.7415525344904437  0.9978799962287306
  0.3746790115546006  0.7467153431497182  0.5019040731235680
  0.8747655403573754  0.2599581496422395  0.9975330839269282
  0.8735717715888113  0.2513475393911617  0.4972886384584899
  0.8757498443980498  0.7532482180519309  0.0007360879855383
  0.8741546918561772  0.7487305387504019  0.4993153288277221
  0.3757305808610261  0.2412439990168183  0.2514240121211520
  0.3761483527145527  0.2493852019354627  0.7540330536017236
  0.3755771319779513  0.7407647046731052  0.2481872257716664
  0.8745594075718056  0.2596903146303297  0.2520978285551136
  0.8734722688712135  0.2469306417199364  0.7534208422186256
  0.8746908384805878  0.7592587763655787  0.2482222321841843
  0.0008626272257772  0.1246419422729895  0.4948996234122929
  0.9977862375159235  0.6249846056461579  0.0100270250339686
  0.0001139070611783  0.6234603443795007  0.5033727421054834
  0.5044046702751501  0.1251892786242493  0.9902533441149974
  0.4992184891061867  0.1252528913581121  0.4996681162143057
  0.5058976745661088  0.6263362861539783  0.9976755230466964
  0.5005796677917039  0.6243121574992730  0.5042365256209509
  0.0008979869270334  0.6244694153025092  0.7449100060853759
  0.5037764414846293  0.1259614902656926  0.2525730604701711
  0.5059953568094283  0.6250870988557308  0.2495086538017595
  0.0077652299707093  0.3734467947344438  0.9981670155122332
  0.9994173124975417  0.8774541827774430  0.9994751906308295
  0.5000541072561382  0.3731260020636173  0.0061857564115789
  0.0056674891854966  0.3739357308036798  0.2539330492781280
  0.9942610811259901  0.3739734327784465  0.7502268466620546
  0.0041809256813689  0.8767181319774959  0.2502132392338941
  0.0090346434100192  0.8768742958602569  0.7456380466640361
  0.4949456053392257  0.3746896460635841  0.7460932682111273
  0.5032586797234107  0.8757744924693930  0.7547629565834921
  0.2479404256835153  0.1255575184148222  0.9956133760981546
  0.2500445797266548  0.1257222903491267  0.4931285975845150
  0.2491889298551793  0.6249715545457070  0.0013077615251947
  0.2499028412186225  0.6230911560248261  0.5040584378015208
  0.7495304886868924  0.6242359435316974  0.4888547156083013
  0.2467770704650475  0.1250366647107571  0.2562490846395861
  0.2502671096004241  0.1249542412056783  0.7537939901932601
  0.2449798583415748  0.6250791588609489  0.2469023325354339
  0.2506766628687084  0.6242387638461763  0.7477576848887989
  0.7504720608926467  0.1257035646029733  0.7498501228416580
  0.7465926750161591  0.6233838407997144  0.7568712795047968
  0.2546475245678362  0.8765357264515002  0.5000300209050547
  0.7444976983957251  0.3734371607974035  0.9944573076736736
  0.7497922103252339  0.3730536491776070  0.5018961840808546
  0.7482205841347022  0.8764537206432491  0.9936526692575235
  0.7490403021218281  0.8771013330866096  0.5013077886021641
  0.7434870372610088  0.3735042436446413  0.2528234459751432
  0.7455034887128180  0.8764061403318434  0.2544135456075992
 
  0.00000000E+00  0.00000000E+00  0.00000000E+00
  0.00000000E+00  0.00000000E+00  0.00000000E+00
  0.00000000E+00  0.00000000E+00  0.00000000E+00
  0.00000000E+00  0.00000000E+00  0.00000000E+00
  0.00000000E+00  0.00000000E+00  0.00000000E+00
  0.00000000E+00  0.00000000E+00  0.00000000E+00
  0.00000000E+00  0.00000000E+00  0.00000000E+00
  0.00000000E+00  0.00000000E+00  0.00000000E+00
  0.00000000E+00  0.00000000E+00  0.00000000E+00
  0.00000000E+00  0.00000000E+00  0.00000000E+00
  0.00000000E+00  0.00000000E+00  0.00000000E+00
  0.00000000E+00  0.00000000E+00  0.00000000E+00
  0.00000000E+00  0.00000000E+00  0.00000000E+00
  0.00000000E+00  0.00000000E+00  0.00000000E+00
  0.00000000E+00  0.00000000E+00  0.00000000E+00
  0.00000000E+00  0.00000000E+00  0.00000000E+00
  0.00000000E+00  0.00000000E+00  0.00000000E+00
  0.00000000E+00  0.00000000E+00  0.00000000E+00
  0.00000000E+00  0.00000000E+00  0.00000000E+00
  0.00000000E+00  0.00000000E+00  0.00000000E+00
  0.00000000E+00  0.00000000E+00  0.00000000E+00
  0.00000000E+00  0.00000000E+00  0.00000000E+00
  0.00000000E+00  0.00000000E+00  0.00000000E+00
  0.00000000E+00  0.00000000E+00  0.00000000E+00
  0.00000000E+00  0.00000000E+00  0.00000000E+00
  0.00000000E+00  0.00000000E+00  0.00000000E+00
  0.00000000E+00  0.00000000E+00  0.00000000E+00
  0.00000000E+00  0.00000000E+00  0.00000000E+00
  0.00000000E+00  0.00000000E+00  0.00000000E+00
  0.00000000E+00  0.00000000E+00  0.00000000E+00
  0.00000000E+00  0.00000000E+00  0.00000000E+00
  0.00000000E+00  0.00000000E+00  0.00000000E+00
  0.00000000E+00  0.00000000E+00  0.00000000E+00
  0.00000000E+00  0.00000000E+00  0.00000000E+00
  0.00000000E+00  0.00000000E+00  0.00000000E+00
  0.00000000E+00  0.00000000E+00  0.00000000E+00
  0.00000000E+00  0.00000000E+00  0.00000000E+00
  0.00000000E+00  0.00000000E+00  0.00000000E+00
  0.00000000E+00  0.00000000E+00  0.00000000E+00
  0.00000000E+00  0.00000000E+00  0.00000000E+00
  0.00000000E+00  0.00000000E+00  0.00000000E+00
  0.00000000E+00  0.00000000E+00  0.00000000E+00
  0.00000000E+00  0.00000000E+00  0.00000000E+00
  0.00000000E+00  0.00000000E+00  0.00000000E+00
  0.00000000E+00  0.00000000E+00  0.00000000E+00
  0.00000000E+00  0.00000000E+00  0.00000000E+00
  0.00000000E+00  0.00000000E+00  0.00000000E+00
  0.00000000E+00  0.00000000E+00  0.00000000E+00
  0.00000000E+00  0.00000000E+00  0.00000000E+00
  0.00000000E+00  0.00000000E+00  0.00000000E+00
  0.00000000E+00  0.00000000E+00  0.00000000E+00
  0.00000000E+00  0.00000000E+00  0.00000000E+00
  0.00000000E+00  0.00000000E+00  0.00000000E+00
  0.00000000E+00  0.00000000E+00  0.00000000E+00
  0.00000000E+00  0.00000000E+00  0.00000000E+00
  0.00000000E+00  0.00000000E+00  0.00000000E+00
  0.00000000E+00  0.00000000E+00  0.00000000E+00
  0.00000000E+00  0.00000000E+00  0.00000000E+00
  0.00000000E+00  0.00000000E+00  0.00000000E+00
  0.00000000E+00  0.00000000E+00  0.00000000E+00
  0.00000000E+00  0.00000000E+00  0.00000000E+00
  0.00000000E+00  0.00000000E+00  0.00000000E+00
  0.00000000E+00  0.00000000E+00  0.00000000E+00
  0.00000000E+00  0.00000000E+00  0.00000000E+00
  0.00000000E+00  0.00000000E+00  0.00000000E+00
  0.00000000E+00  0.00000000E+00  0.00000000E+00
  0.00000000E+00  0.00000000E+00  0.00000000E+00
  0.00000000E+00  0.00000000E+00  0.00000000E+00
  0.00000000E+00  0.00000000E+00  0.00000000E+00
  0.00000000E+00  0.00000000E+00  0.00000000E+00
  0.00000000E+00  0.00000000E+00  0.00000000E+00
  0.00000000E+00  0.00000000E+00  0.00000000E+00
  0.00000000E+00  0.00000000E+00  0.00000000E+00
  0.00000000E+00  0.00000000E+00  0.00000000E+00
  0.00000000E+00  0.00000000E+00  0.00000000E+00
  0.00000000E+00  0.00000000E+00  0.00000000E+00
  0.00000000E+00  0.00000000E+00  0.00000000E+00
  0.00000000E+00  0.00000000E+00  0.00000000E+00
  0.00000000E+00  0.00000000E+00  0.00000000E+00
  0.00000000E+00  0.00000000E+00  0.00000000E+00
  0.00000000E+00  0.00000000E+00  0.00000000E+00
  0.00000000E+00  0.00000000E+00  0.00000000E+00
  0.00000000E+00  0.00000000E+00  0.00000000E+00
  0.00000000E+00  0.00000000E+00  0.00000000E+00
  0.00000000E+00  0.00000000E+00  0.00000000E+00
  0.00000000E+00  0.00000000E+00  0.00000000E+00
  0.00000000E+00  0.00000000E+00  0.00000000E+00
  0.00000000E+00  0.00000000E+00  0.00000000E+00
  0.00000000E+00  0.00000000E+00  0.00000000E+00
  0.00000000E+00  0.00000000E+00  0.00000000E+00
  0.00000000E+00  0.00000000E+00  0.00000000E+00
  0.00000000E+00  0.00000000E+00  0.00000000E+00
  0.00000000E+00  0.00000000E+00  0.00000000E+00
  0.00000000E+00  0.00000000E+00  0.00000000E+00
  0.00000000E+00  0.00000000E+00  0.00000000E+00
  0.00000000E+00  0.00000000E+00  0.00000000E+00
  0.00000000E+00  0.00000000E+00  0.00000000E+00
  0.00000000E+00  0.00000000E+00  0.00000000E+00
  0.00000000E+00  0.00000000E+00  0.00000000E+00
  0.00000000E+00  0.00000000E+00  0.00000000E+00
  0.00000000E+00  0.00000000E+00  0.00000000E+00
  0.00000000E+00  0.00000000E+00  0.00000000E+00
  0.00000000E+00  0.00000000E+00  0.00000000E+00
  0.00000000E+00  0.00000000E+00  0.00000000E+00
  0.00000000E+00  0.00000000E+00  0.00000000E+00
  0.00000000E+00  0.00000000E+00  0.00000000E+00
  0.00000000E+00  0.00000000E+00  0.00000000E+00
  0.00000000E+00  0.00000000E+00  0.00000000E+00
  0.00000000E+00  0.00000000E+00  0.00000000E+00
  0.00000000E+00  0.00000000E+00  0.00000000E+00
  0.00000000E+00  0.00000000E+00  0.00000000E+00
  0.00000000E+00  0.00000000E+00  0.00000000E+00
  0.00000000E+00  0.00000000E+00  0.00000000E+00
  0.00000000E+00  0.00000000E+00  0.00000000E+00
  0.00000000E+00  0.00000000E+00  0.00000000E+00
  0.00000000E+00  0.00000000E+00  0.00000000E+00
  0.00000000E+00  0.00000000E+00  0.00000000E+00
  0.00000000E+00  0.00000000E+00  0.00000000E+00
  0.00000000E+00  0.00000000E+00  0.00000000E+00
  0.00000000E+00  0.00000000E+00  0.00000000E+00
  0.00000000E+00  0.00000000E+00  0.00000000E+00
  0.00000000E+00  0.00000000E+00  0.00000000E+00
  0.00000000E+00  0.00000000E+00  0.00000000E+00
  0.00000000E+00  0.00000000E+00  0.00000000E+00
  0.00000000E+00  0.00000000E+00  0.00000000E+00
  0.00000000E+00  0.00000000E+00  0.00000000E+00
  0.00000000E+00  0.00000000E+00  0.00000000E+00
  0.00000000E+00  0.00000000E+00  0.00000000E+00
  0.00000000E+00  0.00000000E+00  0.00000000E+00
  0.00000000E+00  0.00000000E+00  0.00000000E+00
  0.00000000E+00  0.00000000E+00  0.00000000E+00
  0.00000000E+00  0.00000000E+00  0.00000000E+00
  0.00000000E+00  0.00000000E+00  0.00000000E+00
  0.00000000E+00  0.00000000E+00  0.00000000E+00
  0.00000000E+00  0.00000000E+00  0.00000000E+00
  0.00000000E+00  0.00000000E+00  0.00000000E+00
  0.00000000E+00  0.00000000E+00  0.00000000E+00
  0.00000000E+00  0.00000000E+00  0.00000000E+00
  0.00000000E+00  0.00000000E+00  0.00000000E+00
  0.00000000E+00  0.00000000E+00  0.00000000E+00
  0.00000000E+00  0.00000000E+00  0.00000000E+00
  0.00000000E+00  0.00000000E+00  0.00000000E+00
  0.00000000E+00  0.00000000E+00  0.00000000E+00
  0.00000000E+00  0.00000000E+00  0.00000000E+00
  0.00000000E+00  0.00000000E+00  0.00000000E+00
  0.00000000E+00  0.00000000E+00  0.00000000E+00
  0.00000000E+00  0.00000000E+00  0.00000000E+00
  0.00000000E+00  0.00000000E+00  0.00000000E+00
  0.00000000E+00  0.00000000E+00  0.00000000E+00
  0.00000000E+00  0.00000000E+00  0.00000000E+00
  0.00000000E+00  0.00000000E+00  0.00000000E+00
  0.00000000E+00  0.00000000E+00  0.00000000E+00
  0.00000000E+00  0.00000000E+00  0.00000000E+00
  0.00000000E+00  0.00000000E+00  0.00000000E+00
  0.00000000E+00  0.00000000E+00  0.00000000E+00
  0.00000000E+00  0.00000000E+00  0.00000000E+00
  0.00000000E+00  0.00000000E+00  0.00000000E+00
  0.00000000E+00  0.00000000E+00  0.00000000E+00
  0.00000000E+00  0.00000000E+00  0.00000000E+00
  0.00000000E+00  0.00000000E+00  0.00000000E+00
  0.00000000E+00  0.00000000E+00  0.00000000E+00
  0.00000000E+00  0.00000000E+00  0.00000000E+00
  0.00000000E+00  0.00000000E+00  0.00000000E+00
  0.00000000E+00  0.00000000E+00  0.00000000E+00
  0.00000000E+00  0.00000000E+00  0.00000000E+00
  0.00000000E+00  0.00000000E+00  0.00000000E+00
  0.00000000E+00  0.00000000E+00  0.00000000E+00
  0.00000000E+00  0.00000000E+00  0.00000000E+00
  0.00000000E+00  0.00000000E+00  0.00000000E+00
  0.00000000E+00  0.00000000E+00  0.00000000E+00
  0.00000000E+00  0.00000000E+00  0.00000000E+00
  0.00000000E+00  0.00000000E+00  0.00000000E+00
  0.00000000E+00  0.00000000E+00  0.00000000E+00
  0.00000000E+00  0.00000000E+00  0.00000000E+00
  0.00000000E+00  0.00000000E+00  0.00000000E+00
  0.00000000E+00  0.00000000E+00  0.00000000E+00
  0.00000000E+00  0.00000000E+00  0.00000000E+00
  0.00000000E+00  0.00000000E+00  0.00000000E+00
  0.00000000E+00  0.00000000E+00  0.00000000E+00
  0.00000000E+00  0.00000000E+00  0.00000000E+00
  0.00000000E+00  0.00000000E+00  0.00000000E+00
  0.00000000E+00  0.00000000E+00  0.00000000E+00
  0.00000000E+00  0.00000000E+00  0.00000000E+00
  0.00000000E+00  0.00000000E+00  0.00000000E+00
  0.00000000E+00  0.00000000E+00  0.00000000E+00
  0.00000000E+00  0.00000000E+00  0.00000000E+00
  0.00000000E+00  0.00000000E+00  0.00000000E+00
  0.00000000E+00  0.00000000E+00  0.00000000E+00
  0.00000000E+00  0.00000000E+00  0.00000000E+00
  0.00000000E+00  0.00000000E+00  0.00000000E+00
  0.00000000E+00  0.00000000E+00  0.00000000E+00
  0.00000000E+00  0.00000000E+00  0.00000000E+00
  0.00000000E+00  0.00000000E+00  0.00000000E+00
  0.00000000E+00  0.00000000E+00  0.00000000E+00
  0.00000000E+00  0.00000000E+00  0.00000000E+00
  0.00000000E+00  0.00000000E+00  0.00000000E+00
  0.00000000E+00  0.00000000E+00  0.00000000E+00
  0.00000000E+00  0.00000000E+00  0.00000000E+00
  0.00000000E+00  0.00000000E+00  0.00000000E+00
  0.00000000E+00  0.00000000E+00  0.00000000E+00
  0.00000000E+00  0.00000000E+00  0.00000000E+00
  0.00000000E+00  0.00000000E+00  0.00000000E+00
  0.00000000E+00  0.00000000E+00  0.00000000E+00
  0.00000000E+00  0.00000000E+00  0.00000000E+00
  0.00000000E+00  0.00000000E+00  0.00000000E+00
  0.00000000E+00  0.00000000E+00  0.00000000E+00
  0.00000000E+00  0.00000000E+00  0.00000000E+00
  0.00000000E+00  0.00000000E+00  0.00000000E+00
  0.00000000E+00  0.00000000E+00  0.00000000E+00
  0.00000000E+00  0.00000000E+00  0.00000000E+00
  0.00000000E+00  0.00000000E+00  0.00000000E+00
  0.00000000E+00  0.00000000E+00  0.00000000E+00
  0.00000000E+00  0.00000000E+00  0.00000000E+00
  0.00000000E+00  0.00000000E+00  0.00000000E+00
  0.00000000E+00  0.00000000E+00  0.00000000E+00
  0.00000000E+00  0.00000000E+00  0.00000000E+00
  0.00000000E+00  0.00000000E+00  0.00000000E+00
  0.00000000E+00  0.00000000E+00  0.00000000E+00
  0.00000000E+00  0.00000000E+00  0.00000000E+00
  0.00000000E+00  0.00000000E+00  0.00000000E+00
  0.00000000E+00  0.00000000E+00  0.00000000E+00
  0.00000000E+00  0.00000000E+00  0.00000000E+00
  0.00000000E+00  0.00000000E+00  0.00000000E+00
  0.00000000E+00  0.00000000E+00  0.00000000E+00
  0.00000000E+00  0.00000000E+00  0.00000000E+00
  0.00000000E+00  0.00000000E+00  0.00000000E+00
  0.00000000E+00  0.00000000E+00  0.00000000E+00
  0.00000000E+00  0.00000000E+00  0.00000000E+00
  0.00000000E+00  0.00000000E+00  0.00000000E+00
  0.00000000E+00  0.00000000E+00  0.00000000E+00
  0.00000000E+00  0.00000000E+00  0.00000000E+00
  0.00000000E+00  0.00000000E+00  0.00000000E+00
  0.00000000E+00  0.00000000E+00  0.00000000E+00
  0.00000000E+00  0.00000000E+00  0.00000000E+00
  0.00000000E+00  0.00000000E+00  0.00000000E+00
  0.00000000E+00  0.00000000E+00  0.00000000E+00
  0.00000000E+00  0.00000000E+00  0.00000000E+00
  0.00000000E+00  0.00000000E+00  0.00000000E+00
  0.00000000E+00  0.00000000E+00  0.00000000E+00
  0.00000000E+00  0.00000000E+00  0.00000000E+00
  0.00000000E+00  0.00000000E+00  0.00000000E+00
  0.00000000E+00  0.00000000E+00  0.00000000E+00
  0.00000000E+00  0.00000000E+00  0.00000000E+00
  0.00000000E+00  0.00000000E+00  0.00000000E+00
  0.00000000E+00  0.00000000E+00  0.00000000E+00
  0.00000000E+00  0.00000000E+00  0.00000000E+00
  0.00000000E+00  0.00000000E+00  0.00000000E+00
  0.00000000E+00  0.00000000E+00  0.00000000E+00
  0.00000000E+00  0.00000000E+00  0.00000000E+00
  0.00000000E+00  0.00000000E+00  0.00000000E+00
  0.00000000E+00  0.00000000E+00  0.00000000E+00
  0.00000000E+00  0.00000000E+00  0.00000000E+00
  0.00000000E+00  0.00000000E+00  0.00000000E+00
  0.00000000E+00  0.00000000E+00  0.00000000E+00
  0.00000000E+00  0.00000000E+00  0.00000000E+00
  0.00000000E+00  0.00000000E+00  0.00000000E+00
