TiOF2 2x2x2 config 0008                 
   1.00000000000000     
     7.9030987038062213   -0.0000027385817697   -0.0000030548139794
    -0.0000026958170675    7.7908280587038030   -0.0000045577275265
    -0.0000028998424429   -0.0000043865078367    7.5144349171163736
   Ti   O    F 
     8     8    16
Direct
  0.9999999280582702  0.0002691777192720  0.9893048674906457
 -0.0000000582376147  0.0002691484620486  0.5106951574220214
  1.0000000834096043  0.4999285336714642  0.0006555174020763
  1.0000000934438444  0.4999285223584398  0.4993446722776282
  0.4999999465709358  0.9906460706713477  0.0006782375061889
  0.4999999538455082  0.9906459616796712  0.4993210046030384
  0.5000000380112419  0.5157625178953522  0.9893680180096365
  0.5000000594489703  0.5157625396928452  0.5106321280090389
  0.4999998014573086  0.7470555682947020  0.0036700123352645
  0.4999998697843521  0.7470555184623991  0.4963300736618103
  0.0000000140037865  0.9995312558826963  0.7499999727402957
  0.0000000536265494  0.5005518080362391  0.2500000016482748
  0.9999999795577361  0.5008127437292528  0.7499999921580128
  0.4999999756430514  0.0053200556111710  0.2499999322779259
  0.4999999559688169  0.0059154873869930  0.7500000933177012
  0.5000000916440066  0.4900145229510420  0.7500001060339828
  0.2398093916450233  0.0013390190763495  0.0050172393613002
  0.2398093717915809  0.0013388010854096  0.4949826932675124
  0.2465000596161659  0.4987117375899738  0.0034026625986544
  0.2465000546743013  0.4987117928590922  0.4965972844293545
  0.7601904736942329  0.0013391558002591  0.0050172521274683
  0.7601904949721749  0.0013391364694268  0.4949827684680820
  0.7535002107090808  0.4987112878519128  0.0034031703821134
  0.7535002525345439  0.4987112009139376  0.4965969729122540
  0.9999997317846572  0.2458904221668650  0.0047416437053172
 -0.0000002035413158  0.2458903786629409  0.4952582933236526
  0.0000001667094450  0.7544180489825308  0.0049051120891212
  1.0000000511920946  0.7544180208144762  0.4950949489440049
  0.5000000806441455  0.2525674216835860  0.0041363860695151
  0.5000000276328540  0.2525674712298664  0.4958637421719368
 -0.0000000067714676  0.9996743915385530  0.2500000103574656
  0.5000000564761230  0.4849022807698841  0.2500000328987267
 
  0.00000000E+00  0.00000000E+00  0.00000000E+00
  0.00000000E+00  0.00000000E+00  0.00000000E+00
  0.00000000E+00  0.00000000E+00  0.00000000E+00
  0.00000000E+00  0.00000000E+00  0.00000000E+00
  0.00000000E+00  0.00000000E+00  0.00000000E+00
  0.00000000E+00  0.00000000E+00  0.00000000E+00
  0.00000000E+00  0.00000000E+00  0.00000000E+00
  0.00000000E+00  0.00000000E+00  0.00000000E+00
  0.00000000E+00  0.00000000E+00  0.00000000E+00
  0.00000000E+00  0.00000000E+00  0.00000000E+00
  0.00000000E+00  0.00000000E+00  0.00000000E+00
  0.00000000E+00  0.00000000E+00  0.00000000E+00
  0.00000000E+00  0.00000000E+00  0.00000000E+00
  0.00000000E+00  0.00000000E+00  0.00000000E+00
  0.00000000E+00  0.00000000E+00  0.00000000E+00
  0.00000000E+00  0.00000000E+00  0.00000000E+00
  0.00000000E+00  0.00000000E+00  0.00000000E+00
  0.00000000E+00  0.00000000E+00  0.00000000E+00
  0.00000000E+00  0.00000000E+00  0.00000000E+00
  0.00000000E+00  0.00000000E+00  0.00000000E+00
  0.00000000E+00  0.00000000E+00  0.00000000E+00
  0.00000000E+00  0.00000000E+00  0.00000000E+00
  0.00000000E+00  0.00000000E+00  0.00000000E+00
  0.00000000E+00  0.00000000E+00  0.00000000E+00
  0.00000000E+00  0.00000000E+00  0.00000000E+00
  0.00000000E+00  0.00000000E+00  0.00000000E+00
  0.00000000E+00  0.00000000E+00  0.00000000E+00
  0.00000000E+00  0.00000000E+00  0.00000000E+00
  0.00000000E+00  0.00000000E+00  0.00000000E+00
  0.00000000E+00  0.00000000E+00  0.00000000E+00
  0.00000000E+00  0.00000000E+00  0.00000000E+00
  0.00000000E+00  0.00000000E+00  0.00000000E+00
