TiOF2 2x2x2 config 0297                 
   1.00000000000000     
     7.8448314124438951   -0.0000000296073966   -0.0000000151390535
    -0.0000000348040834    7.6640702849965399    0.0043102451102436
    -0.0000000085001008    0.0043098089531763    7.6640619134620795
   Ti   O    F 
     8     8    16
Direct
  0.0000000042532252 -0.0121252175770970 -0.0121255231966749
 -0.0000000049760533  0.0121253572695931  0.5121256082518001
 -0.0000000049958757  0.5121253513617535  0.0121256373315148
  0.0000000042666783  0.4878747485457184  0.4878744944788478
  0.5000000046276780 -0.0121254547961393 -0.0121257169168818
  0.4999999958624063  0.0121252022359157  0.5121254997186357
  0.4999999958421999  0.5121252099032735  0.0121254894161247
  0.5000000046877767  0.4878745655555905  0.4878742870850400
  0.0000000002388540  0.2499997670926885  0.4999999522730757
  0.0000000004340835  0.7499997807690119 -0.0000000428031348
  0.4999999999402345  0.2500001855781179  0.5000000029922543
  0.4999999994835103  0.7500001870341519 -0.0000000026782658
 -0.0000000001531992 -0.0000000266562364  0.7499997442806328
 -0.0000000002587635  0.4999999362669292  0.2499998003120422
  0.5000000002791098  0.0000000095663267  0.7500001464563641
  0.5000000003788412  0.4999999945628893  0.2500002315809641
  0.2500000013037953  0.0074450491018606  0.0074449995136012
  0.2499999856560400 -0.0074448267218863  0.4925551755739830
  0.2499999822387201  0.4925550498056548 -0.0074449085757507
  0.2499999940873364  0.5074449594909249  0.5074449558074682
  0.7500000059437544  0.0074450494597890  0.0074450024573401
  0.7500000069308600 -0.0074448298060937  0.4925551723484923
  0.7500000102055467  0.4925550472407625 -0.0074449119579521
  0.7500000132186893  0.5074449604059442  0.5074449590137999
  0.0000000002540304  0.2499999616518991 -0.0000000215569275
  0.0000000006317983  0.7499999506083129  0.4999999798951972
  0.4999999996725209  0.2500000672173567 -0.0000000384980985
  0.4999999995401216  0.7500000840263430  0.4999999653184266
  0.0000000010398981 -0.0000000042496804  0.2499999893859885
  0.0000000011090636  0.4999999644142631  0.7499999214880200
  0.4999999991747953 -0.0000000333523770  0.2500000918015168
  0.4999999990823253  0.4999999539944404  0.7500000594025554
 
  0.00000000E+00  0.00000000E+00  0.00000000E+00
  0.00000000E+00  0.00000000E+00  0.00000000E+00
  0.00000000E+00  0.00000000E+00  0.00000000E+00
  0.00000000E+00  0.00000000E+00  0.00000000E+00
  0.00000000E+00  0.00000000E+00  0.00000000E+00
  0.00000000E+00  0.00000000E+00  0.00000000E+00
  0.00000000E+00  0.00000000E+00  0.00000000E+00
  0.00000000E+00  0.00000000E+00  0.00000000E+00
  0.00000000E+00  0.00000000E+00  0.00000000E+00
  0.00000000E+00  0.00000000E+00  0.00000000E+00
  0.00000000E+00  0.00000000E+00  0.00000000E+00
  0.00000000E+00  0.00000000E+00  0.00000000E+00
  0.00000000E+00  0.00000000E+00  0.00000000E+00
  0.00000000E+00  0.00000000E+00  0.00000000E+00
  0.00000000E+00  0.00000000E+00  0.00000000E+00
  0.00000000E+00  0.00000000E+00  0.00000000E+00
  0.00000000E+00  0.00000000E+00  0.00000000E+00
  0.00000000E+00  0.00000000E+00  0.00000000E+00
  0.00000000E+00  0.00000000E+00  0.00000000E+00
  0.00000000E+00  0.00000000E+00  0.00000000E+00
  0.00000000E+00  0.00000000E+00  0.00000000E+00
  0.00000000E+00  0.00000000E+00  0.00000000E+00
  0.00000000E+00  0.00000000E+00  0.00000000E+00
  0.00000000E+00  0.00000000E+00  0.00000000E+00
  0.00000000E+00  0.00000000E+00  0.00000000E+00
  0.00000000E+00  0.00000000E+00  0.00000000E+00
  0.00000000E+00  0.00000000E+00  0.00000000E+00
  0.00000000E+00  0.00000000E+00  0.00000000E+00
  0.00000000E+00  0.00000000E+00  0.00000000E+00
  0.00000000E+00  0.00000000E+00  0.00000000E+00
  0.00000000E+00  0.00000000E+00  0.00000000E+00
  0.00000000E+00  0.00000000E+00  0.00000000E+00
