Ti64 O64 F128                           
   1.00000000000000     
    15.3117422655665525   -0.0036110605841853    0.0013108717061300
    -0.0035892640432849   15.2245881045355169    0.0369366309860709
     0.0013387773383145    0.0369652919699618   15.2554096746558798
   Ti   O    F 
    64    64   128
Direct
  0.0011136610120843  0.9948117756404073  0.9949454574641408
  0.0020982511660250  0.9910541616230475  0.5041986465307957
  0.0039791422217590  0.4971425251702399  0.0067697374107638
  0.0077001913792074  0.5036086890572307  0.5063334919435434
  0.4904199921506986  0.0054047998999209  0.0040512431183828
  0.4988971086995235  0.9927431575018915  0.4906098698870380
  0.4933552527436262  0.4975371491717979  0.9921760662228039
  0.4992092052228188  0.4935652900905509  0.4914665742525557
  0.0060596022135044  0.0113995916483702  0.2513660135921683
  0.9953999529289135  0.9939175810544825  0.7584223555554033
  0.9949586680327869  0.4990943526808920  0.2446462239493030
  0.0007898843660712  0.4957253705846298  0.7446193500431022
  0.4947226497909085  0.0075925818354250  0.2554517367722440
  0.5093004840880297  0.0033747003359395  0.7477360756253546
  0.4931375836592693  0.4968787753249657  0.2542001402240075
  0.4959366853599647  0.5064329689980127  0.7529546395407820
  0.0015746606735760  0.2570558410440000  0.0066698308039079
  0.0049777647899205  0.2458359491322355  0.5072181502635118
  0.9947546515204735  0.7584497534337373  0.0015740841020957
  0.0022058107589871  0.7574300864298635  0.4931529385616145
  0.4909223893459398  0.2440887540271461  0.9998345263439390
  0.5067075709785982  0.2541037570399638  0.4995878034076568
  0.4948596013757225  0.7517845503388543  0.9914952774785917
  0.5017925519902349  0.7534198958416383  0.4909541934755097
  0.9956391586504481  0.2435044986986696  0.2455386059850184
  0.9990592765117512  0.2557354237394165  0.7440956923772504
  0.9960100047131988  0.7550322713168072  0.2576026795719812
  0.9908604416781444  0.7558357334709385  0.7484457334004730
  0.5072111673906221  0.2397480119461193  0.2469183168905715
  0.4932411443271221  0.2416588460038298  0.7508702183409923
  0.4945838743007585  0.7499582995261420  0.2544058264428486
  0.5045002940002661  0.7416849290788434  0.7525184115457577
  0.2581056690871719  0.9995960089248186  0.9939822814477921
  0.2502423582734181  0.9921664681927780  0.4928725075283609
  0.2573695906944096  0.4962931909245967  0.0081659224112514
  0.2418406541058076  0.4931512233281481  0.4959288649050464
  0.7478521124387427  0.9959638120147147  0.9957963080222356
  0.7514365675701669  0.0053530741889105  0.4934757225529651
  0.7470723104338859  0.4960159426457835  0.9955873843056793
  0.7529381227845349  0.5050335837358304  0.4926229105910380
  0.2426494590308721  0.0038717557574870  0.2567044840751720
  0.2530330036111650  0.9939337015139529  0.7552139012072061
  0.2537504784427895  0.4902507344548255  0.2433545734119633
  0.2597389324980313  0.4947237895177210  0.7527243141216360
  0.7539015120812493  0.0079024484174397  0.2581663146706390
  0.7430188553724761  0.0005256874044619  0.7585412252889370
  0.7559026574419505  0.4965050820803754  0.2554888084317284
  0.7501931680136948  0.4920557261182168  0.7555972005142095
  0.2582619364292498  0.2538323825001143  0.0070421638273857
  0.2426779238092251  0.2526925126388662  0.4979929171924198
  0.2559027816663857  0.7498374417610734  0.9925024836108918
  0.2473522154694550  0.7525958309005816  0.4921471142772376
  0.7452842605334666  0.2592073260270524  0.9948745147173383
  0.7449520863418471  0.2433167180212621  0.5027852060390501
  0.7553929276140607  0.7588020217528495  0.9977811551076883
  0.7528557013853927  0.7424969595000590  0.5073277291896332
  0.2511496497527972  0.2599086546319924  0.2451942154612041
  0.2581067657537019  0.2546893383087863  0.7553518880320027
  0.2557647801683132  0.7474175508450926  0.2545550318770680
  0.2481513766302399  0.7538459648934861  0.7547680006393449
  0.7444753714069847  0.2422864156438180  0.2489210790367409
  0.7481962476566011  0.2595921914323114  0.7578114739568278
  0.7566520611199863  0.7540963929588500  0.2525593122152614
  0.7590538888571601  0.7466258226575135  0.7439402215139737
  0.0067847198173823  0.5113070761794773  0.1259155140264880
  0.0006715018902739  0.5118891357512325  0.6251532614598077
  0.9844150756179459  0.9885385986513739  0.8763737498789155
  0.4814511061237567  0.0144621439689985  0.3735277270046993
  0.5006933360394186  0.5147179833293194  0.3739437432350528
  0.5040015924807193  0.5105791246047957  0.8754015251669074
  0.9884577772385938  0.2431196801208699  0.1267477213642181
  0.9866811947750023  0.2387314352087841  0.6252616320930784
  0.0157377802361651  0.7668314297944079  0.3759287125178190
  0.5094927365175650  0.7331958234978160  0.3732817639172623
  0.5089922885996074  0.7398952116855924  0.8739675598959096
  0.2391408805242179  0.4789164027258721  0.1234952178260897
  0.2670407848374481  0.0078763749629047  0.3744640858465331
  0.2628218636263568  0.0105827315366582  0.8754313595899035
  0.7629348047370001  0.9831428893980672  0.3753635581913102
  0.7650570961660250  0.9962058327476129  0.8763346626829929
  0.7463717149228231  0.4843481764720750  0.3750827843217692
  0.7467663890119098  0.4919041319793891  0.8754967734345911
  0.2604835352144121  0.2698532105324531  0.1243497864036840
  0.7674705792350593  0.7390469624168077  0.6250380850814210
  0.2379093235650913  0.7364008618355271  0.3738980530192464
  0.2403107171053946  0.7376449766681219  0.8739595304042425
  0.7305713576427451  0.2592347055244559  0.8760911433983765
  0.1250069881615019  0.5164211296859236  0.4950671529083408
  0.1240783122104290  0.0169629344942379  0.2663462464560808
  0.6256399894029485  0.9827598379591436  0.7637173186843640
  0.1244951411136341  0.2340296716842261  0.5089133862552018
  0.6256806776450929  0.2377546242975654  0.5114577803311064
  0.6256959485982989  0.2347151479819942  0.2367175445277994
  0.3745643076582041  0.9808780502297623  0.0147901695447814
  0.3746098045625459  0.4805064569059638  0.0010529085543780
  0.3753452677314186  0.4879499772804152  0.2456111154673053
  0.3752257590145547  0.5111622202347732  0.7467204931913471
  0.8753458467670612  0.4895149973891648  0.2479954249375780
  0.3751369935811439  0.2666012131099507  0.9823080093229564
  0.3744163439672832  0.7653233957496326  0.9934056158847611
  0.8753291593859203  0.7625310658738513  0.9886411887075184
  0.3762911423135478  0.2358919480714476  0.7679915803749040
  0.3748528596537568  0.7585422084197688  0.2556113992827136
  0.8736771747290106  0.7645252538536980  0.2619602751609165
  0.8749164310590842  0.7350574095614775  0.7687639805346578
  0.4844476777484132  0.1254825845539216  0.0142367380877104
  0.9786700362725114  0.1253054766536792  0.2663091100197121
  0.4836814467519162  0.1240726889060682  0.2281803222559375
  0.5145311459460800  0.1235173102221765  0.7400236553774988
  0.5178721144803546  0.6255788527265622  0.7350100886507107
  0.0123431653853316  0.3763291420905688  0.0049613622135283
  0.0132514189470712  0.8772436154885668  0.0157808964996633
  0.0200970454555787  0.8761673300937005  0.5184401702598933
  0.5086688535199428  0.3723259863021084  0.4841915622056305
  0.5131556526874022  0.8742792157683184  0.4848498355258926
  0.9869296015462012  0.3754817184124306  0.7456906249640625
  0.9869638538687795  0.8758055115902366  0.7341766636381166
  0.7645704793773547  0.1238907517728478  0.4885719080082040
  0.7659659063653450  0.6263958484548198  0.4843868008928780
  0.7685605149513819  0.1262432205382567  0.2658496141836579
  0.2398062608207425  0.3728026027108911  0.4846859175485818
  0.2321335956412298  0.8732208387808242  0.4920650482784765
  0.7392014891579635  0.3767940749898528  0.0159203885923134
  0.7378222001327472  0.8772130625454935  0.0115561463891325
  0.2343139537601004  0.3724740565746600  0.2717982060844761
  0.2579799935746223  0.3732614138760795  0.7661195809458050
  0.2592541742802652  0.8743972401171973  0.7557078669088924
  0.7703404009840540  0.3750782876558389  0.7384440210921213
  0.0121534367704328  0.0185907745151539  0.1256746249333673
  0.0143383598029914  0.0193811234996204  0.6245813623484437
  0.5174493212322773  0.9834061352193402  0.1262601486471056
  0.5146348180841613  0.9872206230892502  0.6220362756274085
  0.5056867366732476  0.4818410955517578  0.1243742179766869
  0.5002968369790253  0.4841750479423297  0.6228602830617334
  0.9841553643912917  0.9800042816321479  0.3775447723750176
  0.9966316603062637  0.4915191702528361  0.3763109321405054
  0.9955937330391151  0.4993426276037383  0.8753098917033952
  0.4836509999864731  0.0081691174498388  0.8750874494369825
  0.9883689332632457  0.7365734539077522  0.1280100460106794
  0.9816979174107985  0.7345175228926379  0.6218112395733542
  0.4840284797714176  0.2723767475050067  0.1249736058119666
  0.4831101883934110  0.2620111919708989  0.6250936994268912
  0.4990192323635796  0.7658125647036584  0.1243980889615699
  0.4917241159963339  0.7628640216280473  0.6222185779990568
  0.0084845008049967  0.2600638775075979  0.3755816309473090
  0.0126248924259897  0.2524294355043679  0.8756355814594556
  0.0180204502406269  0.7635688331376400  0.8743327622522443
  0.5089899612070283  0.2257946367709920  0.3738101908242015
  0.5240434916050134  0.2386170673089509  0.8764431513539179
  0.2343743764909476  0.9918775051441457  0.1251989736121715
  0.2335737013332704  0.9944262133567818  0.6237416186822315
  0.2450155298357899  0.4860121556047403  0.6245402015091699
  0.7372716947017608  0.0139217923617423  0.1275983975403179
  0.7390317886294326  0.0058400025690020  0.6245975332797897
  0.7508210912396507  0.5191589259503218  0.1258469071497004
  0.7547826534839075  0.5142425126822943  0.6250266637594706
  0.2572868748816148  0.5196698599189915  0.3734160159040627
  0.2507575390897046  0.5193390350126137  0.8767119507747765
  0.2636398192552534  0.2591823660206174  0.6257441664579986
  0.2515078784521521  0.7632125771452749  0.1243273024468650
  0.2591514960330414  0.7542949155361143  0.6229174389154295
  0.7691361490275099  0.2382341595755548  0.1252292310285554
  0.7666055928588307  0.2374445517234705  0.6273851410438169
  0.7602198208751076  0.7366940162130646  0.1267651326613546
  0.2435636201028615  0.2256954638673960  0.3730517666917450
  0.2331839516135332  0.2301895653970476  0.8781546351372995
  0.7385859056644293  0.2689243042983591  0.3748225152792131
  0.7347912772762868  0.7679895697747554  0.3756685470319852
  0.7327443022775597  0.7614296121228108  0.8728063919204203
  0.1260611362200450  0.0184352851504244  0.9902048850759684
  0.1230084053692977  0.0194300330977484  0.4826807263834993
  0.1273733287528671  0.5172741290643685  0.9900862182428938
  0.6223793749036091  0.0159676565317781  0.9871474898431813
  0.6244510385652831  0.0153123914168418  0.4864750620135396
  0.6235007808601551  0.5169447948288663  0.0064117588441661
  0.6258789326087779  0.5128053939329646  0.5066597250413665
  0.1236503196862770  0.9914825270149166  0.7607915163979300
  0.1245100736386675  0.5143682117846495  0.2606594494356855
  0.1257727773397406  0.4906912386147013  0.7550322051702523
  0.6244166460752325  0.0132935878040854  0.2630920032113124
  0.6258372505657732  0.5085522568965999  0.2456420490149256
  0.6261077461251432  0.4812349161351719  0.7414181468820260
  0.1269537984757463  0.2345796335438806  0.0113799945984425
  0.1245197567234797  0.7359537318235994  0.0105972480099297
  0.1226979727398074  0.7266886230898706  0.5169986037973686
  0.6227960654028948  0.2375820478585453  0.0224181558411942
  0.6254625602127675  0.7374697761810722  0.0100126884002449
  0.6262145409420370  0.7341486398404840  0.5130982338919168
  0.1249449501455189  0.2305067183278737  0.2429464314240022
  0.1257958870804288  0.2565532346779520  0.7385046211099962
  0.1224718537143801  0.7406154040991026  0.2372772918746833
  0.1225189850996600  0.7595090420657584  0.7328878912087546
  0.6246993083454484  0.2648848468976297  0.7304958664264447
  0.6276022660314382  0.7413909011630722  0.2406064369358347
  0.6284034383307500  0.7704113882630921  0.7363134966883393
  0.3746163846390758  0.9829268511707383  0.5196060254227675
  0.3732992082726057  0.4910054625200146  0.5030541695257753
  0.8749381998942596  0.9950332262332893  0.0207423283240402
  0.8770609760134818  0.9816419490086048  0.5183860959503335
  0.8753331885645395  0.4948886890973014  0.0032002840898713
  0.8770783575330441  0.4846434165525437  0.5000431471854725
  0.3730858200747917  0.9811501547039896  0.2316665297447997
  0.3764470557019024  0.0106429634703886  0.7318557207580909
  0.8764582946320942  0.9818933461118817  0.2354864829082288
  0.8734314635316736  0.0176853708150091  0.7328203646555096
  0.8746730013593336  0.5230986026699895  0.7524017643447536
  0.3751265376213269  0.2521270730270615  0.4880282226080865
  0.3743477200577416  0.7612993872328602  0.4899802995150537
  0.8742178753865915  0.2605936057453917  0.9856339455333938
  0.8748978300948096  0.2631939776166448  0.4878312311461812
  0.8760012394212424  0.7734491841253686  0.4833242420930475
  0.3772905123045973  0.2631495923976459  0.2637668800160355
  0.3750338879810258  0.7344450472195376  0.7523766843146760
  0.8731826835122902  0.2733049300883792  0.2625456391807717
  0.8737876071253652  0.2322887828628168  0.7685502171831118
  0.9886089235554536  0.1259968506061568  0.9920614952178681
  0.9819271302085184  0.1199546763482076  0.4844108021944109
  0.9914438808899746  0.6277215084805547  0.9896173301035347
  0.9795964048029617  0.6289730522065753  0.4857619195580227
  0.4881244588487021  0.1219592020683749  0.5157573296330966
  0.4854566596692678  0.6247691260763588  0.0174396407474617
  0.4889282451177053  0.6246561299396447  0.5151445046073135
  0.0101187510615262  0.1240162564052625  0.7601059291578238
  0.9895053267072953  0.6278101334118631  0.2658419477619773
  0.0154927060826822  0.6275529849601611  0.7593897366766740
  0.4939826334310027  0.6244253871601302  0.2278532904293655
  0.0123795232218384  0.3748225424073439  0.5081202260342081
  0.5214817592995331  0.3721076766847560  0.9878898335368831
  0.5191619817115267  0.8778452104649332  0.9879560045510729
  0.0187079825754495  0.3738405126632998  0.2457321136176702
  0.0125576135276475  0.8782487347598789  0.2331599932266784
  0.5135101718080790  0.3702658406125749  0.2668569059415731
  0.4933662900036708  0.3720067064555863  0.7614212832284295
  0.5137776133841285  0.8764378712988830  0.2617950228377879
  0.4838157344203253  0.8750330301055413  0.7563928976919456
  0.2658024250609543  0.1259538441530239  0.0168366765909411
  0.2628635363317500  0.1216604589773453  0.5123469670526433
  0.2649454023246633  0.6241672917964891  0.0180096977098998
  0.2646764763360494  0.6237604054979542  0.5119859371528861
  0.7585520491475961  0.1274901622847651  0.9969818237202190
  0.7586639981086805  0.6277653449293084  0.9899544190895497
  0.2684129811303180  0.1260188703587204  0.2338042981843671
  0.2390996427936614  0.1242959167385038  0.7381090395439429
  0.2566577909117669  0.6233970499448631  0.2310140907651004
  0.2361305513625069  0.6237622877525482  0.7356948026929402
  0.7339578558274411  0.1270112385109243  0.7535871045866571
  0.7578554224848588  0.6276504185970637  0.2668100117163021
  0.7286009369087765  0.6248036620563653  0.7590897125514786
  0.2281003015363297  0.3744214745160974  0.9751140436102261
  0.2270999284985749  0.8756984779554813  0.9909169584336155
  0.7415073874170162  0.3749887477026093  0.5169364165906529
  0.7347800496066128  0.8742467795904716  0.5119086381620122
  0.2347516829688630  0.8750841205067630  0.2571557316418023
  0.7371315543590313  0.3734294226868045  0.2306423406114817
  0.7352935862566810  0.8766106476762303  0.2329482294004492
  0.7697057291012257  0.8756243694279675  0.7412641086636640
 
  0.00000000E+00  0.00000000E+00  0.00000000E+00
  0.00000000E+00  0.00000000E+00  0.00000000E+00
  0.00000000E+00  0.00000000E+00  0.00000000E+00
  0.00000000E+00  0.00000000E+00  0.00000000E+00
  0.00000000E+00  0.00000000E+00  0.00000000E+00
  0.00000000E+00  0.00000000E+00  0.00000000E+00
  0.00000000E+00  0.00000000E+00  0.00000000E+00
  0.00000000E+00  0.00000000E+00  0.00000000E+00
  0.00000000E+00  0.00000000E+00  0.00000000E+00
  0.00000000E+00  0.00000000E+00  0.00000000E+00
  0.00000000E+00  0.00000000E+00  0.00000000E+00
  0.00000000E+00  0.00000000E+00  0.00000000E+00
  0.00000000E+00  0.00000000E+00  0.00000000E+00
  0.00000000E+00  0.00000000E+00  0.00000000E+00
  0.00000000E+00  0.00000000E+00  0.00000000E+00
  0.00000000E+00  0.00000000E+00  0.00000000E+00
  0.00000000E+00  0.00000000E+00  0.00000000E+00
  0.00000000E+00  0.00000000E+00  0.00000000E+00
  0.00000000E+00  0.00000000E+00  0.00000000E+00
  0.00000000E+00  0.00000000E+00  0.00000000E+00
  0.00000000E+00  0.00000000E+00  0.00000000E+00
  0.00000000E+00  0.00000000E+00  0.00000000E+00
  0.00000000E+00  0.00000000E+00  0.00000000E+00
  0.00000000E+00  0.00000000E+00  0.00000000E+00
  0.00000000E+00  0.00000000E+00  0.00000000E+00
  0.00000000E+00  0.00000000E+00  0.00000000E+00
  0.00000000E+00  0.00000000E+00  0.00000000E+00
  0.00000000E+00  0.00000000E+00  0.00000000E+00
  0.00000000E+00  0.00000000E+00  0.00000000E+00
  0.00000000E+00  0.00000000E+00  0.00000000E+00
  0.00000000E+00  0.00000000E+00  0.00000000E+00
  0.00000000E+00  0.00000000E+00  0.00000000E+00
  0.00000000E+00  0.00000000E+00  0.00000000E+00
  0.00000000E+00  0.00000000E+00  0.00000000E+00
  0.00000000E+00  0.00000000E+00  0.00000000E+00
  0.00000000E+00  0.00000000E+00  0.00000000E+00
  0.00000000E+00  0.00000000E+00  0.00000000E+00
  0.00000000E+00  0.00000000E+00  0.00000000E+00
  0.00000000E+00  0.00000000E+00  0.00000000E+00
  0.00000000E+00  0.00000000E+00  0.00000000E+00
  0.00000000E+00  0.00000000E+00  0.00000000E+00
  0.00000000E+00  0.00000000E+00  0.00000000E+00
  0.00000000E+00  0.00000000E+00  0.00000000E+00
  0.00000000E+00  0.00000000E+00  0.00000000E+00
  0.00000000E+00  0.00000000E+00  0.00000000E+00
  0.00000000E+00  0.00000000E+00  0.00000000E+00
  0.00000000E+00  0.00000000E+00  0.00000000E+00
  0.00000000E+00  0.00000000E+00  0.00000000E+00
  0.00000000E+00  0.00000000E+00  0.00000000E+00
  0.00000000E+00  0.00000000E+00  0.00000000E+00
  0.00000000E+00  0.00000000E+00  0.00000000E+00
  0.00000000E+00  0.00000000E+00  0.00000000E+00
  0.00000000E+00  0.00000000E+00  0.00000000E+00
  0.00000000E+00  0.00000000E+00  0.00000000E+00
  0.00000000E+00  0.00000000E+00  0.00000000E+00
  0.00000000E+00  0.00000000E+00  0.00000000E+00
  0.00000000E+00  0.00000000E+00  0.00000000E+00
  0.00000000E+00  0.00000000E+00  0.00000000E+00
  0.00000000E+00  0.00000000E+00  0.00000000E+00
  0.00000000E+00  0.00000000E+00  0.00000000E+00
  0.00000000E+00  0.00000000E+00  0.00000000E+00
  0.00000000E+00  0.00000000E+00  0.00000000E+00
  0.00000000E+00  0.00000000E+00  0.00000000E+00
  0.00000000E+00  0.00000000E+00  0.00000000E+00
  0.00000000E+00  0.00000000E+00  0.00000000E+00
  0.00000000E+00  0.00000000E+00  0.00000000E+00
  0.00000000E+00  0.00000000E+00  0.00000000E+00
  0.00000000E+00  0.00000000E+00  0.00000000E+00
  0.00000000E+00  0.00000000E+00  0.00000000E+00
  0.00000000E+00  0.00000000E+00  0.00000000E+00
  0.00000000E+00  0.00000000E+00  0.00000000E+00
  0.00000000E+00  0.00000000E+00  0.00000000E+00
  0.00000000E+00  0.00000000E+00  0.00000000E+00
  0.00000000E+00  0.00000000E+00  0.00000000E+00
  0.00000000E+00  0.00000000E+00  0.00000000E+00
  0.00000000E+00  0.00000000E+00  0.00000000E+00
  0.00000000E+00  0.00000000E+00  0.00000000E+00
  0.00000000E+00  0.00000000E+00  0.00000000E+00
  0.00000000E+00  0.00000000E+00  0.00000000E+00
  0.00000000E+00  0.00000000E+00  0.00000000E+00
  0.00000000E+00  0.00000000E+00  0.00000000E+00
  0.00000000E+00  0.00000000E+00  0.00000000E+00
  0.00000000E+00  0.00000000E+00  0.00000000E+00
  0.00000000E+00  0.00000000E+00  0.00000000E+00
  0.00000000E+00  0.00000000E+00  0.00000000E+00
  0.00000000E+00  0.00000000E+00  0.00000000E+00
  0.00000000E+00  0.00000000E+00  0.00000000E+00
  0.00000000E+00  0.00000000E+00  0.00000000E+00
  0.00000000E+00  0.00000000E+00  0.00000000E+00
  0.00000000E+00  0.00000000E+00  0.00000000E+00
  0.00000000E+00  0.00000000E+00  0.00000000E+00
  0.00000000E+00  0.00000000E+00  0.00000000E+00
  0.00000000E+00  0.00000000E+00  0.00000000E+00
  0.00000000E+00  0.00000000E+00  0.00000000E+00
  0.00000000E+00  0.00000000E+00  0.00000000E+00
  0.00000000E+00  0.00000000E+00  0.00000000E+00
  0.00000000E+00  0.00000000E+00  0.00000000E+00
  0.00000000E+00  0.00000000E+00  0.00000000E+00
  0.00000000E+00  0.00000000E+00  0.00000000E+00
  0.00000000E+00  0.00000000E+00  0.00000000E+00
  0.00000000E+00  0.00000000E+00  0.00000000E+00
  0.00000000E+00  0.00000000E+00  0.00000000E+00
  0.00000000E+00  0.00000000E+00  0.00000000E+00
  0.00000000E+00  0.00000000E+00  0.00000000E+00
  0.00000000E+00  0.00000000E+00  0.00000000E+00
  0.00000000E+00  0.00000000E+00  0.00000000E+00
  0.00000000E+00  0.00000000E+00  0.00000000E+00
  0.00000000E+00  0.00000000E+00  0.00000000E+00
  0.00000000E+00  0.00000000E+00  0.00000000E+00
  0.00000000E+00  0.00000000E+00  0.00000000E+00
  0.00000000E+00  0.00000000E+00  0.00000000E+00
  0.00000000E+00  0.00000000E+00  0.00000000E+00
  0.00000000E+00  0.00000000E+00  0.00000000E+00
  0.00000000E+00  0.00000000E+00  0.00000000E+00
  0.00000000E+00  0.00000000E+00  0.00000000E+00
  0.00000000E+00  0.00000000E+00  0.00000000E+00
  0.00000000E+00  0.00000000E+00  0.00000000E+00
  0.00000000E+00  0.00000000E+00  0.00000000E+00
  0.00000000E+00  0.00000000E+00  0.00000000E+00
  0.00000000E+00  0.00000000E+00  0.00000000E+00
  0.00000000E+00  0.00000000E+00  0.00000000E+00
  0.00000000E+00  0.00000000E+00  0.00000000E+00
  0.00000000E+00  0.00000000E+00  0.00000000E+00
  0.00000000E+00  0.00000000E+00  0.00000000E+00
  0.00000000E+00  0.00000000E+00  0.00000000E+00
  0.00000000E+00  0.00000000E+00  0.00000000E+00
  0.00000000E+00  0.00000000E+00  0.00000000E+00
  0.00000000E+00  0.00000000E+00  0.00000000E+00
  0.00000000E+00  0.00000000E+00  0.00000000E+00
  0.00000000E+00  0.00000000E+00  0.00000000E+00
  0.00000000E+00  0.00000000E+00  0.00000000E+00
  0.00000000E+00  0.00000000E+00  0.00000000E+00
  0.00000000E+00  0.00000000E+00  0.00000000E+00
  0.00000000E+00  0.00000000E+00  0.00000000E+00
  0.00000000E+00  0.00000000E+00  0.00000000E+00
  0.00000000E+00  0.00000000E+00  0.00000000E+00
  0.00000000E+00  0.00000000E+00  0.00000000E+00
  0.00000000E+00  0.00000000E+00  0.00000000E+00
  0.00000000E+00  0.00000000E+00  0.00000000E+00
  0.00000000E+00  0.00000000E+00  0.00000000E+00
  0.00000000E+00  0.00000000E+00  0.00000000E+00
  0.00000000E+00  0.00000000E+00  0.00000000E+00
  0.00000000E+00  0.00000000E+00  0.00000000E+00
  0.00000000E+00  0.00000000E+00  0.00000000E+00
  0.00000000E+00  0.00000000E+00  0.00000000E+00
  0.00000000E+00  0.00000000E+00  0.00000000E+00
  0.00000000E+00  0.00000000E+00  0.00000000E+00
  0.00000000E+00  0.00000000E+00  0.00000000E+00
  0.00000000E+00  0.00000000E+00  0.00000000E+00
  0.00000000E+00  0.00000000E+00  0.00000000E+00
  0.00000000E+00  0.00000000E+00  0.00000000E+00
  0.00000000E+00  0.00000000E+00  0.00000000E+00
  0.00000000E+00  0.00000000E+00  0.00000000E+00
  0.00000000E+00  0.00000000E+00  0.00000000E+00
  0.00000000E+00  0.00000000E+00  0.00000000E+00
  0.00000000E+00  0.00000000E+00  0.00000000E+00
  0.00000000E+00  0.00000000E+00  0.00000000E+00
  0.00000000E+00  0.00000000E+00  0.00000000E+00
  0.00000000E+00  0.00000000E+00  0.00000000E+00
  0.00000000E+00  0.00000000E+00  0.00000000E+00
  0.00000000E+00  0.00000000E+00  0.00000000E+00
  0.00000000E+00  0.00000000E+00  0.00000000E+00
  0.00000000E+00  0.00000000E+00  0.00000000E+00
  0.00000000E+00  0.00000000E+00  0.00000000E+00
  0.00000000E+00  0.00000000E+00  0.00000000E+00
  0.00000000E+00  0.00000000E+00  0.00000000E+00
  0.00000000E+00  0.00000000E+00  0.00000000E+00
  0.00000000E+00  0.00000000E+00  0.00000000E+00
  0.00000000E+00  0.00000000E+00  0.00000000E+00
  0.00000000E+00  0.00000000E+00  0.00000000E+00
  0.00000000E+00  0.00000000E+00  0.00000000E+00
  0.00000000E+00  0.00000000E+00  0.00000000E+00
  0.00000000E+00  0.00000000E+00  0.00000000E+00
  0.00000000E+00  0.00000000E+00  0.00000000E+00
  0.00000000E+00  0.00000000E+00  0.00000000E+00
  0.00000000E+00  0.00000000E+00  0.00000000E+00
  0.00000000E+00  0.00000000E+00  0.00000000E+00
  0.00000000E+00  0.00000000E+00  0.00000000E+00
  0.00000000E+00  0.00000000E+00  0.00000000E+00
  0.00000000E+00  0.00000000E+00  0.00000000E+00
  0.00000000E+00  0.00000000E+00  0.00000000E+00
  0.00000000E+00  0.00000000E+00  0.00000000E+00
  0.00000000E+00  0.00000000E+00  0.00000000E+00
  0.00000000E+00  0.00000000E+00  0.00000000E+00
  0.00000000E+00  0.00000000E+00  0.00000000E+00
  0.00000000E+00  0.00000000E+00  0.00000000E+00
  0.00000000E+00  0.00000000E+00  0.00000000E+00
  0.00000000E+00  0.00000000E+00  0.00000000E+00
  0.00000000E+00  0.00000000E+00  0.00000000E+00
  0.00000000E+00  0.00000000E+00  0.00000000E+00
  0.00000000E+00  0.00000000E+00  0.00000000E+00
  0.00000000E+00  0.00000000E+00  0.00000000E+00
  0.00000000E+00  0.00000000E+00  0.00000000E+00
  0.00000000E+00  0.00000000E+00  0.00000000E+00
  0.00000000E+00  0.00000000E+00  0.00000000E+00
  0.00000000E+00  0.00000000E+00  0.00000000E+00
  0.00000000E+00  0.00000000E+00  0.00000000E+00
  0.00000000E+00  0.00000000E+00  0.00000000E+00
  0.00000000E+00  0.00000000E+00  0.00000000E+00
  0.00000000E+00  0.00000000E+00  0.00000000E+00
  0.00000000E+00  0.00000000E+00  0.00000000E+00
  0.00000000E+00  0.00000000E+00  0.00000000E+00
  0.00000000E+00  0.00000000E+00  0.00000000E+00
  0.00000000E+00  0.00000000E+00  0.00000000E+00
  0.00000000E+00  0.00000000E+00  0.00000000E+00
  0.00000000E+00  0.00000000E+00  0.00000000E+00
  0.00000000E+00  0.00000000E+00  0.00000000E+00
  0.00000000E+00  0.00000000E+00  0.00000000E+00
  0.00000000E+00  0.00000000E+00  0.00000000E+00
  0.00000000E+00  0.00000000E+00  0.00000000E+00
  0.00000000E+00  0.00000000E+00  0.00000000E+00
  0.00000000E+00  0.00000000E+00  0.00000000E+00
  0.00000000E+00  0.00000000E+00  0.00000000E+00
  0.00000000E+00  0.00000000E+00  0.00000000E+00
  0.00000000E+00  0.00000000E+00  0.00000000E+00
  0.00000000E+00  0.00000000E+00  0.00000000E+00
  0.00000000E+00  0.00000000E+00  0.00000000E+00
  0.00000000E+00  0.00000000E+00  0.00000000E+00
  0.00000000E+00  0.00000000E+00  0.00000000E+00
  0.00000000E+00  0.00000000E+00  0.00000000E+00
  0.00000000E+00  0.00000000E+00  0.00000000E+00
  0.00000000E+00  0.00000000E+00  0.00000000E+00
  0.00000000E+00  0.00000000E+00  0.00000000E+00
  0.00000000E+00  0.00000000E+00  0.00000000E+00
  0.00000000E+00  0.00000000E+00  0.00000000E+00
  0.00000000E+00  0.00000000E+00  0.00000000E+00
  0.00000000E+00  0.00000000E+00  0.00000000E+00
  0.00000000E+00  0.00000000E+00  0.00000000E+00
  0.00000000E+00  0.00000000E+00  0.00000000E+00
  0.00000000E+00  0.00000000E+00  0.00000000E+00
  0.00000000E+00  0.00000000E+00  0.00000000E+00
  0.00000000E+00  0.00000000E+00  0.00000000E+00
  0.00000000E+00  0.00000000E+00  0.00000000E+00
  0.00000000E+00  0.00000000E+00  0.00000000E+00
  0.00000000E+00  0.00000000E+00  0.00000000E+00
  0.00000000E+00  0.00000000E+00  0.00000000E+00
  0.00000000E+00  0.00000000E+00  0.00000000E+00
  0.00000000E+00  0.00000000E+00  0.00000000E+00
  0.00000000E+00  0.00000000E+00  0.00000000E+00
  0.00000000E+00  0.00000000E+00  0.00000000E+00
  0.00000000E+00  0.00000000E+00  0.00000000E+00
  0.00000000E+00  0.00000000E+00  0.00000000E+00
  0.00000000E+00  0.00000000E+00  0.00000000E+00
  0.00000000E+00  0.00000000E+00  0.00000000E+00
  0.00000000E+00  0.00000000E+00  0.00000000E+00
  0.00000000E+00  0.00000000E+00  0.00000000E+00
  0.00000000E+00  0.00000000E+00  0.00000000E+00
  0.00000000E+00  0.00000000E+00  0.00000000E+00
  0.00000000E+00  0.00000000E+00  0.00000000E+00
  0.00000000E+00  0.00000000E+00  0.00000000E+00
  0.00000000E+00  0.00000000E+00  0.00000000E+00
  0.00000000E+00  0.00000000E+00  0.00000000E+00
  0.00000000E+00  0.00000000E+00  0.00000000E+00
  0.00000000E+00  0.00000000E+00  0.00000000E+00
  0.00000000E+00  0.00000000E+00  0.00000000E+00
  0.00000000E+00  0.00000000E+00  0.00000000E+00
