TiOF2 2x2x2 config 0307                 
   1.00000000000000     
     7.8435359896653551   -0.0015538859953353   -0.0012677289443650
    -0.0015539514242630    7.8435352365912987    0.0012707825129625
    -0.0012977695142763    0.0013007440606222    7.5262175280983685
   Ti   O    F 
     8     8    16
Direct
  0.0001458858991299  0.0001457833460563  0.0000374373403318
  0.0004286173246300  0.0004286012134713  0.5000425800743287
  0.0020681062258774  0.5002186908141653  0.9825207039665997
  0.9784048899693119  0.4998568792778713  0.5022916341506445
  0.5002188221935810  0.0020681014946078  0.0174766833371010
  0.4998570201860630  0.9784047702248344  0.4977063234428485
  0.5011132955177189  0.5011133362514784  0.0000000562931248
  0.5032436279358663  0.5032435027052387  0.5000001322818406
  0.7541892791769982  0.4987636342449022  0.4968855755233577
  0.4987636880555470  0.7541892493296984  0.5031144246109847
  0.9999499763276489  0.9999428361456211  0.2483256659107411
  0.9999422107152967  0.9999498281121575  0.7516481729306292
  0.0024499053777660  0.5003412766317226  0.7520580512684134
  0.5003416875372935  0.0024497847814473  0.2479391710610273
  0.4993226374639974  0.4996082928078991  0.2444805028612507
  0.4996082900010705  0.4993225935550356  0.7555194674368622
  0.2521486566448488  0.0003360846036244  0.9958478416791721
  0.2493817022057883  0.0023519010442854  0.5043234243702415
  0.2466330627923696  0.5009233939955067  0.0045097428624175
  0.2436861944311843  0.4979536277602747  0.4967579402924613
  0.7482999494114466  0.0003425549152567  0.9958643891600971
  0.7509392840246818  0.0024935458296511  0.5041852078055413
  0.7565761864584459  0.5008618848273585  0.0064027070417012
  0.0003362856481459  0.2521494564158644  0.0041416711521336
  0.0023519277642805  0.2493805494535764  0.4956649717797319
  0.0003423598120946  0.7482991839793200  0.0041256702926091
  0.0024935502142114  0.7509402067999247  0.4958035879525440
  0.5009220497291551  0.2466332031086367  0.9954898462271800
  0.4979536966589180  0.2436861368421219  0.5032419016313412
  0.5008619618855334  0.7565760874985443  0.9935971097511711
  0.0065807135763194  0.5004441714672652  0.2445276696174190
  0.5004444788347797  0.0065808505225959  0.7554697358941596
 
  0.00000000E+00  0.00000000E+00  0.00000000E+00
  0.00000000E+00  0.00000000E+00  0.00000000E+00
  0.00000000E+00  0.00000000E+00  0.00000000E+00
  0.00000000E+00  0.00000000E+00  0.00000000E+00
  0.00000000E+00  0.00000000E+00  0.00000000E+00
  0.00000000E+00  0.00000000E+00  0.00000000E+00
  0.00000000E+00  0.00000000E+00  0.00000000E+00
  0.00000000E+00  0.00000000E+00  0.00000000E+00
  0.00000000E+00  0.00000000E+00  0.00000000E+00
  0.00000000E+00  0.00000000E+00  0.00000000E+00
  0.00000000E+00  0.00000000E+00  0.00000000E+00
  0.00000000E+00  0.00000000E+00  0.00000000E+00
  0.00000000E+00  0.00000000E+00  0.00000000E+00
  0.00000000E+00  0.00000000E+00  0.00000000E+00
  0.00000000E+00  0.00000000E+00  0.00000000E+00
  0.00000000E+00  0.00000000E+00  0.00000000E+00
  0.00000000E+00  0.00000000E+00  0.00000000E+00
  0.00000000E+00  0.00000000E+00  0.00000000E+00
  0.00000000E+00  0.00000000E+00  0.00000000E+00
  0.00000000E+00  0.00000000E+00  0.00000000E+00
  0.00000000E+00  0.00000000E+00  0.00000000E+00
  0.00000000E+00  0.00000000E+00  0.00000000E+00
  0.00000000E+00  0.00000000E+00  0.00000000E+00
  0.00000000E+00  0.00000000E+00  0.00000000E+00
  0.00000000E+00  0.00000000E+00  0.00000000E+00
  0.00000000E+00  0.00000000E+00  0.00000000E+00
  0.00000000E+00  0.00000000E+00  0.00000000E+00
  0.00000000E+00  0.00000000E+00  0.00000000E+00
  0.00000000E+00  0.00000000E+00  0.00000000E+00
  0.00000000E+00  0.00000000E+00  0.00000000E+00
  0.00000000E+00  0.00000000E+00  0.00000000E+00
  0.00000000E+00  0.00000000E+00  0.00000000E+00
