TiOF2 2x2x2 config 0307                 
   1.00000000000000     
     7.8435359896653551   -0.0015538859953353   -0.0012677289443650
    -0.0015539514242630    7.8435352365912987    0.0012707825129625
    -0.0012977695142763    0.0013007440606222    7.5262175280983685
   Ti   O    F 
     8     8    16
Direct
  0.0001458858991270  0.0001457833460555  0.0000374373403296
  0.0004286173246315  0.0004286012134694  0.5000425800743290
  0.0020681062258797  0.5002186908141640  0.9825207039666002
  0.9784048899693094  0.4998568792778706  0.5022916341506429
  0.5002188221935836  0.0020681014946097  0.0174766833370986
  0.4998570201860606  0.9784047702248357  0.4977063234428479
  0.5011132955177209  0.5011133362514792  0.0000000562931219
  0.5032436279358684  0.5032435027052359  0.5000001322818430
  0.7541892791770012  0.4987636342449056  0.4968855755233545
  0.4987636880555445  0.7541892493296987  0.5031144246109860
  0.9999499763276493  0.9999428361456185  0.2483256659107386
  0.9999422107152968  0.9999498281121559  0.7516481729306299
  0.0024499053777627  0.5003412766317251  0.7520580512684116
  0.5003416875372938  0.0024497847814443  0.2479391710610243
  0.4993226374639947  0.4996082928079020  0.2444805028612533
  0.4996082900010691  0.4993225935550334  0.7555194674368637
  0.2521486566448514  0.0003360846036223  0.9958478416791705
  0.2493817022057877  0.0023519010442823  0.5043234243702396
  0.2466330627923718  0.5009233939955083  0.0045097428624168
  0.2436861944311831  0.4979536277602731  0.4967579402924633
  0.7482999494114480  0.0003425549152537  0.9958643891600951
  0.7509392840246805  0.0024935458296504  0.5041852078055403
  0.7565761864584487  0.5008618848273609  0.0064027070417019
  0.0003362856481461  0.2521494564158646  0.0041416711521309
  0.0023519277642811  0.2493805494535752  0.4956649717797303
  0.0003423598120933  0.7482991839793209  0.0041256702926067
  0.0024935502142137  0.7509402067999231  0.4958035879525415
  0.5009220497291516  0.2466332031086368  0.9954898462271793
  0.4979536966589146  0.2436861368421215  0.5032419016313426
  0.5008619618855347  0.7565760874985440  0.9935971097511710
  0.0065807135763219  0.5004441714672632  0.2445276696174186
  0.5004444788347789  0.0065808505225960  0.7554697358941620
 
  0.00000000E+00  0.00000000E+00  0.00000000E+00
  0.00000000E+00  0.00000000E+00  0.00000000E+00
  0.00000000E+00  0.00000000E+00  0.00000000E+00
  0.00000000E+00  0.00000000E+00  0.00000000E+00
  0.00000000E+00  0.00000000E+00  0.00000000E+00
  0.00000000E+00  0.00000000E+00  0.00000000E+00
  0.00000000E+00  0.00000000E+00  0.00000000E+00
  0.00000000E+00  0.00000000E+00  0.00000000E+00
  0.00000000E+00  0.00000000E+00  0.00000000E+00
  0.00000000E+00  0.00000000E+00  0.00000000E+00
  0.00000000E+00  0.00000000E+00  0.00000000E+00
  0.00000000E+00  0.00000000E+00  0.00000000E+00
  0.00000000E+00  0.00000000E+00  0.00000000E+00
  0.00000000E+00  0.00000000E+00  0.00000000E+00
  0.00000000E+00  0.00000000E+00  0.00000000E+00
  0.00000000E+00  0.00000000E+00  0.00000000E+00
  0.00000000E+00  0.00000000E+00  0.00000000E+00
  0.00000000E+00  0.00000000E+00  0.00000000E+00
  0.00000000E+00  0.00000000E+00  0.00000000E+00
  0.00000000E+00  0.00000000E+00  0.00000000E+00
  0.00000000E+00  0.00000000E+00  0.00000000E+00
  0.00000000E+00  0.00000000E+00  0.00000000E+00
  0.00000000E+00  0.00000000E+00  0.00000000E+00
  0.00000000E+00  0.00000000E+00  0.00000000E+00
  0.00000000E+00  0.00000000E+00  0.00000000E+00
  0.00000000E+00  0.00000000E+00  0.00000000E+00
  0.00000000E+00  0.00000000E+00  0.00000000E+00
  0.00000000E+00  0.00000000E+00  0.00000000E+00
  0.00000000E+00  0.00000000E+00  0.00000000E+00
  0.00000000E+00  0.00000000E+00  0.00000000E+00
  0.00000000E+00  0.00000000E+00  0.00000000E+00
  0.00000000E+00  0.00000000E+00  0.00000000E+00
