config 50                               
   1.00000000000000     
    15.4263309999999993    0.0000000000000000    0.0000000000000000
     0.0000000000000000   15.4263309999999993    0.0000000000000000
     0.0000000000000000    0.0000000000000000   15.4263309999999993
   Li   Ti   O    F 
     1    64    64   128
Direct
  0.9167026966871544  0.1227553537738206  0.3585354740117598
  0.9949570210652210  0.9957233863711017  0.9928106378318284
  0.9995928167912203  0.9929778248506643  0.4931451121884345
  0.0058262897172744  0.4956152150732778  0.9973987241661268
  0.9944510390376908  0.5023879963274411  0.5071592120923125
  0.4942530043704473  0.9938961018194410  1.0002532926762739
  0.5005077301345877  0.0079957845480747  0.4997030182989694
  0.5041508734890506  0.4953472688083465  0.9963651733943378
  0.4918861571395829  0.4989705185483696  0.4956882870254635
  0.0080277885578108  0.0002896853766580  0.2545029383438966
  0.0007497652178011  0.0087415937876902  0.7555067856730968
  0.9936875099414960  0.4938386556540553  0.2524356300273290
  0.9927147627871094  0.4987651669334827  0.7416980201429140
  0.5057260030948922  0.0088918337455637  0.2510657857738636
  0.4924707329432891  0.0049473978091354  0.7516605501009879
  0.4927971939822686  0.4964134809544739  0.2575852399582780
  0.5008751298824364  0.5039725668362370  0.7586979128173407
  0.9954820747888252  0.2574688000802845  0.0027452484702025
  0.9988172773086086  0.2498149186652535  0.4942118952425316
  0.9981635623500059  0.7586583846122856  0.0055805072554014
  0.9976640159290737  0.7578286716307507  0.5052535603874768
  0.4950258179921918  0.2579749692475128  0.0019520455644310
  0.5089553177739746  0.2455028521976630  0.4984430339312957
  0.5072650685757644  0.7560341845874756  0.9993682008561030
  0.5065481407255370  0.7526096302673795  0.5092000883240719
  0.9994332350887494  0.2591440563171128  0.2579975494231012
  0.0066562318303893  0.2428950166771838  0.7483876041001311
  0.0067033988792782  0.7479045444926407  0.2429418711835420
  0.9927051352333984  0.7516607808347818  0.7430014331927526
  0.5083740199810718  0.2420715258972204  0.2519704007661122
  0.5067857420351546  0.2428021036411947  0.7510533434971693
  0.5065704278627797  0.7513375273103138  0.2521608810365694
  0.5016283532473251  0.7418243244557776  0.7438538508564805
  0.2559483496651348  0.9981951294254267  0.0058430616228885
  0.2493362405502584  0.9939572641399186  0.5062361950705554
  0.2437537528668670  0.5078304876926054  0.9978993506278493
  0.2541850623129811  0.4942190699439268  0.5069636167106480
  0.7572063285322738  0.0002798133047915  0.9939715566642712
  0.7503522814148598  0.0070255936633367  0.4948425875844288
  0.7417855795112911  0.5004837981991023  0.0048025380497612
  0.7556750948953882  0.4976261828852207  0.5050065422872059
  0.2457120230086464  0.0022645151944359  0.2438163807924995
  0.2569065907749905  0.9978743136501637  0.7438490067689939
  0.2551097534430879  0.4918496434053629  0.2519765229708772
  0.2469374636494774  0.5059835851659388  0.7414083556078106
  0.7442088413123398  0.0006133815181238  0.2555650497533421
  0.7483881798223150  0.0066406303439787  0.7557849486650237
  0.7556499545022083  0.4984244388782609  0.2425206297556821
  0.7572198969327122  0.4978047562335248  0.7421018045365383
  0.2570647154601290  0.2514568100943503  0.0068251007243080
  0.2527107065664472  0.2567398015881468  0.5054879618122795
  0.2519663564275251  0.7422844745136470  0.9937994292384911
  0.2514183874122567  0.7552984632198894  0.4930382355840444
  0.7569242934383172  0.2512259464987679  0.0073543558867595
  0.7440751786002333  0.2433768928136730  0.4976765496704060
  0.7417228716312319  0.7492069995552829  0.9938406723631014
  0.7411930836241131  0.7517633486088448  0.4938321606301652
  0.2508950741059920  0.2576103433885883  0.2440969773803792
  0.2439575036835985  0.2515061170912055  0.7441281298017998
  0.2437731780117715  0.7476304799306850  0.2559832596582129
  0.2478487156267681  0.7416607347283581  0.7567807957149509
  0.7415855375513825  0.2515411509818714  0.2417275515464002
  0.7441575301357356  0.2421535939280899  0.7511705756709108
  0.7453638701603720  0.7493743793834557  0.2566293252151564
  0.7573402872670891  0.7504109585503390  0.7564775013825059
  0.0086427777296196  0.4958569190993540  0.6248729806880834
  0.9853302995681693  0.0167447221872860  0.3747745237429571
  0.9964590168223615  0.0068784138207186  0.8720411015736869
  0.4986011656605172  0.4922626644751659  0.3753734645429556
  0.4936445022875584  0.4966106476734559  0.8750459523098690
  0.9990360099563006  0.7521929574576499  0.1256432256877052
  0.0013765327015995  0.7542447000645286  0.6237568943979781
  0.5018006622506137  0.7529034044373052  0.6249814562029691
  0.9793065009283805  0.2320558991807379  0.3718784284293390
  0.2512815332165489  0.0026666303959095  0.1260100097813779
  0.2495898616496794  0.0030945703408083  0.6251318838961831
  0.2387533232000644  0.4950114328503354  0.6263038054807626
  0.7495628321465906  0.4899682450218593  0.1254458421431855
  0.7451618285458597  0.4915117396104631  0.6239982521793025
  0.7574588186380737  0.0046491396865631  0.3755743334378899
  0.7489329257528380  0.9995313486810729  0.8734548781787261
  0.2418181930488671  0.2494889369515732  0.1262056673288378
  0.2491731051156590  0.2499397894261839  0.6258130408119166
  0.7362506205537884  0.2592702005559523  0.1260296200918619
  0.2547859796960136  0.7464447893796633  0.3746764260455858
  0.2513229724958854  0.7521149237018292  0.8754541504361433
  0.7521240940227770  0.7488975276761589  0.3738618668434631
  0.7484923557171006  0.7510863830014683  0.8752602311627327
  0.1244069958692780  0.5052553378235178  0.9942762933790292
  0.6256634676648158  0.5085914363633769  0.9979184032021285
  0.1248346918939442  0.0045230806150972  0.2563671977413299
  0.6250401263638614  0.0038537855895855  0.2540481611653158
  0.6246931133807556  0.2537167915362048  0.4882397311155433
  0.6244315713304605  0.7402777441842312  0.0028566361694913
  0.6241264558226028  0.7604728140944156  0.4955698375613261
  0.1245015386526023  0.2505628269175484  0.7543402078029625
  0.1251513899743594  0.7502702168349464  0.2522857889496016
  0.6257297379910840  0.2423190056226608  0.2661993808289030
  0.6253990877400869  0.2519031096658542  0.7541589151281569
  0.6226232108600820  0.7524015406890282  0.2511202861343071
  0.3754528206207564  0.9976116770501178  0.9958706579604883
  0.3755878365639008  0.5044929835879428  0.5052686019055729
  0.8729421372709573 -0.0001404764413198  0.0028794481353250
  0.8749154839747880  0.5004489243382793  0.5002967515804716
  0.3756452812448555  0.9962717076665009  0.7530838608822507
  0.3738735110593679  0.4942742491953143  0.2478756853183825
  0.8752822857635282  0.4957222574274115  0.2515245537455379
  0.8751109053222924  0.5078278954641855  0.7453971685266048
  0.3757614767059217  0.2497591902420492  0.0086807197987213
  0.8738595357757938  0.2502402523136096  0.0106035346631113
  0.8747500435646536  0.7437182429011837  0.7487186036543799
  0.5079452694247446  0.1221064315169063  0.4947629744623595
  0.9959908083654159  0.1262250147905759  0.7387254726211003
  0.4928511600355668  0.1250168045022877  0.2629058916698381
  0.5008745866577691  0.1233741460909105  0.7480203044571839
  0.5013839296488877  0.6251566218199942  0.7504470500269858
  0.0015518542348522  0.3749652682667483  0.0001380924996952
  0.0036898187197955  0.8753569681607919  0.9963894654201080
  0.0001987294608140  0.8759831803367444  0.4894640322197949
  0.5043751862011461  0.3739970697888230  0.0082666215456530
  0.5059554349365183  0.8752152729824213  0.0046019461764751
  0.0088944413949516  0.3750570744613481  0.2575752480018169
  0.2572588571163696  0.6250887546292847  0.0028776249483981
  0.7465593022323070  0.1248669016585120  0.5051345912024595
  0.2480226837978405  0.6246784985093206  0.7497390250736597
  0.7513680649116827  0.1245968847755065  0.7431881196546086
  0.2517686297046948  0.3736664940186484  0.4939702813405361
  0.2504473934818492  0.8757903025656533  0.4995341011349253
  0.2403567269598710  0.3742398087223590  0.2568880559985481
  0.0026036216787430  0.9969288072468232  0.1273493605956207
  0.0081044610443995  0.9914375897682542  0.6226967689712123
  1.0012812140113474  0.5024847538260212  0.1254554625916953
  0.4974968769037389  0.0078881284527987  0.1268753903411374
  0.5019285927510043  0.9947619526588355  0.6230323201572510
  0.5026806919798636  0.5084069501388435  0.1276126520449271
  0.5082349744977757  0.5005659723087867  0.6250008683018690
  0.0023662767290165  0.5088863053681627  0.3758364092618959
  0.9943169252767172  0.5030034244242015  0.8730327158421999
  0.4981155934420565  0.9887370553137715  0.3766256426009531
  0.5112707915858455 -0.0000640803985436  0.8753546863577021
  0.0119571333085873  0.2496196959711293  0.1284651991750098
  0.0051029949170746  0.2642247339065492  0.6232043144161304
  0.5141698806393714  0.2378401783446413  0.1271773887066200
  0.5032373484331498  0.2467285827243872  0.6231300556169898
  0.4961480006118697  0.7448997509527122  0.1270911930045312
  0.9908457095590196  0.2450703116688184  0.8753056446457765
  0.9934508926117179  0.7441540677433469  0.3748270732611536
  0.0011282144642914  0.7469050636070116  0.8737565623280552
  0.4871649527574520  0.2629197005240541  0.3754937503092501
  0.4948245223118448  0.2519778437593447  0.8752769391252149
  0.4922235773885760  0.7551931337424073  0.3756886937822628
  0.4982474018578104  0.7522544390342903  0.8743548659317157
  0.2438653150826261  0.4939434121645745  0.1249580402163564
  0.7466610249316017  0.0028179845322122  0.1269376046097266
  0.7418270482013103  0.9944429150485534  0.6227638711020299
  0.2561141270385319  0.0010453732966865  0.3751793125781659
  0.2454089959647357  0.9947093209388151  0.8747895513754391
  0.2489804609956025  0.5114611716422586  0.3753330061616232
  0.2601754491039083  0.4983385024078215  0.8740555728290709
  0.7472523418852333  0.5093371296896030  0.3743360138855092
  0.7533449340616764  0.5066537890484594  0.8741343400731926
  0.2515205530984362  0.7547277073873764  0.1252820348654617
  0.2483490113101512  0.7519359350570779  0.6252526954681725
  0.7423488571380870  0.2621482593782122  0.6234176991943106
  0.7519192003235767  0.7503030402451590  0.1257752323495050
  0.7468715216018801  0.7502250105295821  0.6241260704511835
  0.2603218480279003  0.2436534627364502  0.3739562095457473
  0.2554878660849659  0.2505507494299244  0.8761105476348358
  0.7696121795784757  0.2381302016390252  0.3733028236728555
  0.7574501331785017  0.2434492366975085  0.8762317642530654
  0.1256379036760497  0.0039636746298501 -0.0001075832637181
  0.1244526027417226  0.0074047082298648  0.4908610451689178
  0.1243810486088476  0.5054108562847938  0.4922089461103679
  0.6250726809649587  0.0034867409816785  0.0054928111368666
  0.6239198972918721  0.9857293762073183  0.4959241694783505
  0.6250017598445576  0.4955058277469797  0.4969837045778557
  0.1263964094838177  0.0015821080561131  0.7503921156609300
  0.1242074804445456  0.5087669483628280  0.2499190760098051
  0.1231715324881936  0.4940272496604931  0.7636391326819636
  0.6236093949465452  0.9948571421732559  0.7447699237036617
  0.6249475129934920  0.5001063993529448  0.2508741721667546
  0.6264645113407116  0.4930152217795926  0.7562958893801632
  0.1246581007651920  0.2477385920591064  0.9920686525276113
  0.1287532188701215  0.2419805049793697  0.4908662294439912
  0.1248819184088725  0.7429566579085710  0.0006254929186948
  0.1240141025951517  0.7482073455462910  0.4953011719162287
  0.6259367840360458  0.2471314772347327  0.9898574093812054
  0.1242070605988282  0.2349017253342805  0.2622731519784056
  0.1231088389199585  0.7538167407180206  0.7511681299030178
  0.6262121265182987  0.7542302436486477  0.7507456727302472
  0.3771907580474001  0.0046686302572159  0.5004470151319101
  0.3733500939713782  0.4937382335593796  0.0086143195380780
  0.8738642467324214  0.9995295190422780  0.5130979393006325
  0.8746045687342920  0.4963328961709741  1.0003271548914474
  0.3769152770311323  0.9944718647824099  0.2529314707757807
  0.3747098948814630  0.4981701174959696  0.7404256654407914
  0.8735852654079205  0.9974435699500048  0.2446811910166520
  0.8740891612846819  0.9941969573744590  0.7382003143525551
  0.3797752532541089  0.2433275894701849  0.5031303097372943
  0.3763946477277252  0.7592323018558759  0.0020552655468895
  0.3769211823867800  0.7448204504596868  0.5029327914034083
  0.8688402193682629  0.2548348097169982  0.5122064213103885
  0.8721181873113978  0.7567457617188931  0.9989926298030826
  0.8721461926963149  0.7471259475260943  0.5032569767840285
  0.3783989256469733  0.2581523337477124  0.2411615324179595
  0.3763399878921505  0.2495851522174787  0.7488820247443275
  0.3768288044360735  0.7503350424352079  0.2471231112887218
  0.3749418430636682  0.7547393510663409  0.7488061229154287
  0.8732460207910554  0.2584196411330451  0.2359618651925415
  0.8738555332402423  0.2538837567458922  0.7423409175259270
  0.8733899232388328  0.7492527685029565  0.2483952551406851
  0.0013608364353196  0.1264316527307698  0.0059736411154354
  0.9897306945670528  0.1205975743347366  0.5122783085193283
  0.9918397322187128  0.6256537769109347  0.9991373005641857
  0.9994590231402216  0.6278949313264359  0.5008386932986117
  0.5021014480655528  0.1242330815489959  0.9971724327695897
  0.4880083978544676  0.6273310600923289  0.9990218175391747
  0.5070824248453940  0.6266526375369215  0.4961456612577935
  0.9826713121913275  0.1252861465891668  0.2427096695873709
  0.9968473841367483  0.6235465522310545  0.2493192960979455
  0.0103504875098043  0.6250500765435452  0.7491454618275651
  0.4994746299406359  0.6259475674629689  0.2569970980970973
  0.0068724127880829  0.3795631669901352  0.4871695844424798
  0.4952979619628094  0.3718025409092701  0.5081952151247129
  0.4891863237803150  0.8778184934769290  0.4990335773039996
  0.9952377607137017  0.3743790622286358  0.7570653928488362
  0.9965896950653423  0.8753426285142749  0.2592913066111336
  0.9992762209751823  0.8763381414012495  0.7530912347854759
  0.5065166999615095  0.3713171238959042  0.2397133281077734
  0.4968631631612943  0.3729590141601493  0.7444462689726546
  0.4983997693471230  0.8764054967461927  0.2450535267321004
  0.5022708766793619  0.8750574402020207  0.7535892863023398
  0.2483413127653072  0.1244809465821945  0.9943979637417865
  0.2537966829561291  0.1235906119813442  0.4972180545628830
  0.2477556491848891  0.6270766492717402  0.5058309187184507
  0.7457980545411703  0.1259806962144475  0.0039680915411786
  0.7624670608019528  0.6255175397871994  0.0049482918580751
  0.7443733579773038  0.6255909550992322  0.5038285503585584
  0.2607827745704634  0.1260137591919174  0.2530422751918786
  0.2521414065244022  0.1243587301363486  0.7575704371470167
  0.2527714642799667  0.6235758860068099  0.2410121171913432
  0.7641187597798128  0.1264770606442074  0.2467585673642806
  0.7478749898362684  0.6247987668441811  0.2438819476705040
  0.7390892232064353  0.6247360458063979  0.7456165190057176
  0.2466395577390264  0.3759503262611449  0.9976744329669456
  0.2425682015600581  0.8738727910415288  0.0033137460936930
  0.7460624899641023  0.3748303747452186  0.9866037992253194
  0.7502220449452722  0.3729374172726203  0.4848538957946916
  0.7427308037041362  0.8749637781278661  0.0066841136399246
  0.7578500153566513  0.8763892375176907  0.4999099595336358
  0.2534987203190476  0.3758666129065243  0.7571537139138654
  0.2521580963825226  0.8756506396536771  0.2515514974054889
  0.2459857716050406  0.8736032271084093  0.7469228645046524
  0.7452938508739524  0.3738979874685169  0.2673004200203004
  0.7547633424615684  0.3735530909355655  0.7594627266407920
  0.7513925700017872  0.8754651487361712  0.2466011534423343
  0.7514226425322793  0.8751244581399793  0.7452344875003426
 
  0.00000000E+00  0.00000000E+00  0.00000000E+00
  0.00000000E+00  0.00000000E+00  0.00000000E+00
  0.00000000E+00  0.00000000E+00  0.00000000E+00
  0.00000000E+00  0.00000000E+00  0.00000000E+00
  0.00000000E+00  0.00000000E+00  0.00000000E+00
  0.00000000E+00  0.00000000E+00  0.00000000E+00
  0.00000000E+00  0.00000000E+00  0.00000000E+00
  0.00000000E+00  0.00000000E+00  0.00000000E+00
  0.00000000E+00  0.00000000E+00  0.00000000E+00
  0.00000000E+00  0.00000000E+00  0.00000000E+00
  0.00000000E+00  0.00000000E+00  0.00000000E+00
  0.00000000E+00  0.00000000E+00  0.00000000E+00
  0.00000000E+00  0.00000000E+00  0.00000000E+00
  0.00000000E+00  0.00000000E+00  0.00000000E+00
  0.00000000E+00  0.00000000E+00  0.00000000E+00
  0.00000000E+00  0.00000000E+00  0.00000000E+00
  0.00000000E+00  0.00000000E+00  0.00000000E+00
  0.00000000E+00  0.00000000E+00  0.00000000E+00
  0.00000000E+00  0.00000000E+00  0.00000000E+00
  0.00000000E+00  0.00000000E+00  0.00000000E+00
  0.00000000E+00  0.00000000E+00  0.00000000E+00
  0.00000000E+00  0.00000000E+00  0.00000000E+00
  0.00000000E+00  0.00000000E+00  0.00000000E+00
  0.00000000E+00  0.00000000E+00  0.00000000E+00
  0.00000000E+00  0.00000000E+00  0.00000000E+00
  0.00000000E+00  0.00000000E+00  0.00000000E+00
  0.00000000E+00  0.00000000E+00  0.00000000E+00
  0.00000000E+00  0.00000000E+00  0.00000000E+00
  0.00000000E+00  0.00000000E+00  0.00000000E+00
  0.00000000E+00  0.00000000E+00  0.00000000E+00
  0.00000000E+00  0.00000000E+00  0.00000000E+00
  0.00000000E+00  0.00000000E+00  0.00000000E+00
  0.00000000E+00  0.00000000E+00  0.00000000E+00
  0.00000000E+00  0.00000000E+00  0.00000000E+00
  0.00000000E+00  0.00000000E+00  0.00000000E+00
  0.00000000E+00  0.00000000E+00  0.00000000E+00
  0.00000000E+00  0.00000000E+00  0.00000000E+00
  0.00000000E+00  0.00000000E+00  0.00000000E+00
  0.00000000E+00  0.00000000E+00  0.00000000E+00
  0.00000000E+00  0.00000000E+00  0.00000000E+00
  0.00000000E+00  0.00000000E+00  0.00000000E+00
  0.00000000E+00  0.00000000E+00  0.00000000E+00
  0.00000000E+00  0.00000000E+00  0.00000000E+00
  0.00000000E+00  0.00000000E+00  0.00000000E+00
  0.00000000E+00  0.00000000E+00  0.00000000E+00
  0.00000000E+00  0.00000000E+00  0.00000000E+00
  0.00000000E+00  0.00000000E+00  0.00000000E+00
  0.00000000E+00  0.00000000E+00  0.00000000E+00
  0.00000000E+00  0.00000000E+00  0.00000000E+00
  0.00000000E+00  0.00000000E+00  0.00000000E+00
  0.00000000E+00  0.00000000E+00  0.00000000E+00
  0.00000000E+00  0.00000000E+00  0.00000000E+00
  0.00000000E+00  0.00000000E+00  0.00000000E+00
  0.00000000E+00  0.00000000E+00  0.00000000E+00
  0.00000000E+00  0.00000000E+00  0.00000000E+00
  0.00000000E+00  0.00000000E+00  0.00000000E+00
  0.00000000E+00  0.00000000E+00  0.00000000E+00
  0.00000000E+00  0.00000000E+00  0.00000000E+00
  0.00000000E+00  0.00000000E+00  0.00000000E+00
  0.00000000E+00  0.00000000E+00  0.00000000E+00
  0.00000000E+00  0.00000000E+00  0.00000000E+00
  0.00000000E+00  0.00000000E+00  0.00000000E+00
  0.00000000E+00  0.00000000E+00  0.00000000E+00
  0.00000000E+00  0.00000000E+00  0.00000000E+00
  0.00000000E+00  0.00000000E+00  0.00000000E+00
  0.00000000E+00  0.00000000E+00  0.00000000E+00
  0.00000000E+00  0.00000000E+00  0.00000000E+00
  0.00000000E+00  0.00000000E+00  0.00000000E+00
  0.00000000E+00  0.00000000E+00  0.00000000E+00
  0.00000000E+00  0.00000000E+00  0.00000000E+00
  0.00000000E+00  0.00000000E+00  0.00000000E+00
  0.00000000E+00  0.00000000E+00  0.00000000E+00
  0.00000000E+00  0.00000000E+00  0.00000000E+00
  0.00000000E+00  0.00000000E+00  0.00000000E+00
  0.00000000E+00  0.00000000E+00  0.00000000E+00
  0.00000000E+00  0.00000000E+00  0.00000000E+00
  0.00000000E+00  0.00000000E+00  0.00000000E+00
  0.00000000E+00  0.00000000E+00  0.00000000E+00
  0.00000000E+00  0.00000000E+00  0.00000000E+00
  0.00000000E+00  0.00000000E+00  0.00000000E+00
  0.00000000E+00  0.00000000E+00  0.00000000E+00
  0.00000000E+00  0.00000000E+00  0.00000000E+00
  0.00000000E+00  0.00000000E+00  0.00000000E+00
  0.00000000E+00  0.00000000E+00  0.00000000E+00
  0.00000000E+00  0.00000000E+00  0.00000000E+00
  0.00000000E+00  0.00000000E+00  0.00000000E+00
  0.00000000E+00  0.00000000E+00  0.00000000E+00
  0.00000000E+00  0.00000000E+00  0.00000000E+00
  0.00000000E+00  0.00000000E+00  0.00000000E+00
  0.00000000E+00  0.00000000E+00  0.00000000E+00
  0.00000000E+00  0.00000000E+00  0.00000000E+00
  0.00000000E+00  0.00000000E+00  0.00000000E+00
  0.00000000E+00  0.00000000E+00  0.00000000E+00
  0.00000000E+00  0.00000000E+00  0.00000000E+00
  0.00000000E+00  0.00000000E+00  0.00000000E+00
  0.00000000E+00  0.00000000E+00  0.00000000E+00
  0.00000000E+00  0.00000000E+00  0.00000000E+00
  0.00000000E+00  0.00000000E+00  0.00000000E+00
  0.00000000E+00  0.00000000E+00  0.00000000E+00
  0.00000000E+00  0.00000000E+00  0.00000000E+00
  0.00000000E+00  0.00000000E+00  0.00000000E+00
  0.00000000E+00  0.00000000E+00  0.00000000E+00
  0.00000000E+00  0.00000000E+00  0.00000000E+00
  0.00000000E+00  0.00000000E+00  0.00000000E+00
  0.00000000E+00  0.00000000E+00  0.00000000E+00
  0.00000000E+00  0.00000000E+00  0.00000000E+00
  0.00000000E+00  0.00000000E+00  0.00000000E+00
  0.00000000E+00  0.00000000E+00  0.00000000E+00
  0.00000000E+00  0.00000000E+00  0.00000000E+00
  0.00000000E+00  0.00000000E+00  0.00000000E+00
  0.00000000E+00  0.00000000E+00  0.00000000E+00
  0.00000000E+00  0.00000000E+00  0.00000000E+00
  0.00000000E+00  0.00000000E+00  0.00000000E+00
  0.00000000E+00  0.00000000E+00  0.00000000E+00
  0.00000000E+00  0.00000000E+00  0.00000000E+00
  0.00000000E+00  0.00000000E+00  0.00000000E+00
  0.00000000E+00  0.00000000E+00  0.00000000E+00
  0.00000000E+00  0.00000000E+00  0.00000000E+00
  0.00000000E+00  0.00000000E+00  0.00000000E+00
  0.00000000E+00  0.00000000E+00  0.00000000E+00
  0.00000000E+00  0.00000000E+00  0.00000000E+00
  0.00000000E+00  0.00000000E+00  0.00000000E+00
  0.00000000E+00  0.00000000E+00  0.00000000E+00
  0.00000000E+00  0.00000000E+00  0.00000000E+00
  0.00000000E+00  0.00000000E+00  0.00000000E+00
  0.00000000E+00  0.00000000E+00  0.00000000E+00
  0.00000000E+00  0.00000000E+00  0.00000000E+00
  0.00000000E+00  0.00000000E+00  0.00000000E+00
  0.00000000E+00  0.00000000E+00  0.00000000E+00
  0.00000000E+00  0.00000000E+00  0.00000000E+00
  0.00000000E+00  0.00000000E+00  0.00000000E+00
  0.00000000E+00  0.00000000E+00  0.00000000E+00
  0.00000000E+00  0.00000000E+00  0.00000000E+00
  0.00000000E+00  0.00000000E+00  0.00000000E+00
  0.00000000E+00  0.00000000E+00  0.00000000E+00
  0.00000000E+00  0.00000000E+00  0.00000000E+00
  0.00000000E+00  0.00000000E+00  0.00000000E+00
  0.00000000E+00  0.00000000E+00  0.00000000E+00
  0.00000000E+00  0.00000000E+00  0.00000000E+00
  0.00000000E+00  0.00000000E+00  0.00000000E+00
  0.00000000E+00  0.00000000E+00  0.00000000E+00
  0.00000000E+00  0.00000000E+00  0.00000000E+00
  0.00000000E+00  0.00000000E+00  0.00000000E+00
  0.00000000E+00  0.00000000E+00  0.00000000E+00
  0.00000000E+00  0.00000000E+00  0.00000000E+00
  0.00000000E+00  0.00000000E+00  0.00000000E+00
  0.00000000E+00  0.00000000E+00  0.00000000E+00
  0.00000000E+00  0.00000000E+00  0.00000000E+00
  0.00000000E+00  0.00000000E+00  0.00000000E+00
  0.00000000E+00  0.00000000E+00  0.00000000E+00
  0.00000000E+00  0.00000000E+00  0.00000000E+00
  0.00000000E+00  0.00000000E+00  0.00000000E+00
  0.00000000E+00  0.00000000E+00  0.00000000E+00
  0.00000000E+00  0.00000000E+00  0.00000000E+00
  0.00000000E+00  0.00000000E+00  0.00000000E+00
  0.00000000E+00  0.00000000E+00  0.00000000E+00
  0.00000000E+00  0.00000000E+00  0.00000000E+00
  0.00000000E+00  0.00000000E+00  0.00000000E+00
  0.00000000E+00  0.00000000E+00  0.00000000E+00
  0.00000000E+00  0.00000000E+00  0.00000000E+00
  0.00000000E+00  0.00000000E+00  0.00000000E+00
  0.00000000E+00  0.00000000E+00  0.00000000E+00
  0.00000000E+00  0.00000000E+00  0.00000000E+00
  0.00000000E+00  0.00000000E+00  0.00000000E+00
  0.00000000E+00  0.00000000E+00  0.00000000E+00
  0.00000000E+00  0.00000000E+00  0.00000000E+00
  0.00000000E+00  0.00000000E+00  0.00000000E+00
  0.00000000E+00  0.00000000E+00  0.00000000E+00
  0.00000000E+00  0.00000000E+00  0.00000000E+00
  0.00000000E+00  0.00000000E+00  0.00000000E+00
  0.00000000E+00  0.00000000E+00  0.00000000E+00
  0.00000000E+00  0.00000000E+00  0.00000000E+00
  0.00000000E+00  0.00000000E+00  0.00000000E+00
  0.00000000E+00  0.00000000E+00  0.00000000E+00
  0.00000000E+00  0.00000000E+00  0.00000000E+00
  0.00000000E+00  0.00000000E+00  0.00000000E+00
  0.00000000E+00  0.00000000E+00  0.00000000E+00
  0.00000000E+00  0.00000000E+00  0.00000000E+00
  0.00000000E+00  0.00000000E+00  0.00000000E+00
  0.00000000E+00  0.00000000E+00  0.00000000E+00
  0.00000000E+00  0.00000000E+00  0.00000000E+00
  0.00000000E+00  0.00000000E+00  0.00000000E+00
  0.00000000E+00  0.00000000E+00  0.00000000E+00
  0.00000000E+00  0.00000000E+00  0.00000000E+00
  0.00000000E+00  0.00000000E+00  0.00000000E+00
  0.00000000E+00  0.00000000E+00  0.00000000E+00
  0.00000000E+00  0.00000000E+00  0.00000000E+00
  0.00000000E+00  0.00000000E+00  0.00000000E+00
  0.00000000E+00  0.00000000E+00  0.00000000E+00
  0.00000000E+00  0.00000000E+00  0.00000000E+00
  0.00000000E+00  0.00000000E+00  0.00000000E+00
  0.00000000E+00  0.00000000E+00  0.00000000E+00
  0.00000000E+00  0.00000000E+00  0.00000000E+00
  0.00000000E+00  0.00000000E+00  0.00000000E+00
  0.00000000E+00  0.00000000E+00  0.00000000E+00
  0.00000000E+00  0.00000000E+00  0.00000000E+00
  0.00000000E+00  0.00000000E+00  0.00000000E+00
  0.00000000E+00  0.00000000E+00  0.00000000E+00
  0.00000000E+00  0.00000000E+00  0.00000000E+00
  0.00000000E+00  0.00000000E+00  0.00000000E+00
  0.00000000E+00  0.00000000E+00  0.00000000E+00
  0.00000000E+00  0.00000000E+00  0.00000000E+00
  0.00000000E+00  0.00000000E+00  0.00000000E+00
  0.00000000E+00  0.00000000E+00  0.00000000E+00
  0.00000000E+00  0.00000000E+00  0.00000000E+00
  0.00000000E+00  0.00000000E+00  0.00000000E+00
  0.00000000E+00  0.00000000E+00  0.00000000E+00
  0.00000000E+00  0.00000000E+00  0.00000000E+00
  0.00000000E+00  0.00000000E+00  0.00000000E+00
  0.00000000E+00  0.00000000E+00  0.00000000E+00
  0.00000000E+00  0.00000000E+00  0.00000000E+00
  0.00000000E+00  0.00000000E+00  0.00000000E+00
  0.00000000E+00  0.00000000E+00  0.00000000E+00
  0.00000000E+00  0.00000000E+00  0.00000000E+00
  0.00000000E+00  0.00000000E+00  0.00000000E+00
  0.00000000E+00  0.00000000E+00  0.00000000E+00
  0.00000000E+00  0.00000000E+00  0.00000000E+00
  0.00000000E+00  0.00000000E+00  0.00000000E+00
  0.00000000E+00  0.00000000E+00  0.00000000E+00
  0.00000000E+00  0.00000000E+00  0.00000000E+00
  0.00000000E+00  0.00000000E+00  0.00000000E+00
  0.00000000E+00  0.00000000E+00  0.00000000E+00
  0.00000000E+00  0.00000000E+00  0.00000000E+00
  0.00000000E+00  0.00000000E+00  0.00000000E+00
  0.00000000E+00  0.00000000E+00  0.00000000E+00
  0.00000000E+00  0.00000000E+00  0.00000000E+00
  0.00000000E+00  0.00000000E+00  0.00000000E+00
  0.00000000E+00  0.00000000E+00  0.00000000E+00
  0.00000000E+00  0.00000000E+00  0.00000000E+00
  0.00000000E+00  0.00000000E+00  0.00000000E+00
  0.00000000E+00  0.00000000E+00  0.00000000E+00
  0.00000000E+00  0.00000000E+00  0.00000000E+00
  0.00000000E+00  0.00000000E+00  0.00000000E+00
  0.00000000E+00  0.00000000E+00  0.00000000E+00
  0.00000000E+00  0.00000000E+00  0.00000000E+00
  0.00000000E+00  0.00000000E+00  0.00000000E+00
  0.00000000E+00  0.00000000E+00  0.00000000E+00
  0.00000000E+00  0.00000000E+00  0.00000000E+00
  0.00000000E+00  0.00000000E+00  0.00000000E+00
  0.00000000E+00  0.00000000E+00  0.00000000E+00
  0.00000000E+00  0.00000000E+00  0.00000000E+00
  0.00000000E+00  0.00000000E+00  0.00000000E+00
  0.00000000E+00  0.00000000E+00  0.00000000E+00
  0.00000000E+00  0.00000000E+00  0.00000000E+00
  0.00000000E+00  0.00000000E+00  0.00000000E+00
  0.00000000E+00  0.00000000E+00  0.00000000E+00
  0.00000000E+00  0.00000000E+00  0.00000000E+00
  0.00000000E+00  0.00000000E+00  0.00000000E+00
  0.00000000E+00  0.00000000E+00  0.00000000E+00
  0.00000000E+00  0.00000000E+00  0.00000000E+00
  0.00000000E+00  0.00000000E+00  0.00000000E+00
  0.00000000E+00  0.00000000E+00  0.00000000E+00
  0.00000000E+00  0.00000000E+00  0.00000000E+00
  0.00000000E+00  0.00000000E+00  0.00000000E+00
  0.00000000E+00  0.00000000E+00  0.00000000E+00
  0.00000000E+00  0.00000000E+00  0.00000000E+00
  0.00000000E+00  0.00000000E+00  0.00000000E+00
