TiOF2 2x2x2 config 0014                 
   1.00000000000000     
     7.9391782449774606   -0.0000000018230613    0.0000000076843683
     0.0000000012921073    7.7693301201098679   -0.0000000085438804
     0.0000000101317852   -0.0000000108367754    7.5550455222232156
   Ti   O    F 
     8     8    16
Direct
 -0.0000000051655513 -0.0000000324733398 -0.0116254231993095
  0.0000000031973281  0.0000000411040051  0.5097628447063166
 -0.0000000051455798  0.5000000348043635 -0.0116246558615780
  0.0000000032488602  0.4999999523752630  0.5097624508437471
  0.4999999986660601 -0.0000002475301327  0.0003747498091957
  0.5000000014739319 -0.0000012363297813  0.4995765157132696
  0.4999999986375093  0.5000002923917356  0.0003747730884277
  0.5000000015087692  0.5000008439162640  0.4995764475847320
  0.4999999968394667  0.2500001071071374  0.5003512728065460
  0.4999999969108508  0.7500000636622591  0.5003502758333793
 -0.0000000014654119 -0.0000001296357101  0.7508917267680146
 -0.0000000011587887  0.5000001270555494  0.7508913594121258
  0.4999999994240435 -0.0000016369720622  0.2429071780856491
  0.4999999993447168 -0.0000019187314291  0.7576742373407868
  0.4999999997334321  0.5000016928657545  0.2429070679801132
  0.4999999990277612  0.5000019744568504  0.7576741089620633
  0.2384834253976919 -0.0000000959032967  0.0052124479974094
  0.2358026660516911  0.0000006346397555  0.4947312864932922
  0.2384834365416579  0.5000001033789438  0.0052120521834876
  0.2358025977787053  0.4999993762463487  0.4947309743954746
  0.7615165698245683 -0.0000000957397319  0.0052124681525336
  0.7641973373086614  0.0000006348481666  0.4947312925896821
  0.7615165587259629  0.5000001033073131  0.0052120722148546
  0.7641974056251486  0.4999993760913624  0.4947309806123564
 -0.0000000168523475  0.2499999885754256  0.0082140057645379
  0.0000000091008211  0.2500000358443599  0.4928797870428150
 -0.0000000169277564  0.7500000143553895  0.0082140314584543
  0.0000000089002716  0.7499999600232589  0.4928796841066798
  0.5000000190240034  0.2500000177851089  0.0000088824443730
  0.5000000191106428  0.7500000210224466  0.0000089877809905
 -0.0000000022104384 -0.0000000942590481  0.2490980331969544
 -0.0000000024766810  0.5000000917174687  0.2490980836926248
 
  0.00000000E+00  0.00000000E+00  0.00000000E+00
  0.00000000E+00  0.00000000E+00  0.00000000E+00
  0.00000000E+00  0.00000000E+00  0.00000000E+00
  0.00000000E+00  0.00000000E+00  0.00000000E+00
  0.00000000E+00  0.00000000E+00  0.00000000E+00
  0.00000000E+00  0.00000000E+00  0.00000000E+00
  0.00000000E+00  0.00000000E+00  0.00000000E+00
  0.00000000E+00  0.00000000E+00  0.00000000E+00
  0.00000000E+00  0.00000000E+00  0.00000000E+00
  0.00000000E+00  0.00000000E+00  0.00000000E+00
  0.00000000E+00  0.00000000E+00  0.00000000E+00
  0.00000000E+00  0.00000000E+00  0.00000000E+00
  0.00000000E+00  0.00000000E+00  0.00000000E+00
  0.00000000E+00  0.00000000E+00  0.00000000E+00
  0.00000000E+00  0.00000000E+00  0.00000000E+00
  0.00000000E+00  0.00000000E+00  0.00000000E+00
  0.00000000E+00  0.00000000E+00  0.00000000E+00
  0.00000000E+00  0.00000000E+00  0.00000000E+00
  0.00000000E+00  0.00000000E+00  0.00000000E+00
  0.00000000E+00  0.00000000E+00  0.00000000E+00
  0.00000000E+00  0.00000000E+00  0.00000000E+00
  0.00000000E+00  0.00000000E+00  0.00000000E+00
  0.00000000E+00  0.00000000E+00  0.00000000E+00
  0.00000000E+00  0.00000000E+00  0.00000000E+00
  0.00000000E+00  0.00000000E+00  0.00000000E+00
  0.00000000E+00  0.00000000E+00  0.00000000E+00
  0.00000000E+00  0.00000000E+00  0.00000000E+00
  0.00000000E+00  0.00000000E+00  0.00000000E+00
  0.00000000E+00  0.00000000E+00  0.00000000E+00
  0.00000000E+00  0.00000000E+00  0.00000000E+00
  0.00000000E+00  0.00000000E+00  0.00000000E+00
  0.00000000E+00  0.00000000E+00  0.00000000E+00
