Ti64 O64 F128                           
   1.00000000000000     
    15.4263309585497339    0.0000000000000000    0.0000000000000000
     0.0000000000000000   15.4263309585497339    0.0000000000000000
     0.0000000000000000    0.0000000000000000   15.4263309585497339
   Ti   O    F 
    64    64   128
Direct
  0.9949738484687712  0.9954488108936118  0.9946358739938640
  0.0000706697708103  0.9917443092785657  0.4934601092314058
  0.0056404311601482  0.4950544244537936  0.9979726536143569
  0.9937217806300906  0.5021870908996741  0.5070395512490370
  0.4939758367639389  0.9946558298741391  0.9992702031991310
  0.5002997811343420  0.0081353459629870  0.5002915134021081
  0.5042170780796733  0.4956271002219756  0.9957616684029394
  0.4919983794596212  0.4993452042659068  0.4949285573467783
  0.0067286399628675  0.0025153553890958  0.2562899793734024
  0.0010309642401788  0.0075952558405521  0.7568374975376650
  0.9934719919444490  0.4939529123834349  0.2518520666684284
  0.9924496255011667  0.4988235025051905  0.7423623607937333
  0.5064201817337032  0.0079488141957232  0.2501357378059665
  0.4924676289105886  0.0052244864208485  0.7513775427155900
  0.4930814560836716  0.4974379931964459  0.2573845739209916
  0.5009777967298197  0.5047776262925046  0.7580483760190174
  0.9952188726853680  0.2570803862045573  0.0010587602420560
  0.9988582262943715  0.2478677041564174  0.4913490145744015
  0.9979590811668538  0.7579793938404307  0.0062260756926040
  0.9981933800866044  0.7565487815688422  0.5060785078833786
  0.4946305515658585  0.2579584132885641  0.0001867408929952
  0.5079797087404142  0.2454471263872743  0.4999886905598552
  0.5071895145494270  0.7568362927645582  0.9988056230784109
  0.5068360359070117  0.7529018998398507  0.5090296006735081
  0.9995126531115728  0.2580625966601727  0.2552491536669075
  0.0063503741126931  0.2421930091672750  0.7471299707000659
  0.0069814414605998  0.7486639716344941  0.2431254212343939
  0.9929117146700448  0.7509381874050846  0.7434281119637413
  0.5081639994572653  0.2423392113424686  0.2509307423537789
  0.5066336122718506  0.2428892848566086  0.7495724182313047
  0.5070318760004202  0.7516375311558110  0.2517938683909891
  0.5015416707418192  0.7425427778758438  0.7432117437638562
  0.2562128660541899  0.9988633644181064  0.0061119038612419
  0.2491252108373662  0.9938067021344753  0.5066145035246725
  0.2434228387928825  0.5075963806312797  0.9978167754945132
  0.2541271987275075  0.4941733046035106  0.5063988570151428
  0.7572516169327754  0.0003879940280449  0.9943087238754641
  0.7512490352803299  0.0065045440525405  0.4942797096850103
  0.7420623638217496  0.5005639543669116  0.0051606411559038
  0.7556805707160976  0.4978635192953816  0.5052679087806237
  0.2446862739150209  0.0021145543105011  0.2438465114360114
  0.2571891490138566  0.9978869089772597  0.7442561893186672
  0.2553732045302820  0.4924033584348189  0.2519531033209191
  0.2474236200918215  0.5063464997669981  0.7412120832772383
  0.7448766734733633  0.9997159555527232  0.2559300612693961
  0.7484049485588262  0.0062358711998655  0.7563363500640110
  0.7560153394992630  0.4994974912970382  0.2429118507016188
  0.7573059493245259  0.4982816461627148  0.7428599988923290
  0.2573295035865738  0.2511111079847066  0.0056335726970622
  0.2527500476204203  0.2567157080233378  0.5055383152039825
  0.2517805638925884  0.7425893148700804  0.9934000084618344
  0.2513122194153491  0.7554314131361283  0.4927695328179593
  0.7573524281234072  0.2502157366916900  0.0065999830857687
  0.7432752738719716  0.2424586463066177  0.4981065999302149
  0.7419174105791436  0.7500050397989463  0.9940252972243374
  0.7419046579647179  0.7520159385001830  0.4940749015201638
  0.2514625576041218  0.2575143623578122  0.2435721611536642
  0.2440283726212840  0.2513886941233813  0.7435310578547468
  0.2439781266759098  0.7482823647866937  0.2556560749923080
  0.2482197111924937  0.7419348265558470  0.7566698947116119
  0.7425644231306393  0.2506270770849480  0.2420098951454295
  0.7441205173430140  0.2419594467317166  0.7506308187448517
  0.7458416251102554  0.7504549734429273  0.2567133148624209
  0.7573725386599832  0.7512945966829168  0.7568310418105560
  0.0045913529549754  0.5012124081610292  0.6247319698193816
  0.9943257839739826  0.0056723234856226  0.3761861577221998
  0.9985748782658358  0.0024837318196406  0.8729271117911612
  0.5021108081835056  0.4966321125427214  0.3751905431934449
  0.4964619533813072  0.4998927566444753  0.8744663041067505
  0.9982658993581828  0.7468259606006392  0.1258169831566211
  0.0005374109397278  0.7465984538020386  0.6243098909219548
  0.5003293605233721  0.7562988037561393  0.6246506788960450
  0.9973290735459528  0.2462333916799892  0.3765344689806086
  0.2536646171066247  0.0036100270446755  0.1254255250776213
  0.2525360917509061  0.0037009103901210  0.6253416209061606
  0.2416693068650443  0.4965002907221006  0.6257270977644374
  0.7530975031409671  0.4948083155795087  0.1256886834590475
  0.7487564704730189  0.4962906062110729  0.6241697556162544
  0.7526689478626877  0.9969802722830353  0.3760875362610306
  0.7475444564467592  0.9966843407539563  0.8736768517700088
  0.2485592616926133  0.2490900326487800  0.1256254074308686
  0.2543221398170774  0.2489312073310754  0.6251350861912198
  0.7456829877373121  0.2549104327163003  0.1259939526052361
  0.2538100976572089  0.7472261033079471  0.3746035370497374
  0.2505061164574651  0.7531645313835115  0.8751025100967423
  0.7515444479780848  0.7543393493523718  0.3740960534042889
  0.7473848493738253  0.7545613971377703  0.8753955418666095
  0.1243373596756464  0.5017008750710185  0.9974705652083968
  0.6258283641835135  0.5055889269498637  0.0005338317470954
  0.1253817180959085  0.0012776500943215  0.2531197781292792
  0.6251518645929586  0.9985953263516321  0.2516584017492653
  0.6244223127151092  0.2522365129935315  0.4985124930968978
  0.6247076113457678  0.7444940463323085  0.0040319232031142
  0.6246742512115884  0.7571814585181644  0.4970963350813857
  0.1245797999890107  0.2500286067074528  0.7471735479419880
  0.1256037244110979  0.7529402878347441  0.2510401344392327
  0.6254398962400275  0.2478197951918493  0.2585284278638705
  0.6253398164547175  0.2510471927681546  0.7443318927498334
  0.6231064527549852  0.7550721114063572  0.2501608264986989
  0.3758431647215463  0.0018420377846357  0.9934237023871699
  0.3752216987678182  0.5015682728597182  0.5015460857513511
  0.8729652309144168  0.0038640890805273  0.0014904087400867
  0.8753022552440076  0.4985505403624318  0.4966646791067135
  0.3758431054385786  0.9959238184125345  0.7552696913842035
  0.3740468519782570  0.4979395853304835  0.2514777651741638
  0.8756191932509978  0.4996379194491204  0.2551050921720250
  0.8751066266829962  0.5058395359376361  0.7497295911642409
  0.3756771799470136  0.2466765658165529  0.0006293810692610
  0.8741700621772904  0.2463339873041607  0.0022213589288569
  0.8749027559007569  0.7464322256810699  0.7504018912924509
  0.5048413115982744  0.1227564001946134  0.4993984816436234
  0.9951318742927658  0.1258779827366252  0.7436613961950721
  0.4975637197812848  0.1249252523167841  0.2581152212327533
  0.5000348357928133  0.1237116378281696  0.7440784718687635
  0.5001735756981480  0.6256898026902685  0.7473547079442220
  0.9984760683838502  0.3748664660473531  0.0036973630195662
  0.9995799839370346  0.8749482833469718  0.0008042742173714
  0.0016455919250456  0.8747342356515623  0.4979343145054000
  0.5010205588588994  0.3741679110020657  0.0038168906738467
  0.5023349657448439  0.8755428262685803  0.0006528474697429
  0.0042951783505660  0.3738263121939973  0.2482639306204297
  0.2532111750259995  0.6251608806441227  0.0007159945326802
  0.7474938414944182  0.1249677966336131  0.5017981886869217
  0.2497806107046386  0.6246767632733258  0.7508514636009029
  0.7526052972196374  0.1246014787548476  0.7465201352983730
  0.2487171535834684  0.3730173134163179  0.4944086092152748
  0.2476092924177489  0.8757228901012012  0.5002680310082714
  0.2439401928129827  0.3745059053662050  0.2555942014219723
  0.0010200874876997  0.0016238506101200  0.1269455568655674
  0.0053089361679724  0.9976187855303259  0.6235581505928360
  0.9974229868306397  0.5073214793847710  0.1253796283782048
  0.4960776659298016  0.0029312160983895  0.1262424017621342
  0.4988573256446471  0.9914142464655810  0.6230497761487357
  0.5000984939212858  0.5047709023521043  0.1272474571966972
  0.5049769115933007  0.4980124871132339  0.6245644317365205
  0.0063788594312611  0.4969603222057745  0.3761392555788389
  0.9981839675555930  0.4981982814526608  0.8731093256755308
  0.5006766886603674  0.9938582554443743  0.3769124206046319
  0.5133989680819380  0.0036707615939949  0.8746991988649246
  0.0040650986942687  0.2458821927125077  0.1272811562124438
  0.9967424778416349  0.2578875754717002  0.6213589508698968
  0.5049121650827807  0.2431278666991354  0.1265201830192749
  0.4920593727053039  0.2519346111703066  0.6231217662638141
  0.4954190535336200  0.7492742813799961  0.1267860781444805
  0.9983645716015742  0.2499306251628001  0.8741708073808545
  0.9951588537693119  0.7495142409319818  0.3752154364160529
  0.0025093205635676  0.7503038030152390  0.8740097174770387
  0.4944147299687748  0.2581732442283415  0.3761183473925652
  0.5035731410099578  0.2477665906298226  0.8742758188246980
  0.4941002771101174  0.7513236248243116  0.3755719572778118
  0.4996056338473629  0.7501085940803985  0.8737777794961447
  0.2476771998115009  0.4955062664497988  0.1248813357265057
  0.7480475135053121  0.0057442517959328  0.1267036169096992
  0.7451367158312353  0.9977760565495070  0.6230661173807779
  0.2539088040084168  0.0005408358335539  0.3756627674433800
  0.2442010885122386  0.9944396871081558  0.8744750119763790
  0.2444534799275724  0.5103263842225182  0.3752426509662307
  0.2565662801159924  0.4965501254009477  0.8737198948584237
  0.7440311070175979  0.5034939954365399  0.3748145516093538
  0.7498590847427303  0.5030467498624882  0.8741028295363114
  0.2530048857390917  0.7534899534383592  0.1249475660669505
  0.2498728660659380  0.7502993845847677  0.6249626706784216
  0.7544934483052469  0.2582777990603166  0.6231318385144330
  0.7530751946617029  0.7463316185697172  0.1259478266240650
  0.7486287984092471  0.7469954645072157  0.6242917412958964
  0.2500907621412856  0.2439694427698052  0.3746139294947643
  0.2493553343809511  0.2517571766423911  0.8751866664742994
  0.7586556541504841  0.2467448470822103  0.3742996011112730
  0.7487191439317217  0.2476392331765520  0.8757468704915100
  0.1259464280263891  0.0001243818239018  0.0012330211755815
  0.1246673344694090  0.0097566112861872  0.4967056688188200
  0.1232326537496208  0.5023650946085273  0.4952812817908027
  0.6252085063618876  0.9998369267820226  0.0062651535194377
  0.6239703734230528  0.9893936952574677  0.5001648002818453
  0.6253194901866168  0.4973549194433141  0.5002464504614482
  0.1266489079583485  0.0014504220370470  0.7486735625895526
  0.1239925494483450  0.5053694331474446  0.2467740668589301
  0.1232382855965247  0.4949792294304740  0.7598966836010576
  0.6236548156358280  0.9963005396265784  0.7426427165371031
  0.6252773179989405  0.4978925051634889  0.2477977181821200
  0.6264150293049863  0.4948546977061564  0.7525540345892806
  0.1249202727036245  0.2512171058499851  0.9974013428739318
  0.1234443389287463  0.2426579989203516  0.5013671725323787
  0.1251717939159554  0.7477176669076245  0.0016357813480488
  0.1242714697747461  0.7454080839916234  0.4969257468782643
  0.6259344666740729  0.2504252932529898  0.9973547684782732
  0.1244739929748838  0.2392712414801572  0.2536673137301449
  0.1235333152998806  0.7522237492980061  0.7498427646522486
  0.6262777831157413  0.7528039077846712  0.7489457994719594
  0.3770612065183593  0.0016255396340568  0.4981206132159270
  0.3734938731899293  0.4976188174247038  0.0052149017331948
  0.8749800136642193  0.0014741871719734  0.5104619253304169
  0.8746589683734420  0.4995743189973803  0.9968027054946074
  0.3773062488289873  0.9977377564266310  0.2546575212548605
  0.3747020159626860  0.4967611455683831  0.7433097724142214
  0.8738969813760324  0.0007549736975590  0.2457833132692815
  0.8742162178515824  0.9923177844437879  0.7414546713454666
  0.3786284502574028  0.2466114817045669  0.4956604090706899
  0.3766600769304483  0.7543771033726153  0.0006602868783755
  0.3770279256350956  0.7482949652954705  0.5013258292033570
  0.8742660160525826  0.2531419188489504  0.5021240877725585
  0.8723623147489384  0.7518867544694017  0.9981979311499187
  0.8727319760212037  0.7471572054467166  0.5022526287792428
  0.3779824233647507  0.2549733860945185  0.2497981035531540
  0.3761081784903310  0.2502752253993135  0.7546093084727529
  0.3772194291902391  0.7475578217417332  0.2482589579138463
  0.3751269842272011  0.7562543651756670  0.7496848072211063
  0.8740330775467577  0.2522053363604053  0.2476156781038131
  0.8741274045287256  0.2547971923012863  0.7495749915323097
  0.8738207552874641  0.7460559832229277  0.2498969663376631
  0.0051338991683863  0.1267188106323656  0.0016044420331430
  0.9942216876677999  0.1254639807374208  0.5090846114011148
  0.9957253737733632  0.6252784005855127  0.9953015569872866
  0.9989212567430114  0.6261898847068835  0.4935121968369522
  0.5057242605938677  0.1245456250047005  0.0002942807132174
  0.4920659825242986  0.6274935746892352  0.0013099968459325
  0.5039471601624590  0.6267688006057180  0.4998681467072154
  0.9941848666909210  0.1272880653389398  0.2464618673672311
  0.0007171685064341  0.6234404196746580  0.2563086048694754
  0.0084896294061857  0.6245480034569667  0.7547904832935450
  0.5025938332762063  0.6262269543759476  0.2522381741514894
  0.0045068056202494  0.3734750977117146  0.4978860613622739
  0.4975956476317467  0.3722511390013521  0.5036433477215090
  0.4934060795414457  0.8780705498281947  0.4951773188596502
  0.9969596720530733  0.3742274165982092  0.7511757262301462
  0.9939445304666237  0.8757495674453226  0.2520282569954411
  0.0017098713607827  0.8757409164429526  0.7478752962394516
  0.5018538257799618  0.3719783412672658  0.2438245369574832
  0.4978221399480034  0.3732654996534072  0.7477320845611780
  0.4950408438797487  0.8760688370860559  0.2493360033676471
  0.5034688562665053  0.8754944715922343  0.7552792589189712
  0.2444281518765788  0.1247999895697680  0.9930017764389741
  0.2534769309400547  0.1242843598067233  0.4965687382042017
  0.2491058028580599  0.6264100125421322  0.5040447196778461
  0.7416711276799289  0.1258322006671583  0.9996980088233346
  0.7588639305602313  0.6256237587197407  0.0004815224427546
  0.7473456402080416  0.6255122735784223  0.4991249356708615
  0.2577804926825312  0.1262789984276105  0.2541619459552839
  0.2520190438435959  0.1244450441824181  0.7578396198971310
  0.2500814369429746  0.6238073839646336  0.2421968117801175
  0.7558082665501843  0.1256683104552075  0.2516943113024580
  0.7454757541244996  0.6252782537452984  0.2499898622811471
  0.7413995624235065  0.6251100751650239  0.7494774658525344
  0.2504103232126384  0.3759638086170617  0.9986037505875749
  0.2477331487334246  0.8740367794947208  0.0035645476965713
  0.7496339043094640  0.3747941735624084  0.9910965191322375
  0.7509174534384636  0.3723729081306335  0.4923816163049508
  0.7481634420810974  0.8749577752040335  0.0102556569950267
  0.7569951265698357  0.8763153413382783  0.5054982205958385
  0.2524255885721980  0.3758194938681530  0.7550212358266918
  0.2559854296407020  0.8755366380756067  0.2504690542588356
  0.2456389494673313  0.8735711121577504  0.7456802378794303
  0.7501466734789104  0.3741952852982117  0.2607949029280700
  0.7528010161425802  0.3737337981882732  0.7552841822741885
  0.7562855373068842  0.8751352899114646  0.2410560546550755
  0.7491252832496464  0.8752975086570309  0.7423117551736996
 
  0.00000000E+00  0.00000000E+00  0.00000000E+00
  0.00000000E+00  0.00000000E+00  0.00000000E+00
  0.00000000E+00  0.00000000E+00  0.00000000E+00
  0.00000000E+00  0.00000000E+00  0.00000000E+00
  0.00000000E+00  0.00000000E+00  0.00000000E+00
  0.00000000E+00  0.00000000E+00  0.00000000E+00
  0.00000000E+00  0.00000000E+00  0.00000000E+00
  0.00000000E+00  0.00000000E+00  0.00000000E+00
  0.00000000E+00  0.00000000E+00  0.00000000E+00
  0.00000000E+00  0.00000000E+00  0.00000000E+00
  0.00000000E+00  0.00000000E+00  0.00000000E+00
  0.00000000E+00  0.00000000E+00  0.00000000E+00
  0.00000000E+00  0.00000000E+00  0.00000000E+00
  0.00000000E+00  0.00000000E+00  0.00000000E+00
  0.00000000E+00  0.00000000E+00  0.00000000E+00
  0.00000000E+00  0.00000000E+00  0.00000000E+00
  0.00000000E+00  0.00000000E+00  0.00000000E+00
  0.00000000E+00  0.00000000E+00  0.00000000E+00
  0.00000000E+00  0.00000000E+00  0.00000000E+00
  0.00000000E+00  0.00000000E+00  0.00000000E+00
  0.00000000E+00  0.00000000E+00  0.00000000E+00
  0.00000000E+00  0.00000000E+00  0.00000000E+00
  0.00000000E+00  0.00000000E+00  0.00000000E+00
  0.00000000E+00  0.00000000E+00  0.00000000E+00
  0.00000000E+00  0.00000000E+00  0.00000000E+00
  0.00000000E+00  0.00000000E+00  0.00000000E+00
  0.00000000E+00  0.00000000E+00  0.00000000E+00
  0.00000000E+00  0.00000000E+00  0.00000000E+00
  0.00000000E+00  0.00000000E+00  0.00000000E+00
  0.00000000E+00  0.00000000E+00  0.00000000E+00
  0.00000000E+00  0.00000000E+00  0.00000000E+00
  0.00000000E+00  0.00000000E+00  0.00000000E+00
  0.00000000E+00  0.00000000E+00  0.00000000E+00
  0.00000000E+00  0.00000000E+00  0.00000000E+00
  0.00000000E+00  0.00000000E+00  0.00000000E+00
  0.00000000E+00  0.00000000E+00  0.00000000E+00
  0.00000000E+00  0.00000000E+00  0.00000000E+00
  0.00000000E+00  0.00000000E+00  0.00000000E+00
  0.00000000E+00  0.00000000E+00  0.00000000E+00
  0.00000000E+00  0.00000000E+00  0.00000000E+00
  0.00000000E+00  0.00000000E+00  0.00000000E+00
  0.00000000E+00  0.00000000E+00  0.00000000E+00
  0.00000000E+00  0.00000000E+00  0.00000000E+00
  0.00000000E+00  0.00000000E+00  0.00000000E+00
  0.00000000E+00  0.00000000E+00  0.00000000E+00
  0.00000000E+00  0.00000000E+00  0.00000000E+00
  0.00000000E+00  0.00000000E+00  0.00000000E+00
  0.00000000E+00  0.00000000E+00  0.00000000E+00
  0.00000000E+00  0.00000000E+00  0.00000000E+00
  0.00000000E+00  0.00000000E+00  0.00000000E+00
  0.00000000E+00  0.00000000E+00  0.00000000E+00
  0.00000000E+00  0.00000000E+00  0.00000000E+00
  0.00000000E+00  0.00000000E+00  0.00000000E+00
  0.00000000E+00  0.00000000E+00  0.00000000E+00
  0.00000000E+00  0.00000000E+00  0.00000000E+00
  0.00000000E+00  0.00000000E+00  0.00000000E+00
  0.00000000E+00  0.00000000E+00  0.00000000E+00
  0.00000000E+00  0.00000000E+00  0.00000000E+00
  0.00000000E+00  0.00000000E+00  0.00000000E+00
  0.00000000E+00  0.00000000E+00  0.00000000E+00
  0.00000000E+00  0.00000000E+00  0.00000000E+00
  0.00000000E+00  0.00000000E+00  0.00000000E+00
  0.00000000E+00  0.00000000E+00  0.00000000E+00
  0.00000000E+00  0.00000000E+00  0.00000000E+00
  0.00000000E+00  0.00000000E+00  0.00000000E+00
  0.00000000E+00  0.00000000E+00  0.00000000E+00
  0.00000000E+00  0.00000000E+00  0.00000000E+00
  0.00000000E+00  0.00000000E+00  0.00000000E+00
  0.00000000E+00  0.00000000E+00  0.00000000E+00
  0.00000000E+00  0.00000000E+00  0.00000000E+00
  0.00000000E+00  0.00000000E+00  0.00000000E+00
  0.00000000E+00  0.00000000E+00  0.00000000E+00
  0.00000000E+00  0.00000000E+00  0.00000000E+00
  0.00000000E+00  0.00000000E+00  0.00000000E+00
  0.00000000E+00  0.00000000E+00  0.00000000E+00
  0.00000000E+00  0.00000000E+00  0.00000000E+00
  0.00000000E+00  0.00000000E+00  0.00000000E+00
  0.00000000E+00  0.00000000E+00  0.00000000E+00
  0.00000000E+00  0.00000000E+00  0.00000000E+00
  0.00000000E+00  0.00000000E+00  0.00000000E+00
  0.00000000E+00  0.00000000E+00  0.00000000E+00
  0.00000000E+00  0.00000000E+00  0.00000000E+00
  0.00000000E+00  0.00000000E+00  0.00000000E+00
  0.00000000E+00  0.00000000E+00  0.00000000E+00
  0.00000000E+00  0.00000000E+00  0.00000000E+00
  0.00000000E+00  0.00000000E+00  0.00000000E+00
  0.00000000E+00  0.00000000E+00  0.00000000E+00
  0.00000000E+00  0.00000000E+00  0.00000000E+00
  0.00000000E+00  0.00000000E+00  0.00000000E+00
  0.00000000E+00  0.00000000E+00  0.00000000E+00
  0.00000000E+00  0.00000000E+00  0.00000000E+00
  0.00000000E+00  0.00000000E+00  0.00000000E+00
  0.00000000E+00  0.00000000E+00  0.00000000E+00
  0.00000000E+00  0.00000000E+00  0.00000000E+00
  0.00000000E+00  0.00000000E+00  0.00000000E+00
  0.00000000E+00  0.00000000E+00  0.00000000E+00
  0.00000000E+00  0.00000000E+00  0.00000000E+00
  0.00000000E+00  0.00000000E+00  0.00000000E+00
  0.00000000E+00  0.00000000E+00  0.00000000E+00
  0.00000000E+00  0.00000000E+00  0.00000000E+00
  0.00000000E+00  0.00000000E+00  0.00000000E+00
  0.00000000E+00  0.00000000E+00  0.00000000E+00
  0.00000000E+00  0.00000000E+00  0.00000000E+00
  0.00000000E+00  0.00000000E+00  0.00000000E+00
  0.00000000E+00  0.00000000E+00  0.00000000E+00
  0.00000000E+00  0.00000000E+00  0.00000000E+00
  0.00000000E+00  0.00000000E+00  0.00000000E+00
  0.00000000E+00  0.00000000E+00  0.00000000E+00
  0.00000000E+00  0.00000000E+00  0.00000000E+00
  0.00000000E+00  0.00000000E+00  0.00000000E+00
  0.00000000E+00  0.00000000E+00  0.00000000E+00
  0.00000000E+00  0.00000000E+00  0.00000000E+00
  0.00000000E+00  0.00000000E+00  0.00000000E+00
  0.00000000E+00  0.00000000E+00  0.00000000E+00
  0.00000000E+00  0.00000000E+00  0.00000000E+00
  0.00000000E+00  0.00000000E+00  0.00000000E+00
  0.00000000E+00  0.00000000E+00  0.00000000E+00
  0.00000000E+00  0.00000000E+00  0.00000000E+00
  0.00000000E+00  0.00000000E+00  0.00000000E+00
  0.00000000E+00  0.00000000E+00  0.00000000E+00
  0.00000000E+00  0.00000000E+00  0.00000000E+00
  0.00000000E+00  0.00000000E+00  0.00000000E+00
  0.00000000E+00  0.00000000E+00  0.00000000E+00
  0.00000000E+00  0.00000000E+00  0.00000000E+00
  0.00000000E+00  0.00000000E+00  0.00000000E+00
  0.00000000E+00  0.00000000E+00  0.00000000E+00
  0.00000000E+00  0.00000000E+00  0.00000000E+00
  0.00000000E+00  0.00000000E+00  0.00000000E+00
  0.00000000E+00  0.00000000E+00  0.00000000E+00
  0.00000000E+00  0.00000000E+00  0.00000000E+00
  0.00000000E+00  0.00000000E+00  0.00000000E+00
  0.00000000E+00  0.00000000E+00  0.00000000E+00
  0.00000000E+00  0.00000000E+00  0.00000000E+00
  0.00000000E+00  0.00000000E+00  0.00000000E+00
  0.00000000E+00  0.00000000E+00  0.00000000E+00
  0.00000000E+00  0.00000000E+00  0.00000000E+00
  0.00000000E+00  0.00000000E+00  0.00000000E+00
  0.00000000E+00  0.00000000E+00  0.00000000E+00
  0.00000000E+00  0.00000000E+00  0.00000000E+00
  0.00000000E+00  0.00000000E+00  0.00000000E+00
  0.00000000E+00  0.00000000E+00  0.00000000E+00
  0.00000000E+00  0.00000000E+00  0.00000000E+00
  0.00000000E+00  0.00000000E+00  0.00000000E+00
  0.00000000E+00  0.00000000E+00  0.00000000E+00
  0.00000000E+00  0.00000000E+00  0.00000000E+00
  0.00000000E+00  0.00000000E+00  0.00000000E+00
  0.00000000E+00  0.00000000E+00  0.00000000E+00
  0.00000000E+00  0.00000000E+00  0.00000000E+00
  0.00000000E+00  0.00000000E+00  0.00000000E+00
  0.00000000E+00  0.00000000E+00  0.00000000E+00
  0.00000000E+00  0.00000000E+00  0.00000000E+00
  0.00000000E+00  0.00000000E+00  0.00000000E+00
  0.00000000E+00  0.00000000E+00  0.00000000E+00
  0.00000000E+00  0.00000000E+00  0.00000000E+00
  0.00000000E+00  0.00000000E+00  0.00000000E+00
  0.00000000E+00  0.00000000E+00  0.00000000E+00
  0.00000000E+00  0.00000000E+00  0.00000000E+00
  0.00000000E+00  0.00000000E+00  0.00000000E+00
  0.00000000E+00  0.00000000E+00  0.00000000E+00
  0.00000000E+00  0.00000000E+00  0.00000000E+00
  0.00000000E+00  0.00000000E+00  0.00000000E+00
  0.00000000E+00  0.00000000E+00  0.00000000E+00
  0.00000000E+00  0.00000000E+00  0.00000000E+00
  0.00000000E+00  0.00000000E+00  0.00000000E+00
  0.00000000E+00  0.00000000E+00  0.00000000E+00
  0.00000000E+00  0.00000000E+00  0.00000000E+00
  0.00000000E+00  0.00000000E+00  0.00000000E+00
  0.00000000E+00  0.00000000E+00  0.00000000E+00
  0.00000000E+00  0.00000000E+00  0.00000000E+00
  0.00000000E+00  0.00000000E+00  0.00000000E+00
  0.00000000E+00  0.00000000E+00  0.00000000E+00
  0.00000000E+00  0.00000000E+00  0.00000000E+00
  0.00000000E+00  0.00000000E+00  0.00000000E+00
  0.00000000E+00  0.00000000E+00  0.00000000E+00
  0.00000000E+00  0.00000000E+00  0.00000000E+00
  0.00000000E+00  0.00000000E+00  0.00000000E+00
  0.00000000E+00  0.00000000E+00  0.00000000E+00
  0.00000000E+00  0.00000000E+00  0.00000000E+00
  0.00000000E+00  0.00000000E+00  0.00000000E+00
  0.00000000E+00  0.00000000E+00  0.00000000E+00
  0.00000000E+00  0.00000000E+00  0.00000000E+00
  0.00000000E+00  0.00000000E+00  0.00000000E+00
  0.00000000E+00  0.00000000E+00  0.00000000E+00
  0.00000000E+00  0.00000000E+00  0.00000000E+00
  0.00000000E+00  0.00000000E+00  0.00000000E+00
  0.00000000E+00  0.00000000E+00  0.00000000E+00
  0.00000000E+00  0.00000000E+00  0.00000000E+00
  0.00000000E+00  0.00000000E+00  0.00000000E+00
  0.00000000E+00  0.00000000E+00  0.00000000E+00
  0.00000000E+00  0.00000000E+00  0.00000000E+00
  0.00000000E+00  0.00000000E+00  0.00000000E+00
  0.00000000E+00  0.00000000E+00  0.00000000E+00
  0.00000000E+00  0.00000000E+00  0.00000000E+00
  0.00000000E+00  0.00000000E+00  0.00000000E+00
  0.00000000E+00  0.00000000E+00  0.00000000E+00
  0.00000000E+00  0.00000000E+00  0.00000000E+00
  0.00000000E+00  0.00000000E+00  0.00000000E+00
  0.00000000E+00  0.00000000E+00  0.00000000E+00
  0.00000000E+00  0.00000000E+00  0.00000000E+00
  0.00000000E+00  0.00000000E+00  0.00000000E+00
  0.00000000E+00  0.00000000E+00  0.00000000E+00
  0.00000000E+00  0.00000000E+00  0.00000000E+00
  0.00000000E+00  0.00000000E+00  0.00000000E+00
  0.00000000E+00  0.00000000E+00  0.00000000E+00
  0.00000000E+00  0.00000000E+00  0.00000000E+00
  0.00000000E+00  0.00000000E+00  0.00000000E+00
  0.00000000E+00  0.00000000E+00  0.00000000E+00
  0.00000000E+00  0.00000000E+00  0.00000000E+00
  0.00000000E+00  0.00000000E+00  0.00000000E+00
  0.00000000E+00  0.00000000E+00  0.00000000E+00
  0.00000000E+00  0.00000000E+00  0.00000000E+00
  0.00000000E+00  0.00000000E+00  0.00000000E+00
  0.00000000E+00  0.00000000E+00  0.00000000E+00
  0.00000000E+00  0.00000000E+00  0.00000000E+00
  0.00000000E+00  0.00000000E+00  0.00000000E+00
  0.00000000E+00  0.00000000E+00  0.00000000E+00
  0.00000000E+00  0.00000000E+00  0.00000000E+00
  0.00000000E+00  0.00000000E+00  0.00000000E+00
  0.00000000E+00  0.00000000E+00  0.00000000E+00
  0.00000000E+00  0.00000000E+00  0.00000000E+00
  0.00000000E+00  0.00000000E+00  0.00000000E+00
  0.00000000E+00  0.00000000E+00  0.00000000E+00
  0.00000000E+00  0.00000000E+00  0.00000000E+00
  0.00000000E+00  0.00000000E+00  0.00000000E+00
  0.00000000E+00  0.00000000E+00  0.00000000E+00
  0.00000000E+00  0.00000000E+00  0.00000000E+00
  0.00000000E+00  0.00000000E+00  0.00000000E+00
  0.00000000E+00  0.00000000E+00  0.00000000E+00
  0.00000000E+00  0.00000000E+00  0.00000000E+00
  0.00000000E+00  0.00000000E+00  0.00000000E+00
  0.00000000E+00  0.00000000E+00  0.00000000E+00
  0.00000000E+00  0.00000000E+00  0.00000000E+00
  0.00000000E+00  0.00000000E+00  0.00000000E+00
  0.00000000E+00  0.00000000E+00  0.00000000E+00
  0.00000000E+00  0.00000000E+00  0.00000000E+00
  0.00000000E+00  0.00000000E+00  0.00000000E+00
  0.00000000E+00  0.00000000E+00  0.00000000E+00
  0.00000000E+00  0.00000000E+00  0.00000000E+00
  0.00000000E+00  0.00000000E+00  0.00000000E+00
  0.00000000E+00  0.00000000E+00  0.00000000E+00
  0.00000000E+00  0.00000000E+00  0.00000000E+00
  0.00000000E+00  0.00000000E+00  0.00000000E+00
  0.00000000E+00  0.00000000E+00  0.00000000E+00
  0.00000000E+00  0.00000000E+00  0.00000000E+00
  0.00000000E+00  0.00000000E+00  0.00000000E+00
  0.00000000E+00  0.00000000E+00  0.00000000E+00
  0.00000000E+00  0.00000000E+00  0.00000000E+00
  0.00000000E+00  0.00000000E+00  0.00000000E+00
  0.00000000E+00  0.00000000E+00  0.00000000E+00
  0.00000000E+00  0.00000000E+00  0.00000000E+00
  0.00000000E+00  0.00000000E+00  0.00000000E+00
  0.00000000E+00  0.00000000E+00  0.00000000E+00
  0.00000000E+00  0.00000000E+00  0.00000000E+00
  0.00000000E+00  0.00000000E+00  0.00000000E+00
  0.00000000E+00  0.00000000E+00  0.00000000E+00
  0.00000000E+00  0.00000000E+00  0.00000000E+00
