TiOF2 2x2x2 config 0277                 
   1.00000000000000     
     7.8661582931728242    0.0000091588506620    0.0000018636986270
     0.0000089284279525    7.6621336025174482   -0.0024907777444727
     0.0000018162781041   -0.0025490846590494    7.6641180145169576
   Ti   O    F 
     8     8    16
Direct
  0.0000000477070790  0.9886612490140291  0.9871793753871690
  0.0000000106474580  0.9880561067856234  0.5127035563988335
  0.9999999522658358  0.5113386405820786  0.0128206493042204
  0.9999999893604737  0.5119439094898406  0.4872964745545346
  0.5000000358309448  0.9878528529854126  0.0128119818763298
  0.4999999690514683  0.0126913806627063  0.4873255773291366
  0.4999999640718482  0.5121471576675340  0.9871879886908662
  0.5000000309712793  0.4873087270724029  0.5126743929839302
  1.0000000000004514  0.7499999477235770  0.9999999937539409
  0.9999999999783524  0.7500000016935215  0.5000000317125477
  0.5000000000493884  0.2500000394081422  0.4999999487142014
  0.5000000000088993  0.7499999902444257  0.9999999361244341
  0.0000000267922203  0.0049814010995159  0.7499975156307165
  0.9999999732235432  0.4950185756775208  0.2500025145557718
  0.4999999686220977  0.9996182214402400  0.2500271003102425
  0.5000000313800486  0.5003817755781053  0.7499728948877545
  0.2500098363485588  0.0068105999137796  0.9999772860893436
  0.2500166257539009  0.9995255987097275  0.5000036209937543
  0.2500098655606294  0.4931892651792280  0.0000227379430915
  0.2500166449144237  0.5004744735063654  0.4999963510750330
  0.7499901467391140  0.0068106024885077  0.9999772710202016
  0.7499833592487960  0.9995256207720778  0.5000036329971562
  0.7499901513243162  0.4931892677652510  0.0000227228862699
  0.7499833700911354  0.5004744955190723  0.4999963630931085
  0.0000000000095797  0.2499999510285348  0.0000000350702473
  0.0000000000242883  0.2500000054829410  0.5000000098816483
  0.4999999999992923  0.2500000098990709  1.0000000096941566
  0.5000000000270864  0.7500000527741233  0.5000000305122576
  0.9999999788562979  0.0095451777146240  0.2500713488242768
  0.0000000211426359  0.4904547313391088  0.7499286709942439
  0.4999999646138704  0.9995793607436873  0.7499276898827565
  0.5000000353846785  0.5004208100392461  0.2500722868277822
 
  0.00000000E+00  0.00000000E+00  0.00000000E+00
  0.00000000E+00  0.00000000E+00  0.00000000E+00
  0.00000000E+00  0.00000000E+00  0.00000000E+00
  0.00000000E+00  0.00000000E+00  0.00000000E+00
  0.00000000E+00  0.00000000E+00  0.00000000E+00
  0.00000000E+00  0.00000000E+00  0.00000000E+00
  0.00000000E+00  0.00000000E+00  0.00000000E+00
  0.00000000E+00  0.00000000E+00  0.00000000E+00
  0.00000000E+00  0.00000000E+00  0.00000000E+00
  0.00000000E+00  0.00000000E+00  0.00000000E+00
  0.00000000E+00  0.00000000E+00  0.00000000E+00
  0.00000000E+00  0.00000000E+00  0.00000000E+00
  0.00000000E+00  0.00000000E+00  0.00000000E+00
  0.00000000E+00  0.00000000E+00  0.00000000E+00
  0.00000000E+00  0.00000000E+00  0.00000000E+00
  0.00000000E+00  0.00000000E+00  0.00000000E+00
  0.00000000E+00  0.00000000E+00  0.00000000E+00
  0.00000000E+00  0.00000000E+00  0.00000000E+00
  0.00000000E+00  0.00000000E+00  0.00000000E+00
  0.00000000E+00  0.00000000E+00  0.00000000E+00
  0.00000000E+00  0.00000000E+00  0.00000000E+00
  0.00000000E+00  0.00000000E+00  0.00000000E+00
  0.00000000E+00  0.00000000E+00  0.00000000E+00
  0.00000000E+00  0.00000000E+00  0.00000000E+00
  0.00000000E+00  0.00000000E+00  0.00000000E+00
  0.00000000E+00  0.00000000E+00  0.00000000E+00
  0.00000000E+00  0.00000000E+00  0.00000000E+00
  0.00000000E+00  0.00000000E+00  0.00000000E+00
  0.00000000E+00  0.00000000E+00  0.00000000E+00
  0.00000000E+00  0.00000000E+00  0.00000000E+00
  0.00000000E+00  0.00000000E+00  0.00000000E+00
  0.00000000E+00  0.00000000E+00  0.00000000E+00
