TiOF2 2x2x2 config 0007                 
   1.00000000000000     
     7.9079324780696760    0.0000001449804536   -0.0000000064376305
     0.0000000754203652    7.7974854936796394    0.0000000031829672
    -0.0000000081870676    0.0000000039302698    7.5160848901466251
   Ti   O    F 
     8     8    16
Direct
  0.0000000010014226  0.0004023179929830  0.9891045943595942
  0.0000000152135787  0.0004023193040523  0.5108953914733749
  0.9999999876534611  0.5000696006137867  0.0003674523724991
  0.9999999905619801  0.5000695992463796  0.4996324166445136
  0.4999999993611769  0.9826701338640929  0.0108708726147889
  0.5000000107510150  0.9826701303343177  0.4891291167365011
  0.4999999878954265  0.5065375332589519  0.9996244065142886
  0.4999999862050874  0.5065375299068763  0.5003755845843768
  0.4999999747750035  0.7553071637277806  0.9960565887122583
  0.4999999744919613  0.7553071615074701  0.5039434528398162
  0.9999999920058718  0.9999015415945669  0.7499999930126259
  0.9999999832016020  0.5006088635972412  0.2500000259085749
  0.9999999850481688  0.5005678265032070  0.7500000285009900
  0.5000000059353190  0.0105670305551606  0.2499999954757747
  0.4999999871229820  0.4963343160108060  0.2500000200012223
  0.4999999859385488  0.4973556362790977  0.7500000220928251
  0.2415497110780801  0.0012065758954315  0.0015885965480686
  0.2415497236070555  0.0012065670541987  0.4984114052720039
  0.2444873565143655  0.4984791897824251  0.9999507277382415
  0.2444873563183387  0.4984791871622234  0.5000493171316522
  0.7584502931696392  0.0012065243632847  0.0015885768585780
  0.7584503065312252  0.0012065335688681  0.4984113205063760
  0.7555126206375112  0.4984792274197705  0.9999507517382178
  0.7555126239028981  0.4984792116752562  0.5000493440271465
  0.9999999792642391  0.2444129845798182  0.0052568700190548
  0.0000000246846263  0.2444129828421047  0.4947431044397470
  0.0000000154181092  0.7560560065291240  0.0051981080074759
  0.0000000366215400  0.7560560054044144  0.4948019455848546
  0.5000000276666416  0.2452923005565257  0.9947048915906438
  0.4999999982105595  0.2452923001811702  0.5052950919787882
  0.0000000229636105  0.9997334009738866  0.2499999930767582
  0.5000000362489758  0.0146922977147349  0.7499999936383328
 
  0.00000000E+00  0.00000000E+00  0.00000000E+00
  0.00000000E+00  0.00000000E+00  0.00000000E+00
  0.00000000E+00  0.00000000E+00  0.00000000E+00
  0.00000000E+00  0.00000000E+00  0.00000000E+00
  0.00000000E+00  0.00000000E+00  0.00000000E+00
  0.00000000E+00  0.00000000E+00  0.00000000E+00
  0.00000000E+00  0.00000000E+00  0.00000000E+00
  0.00000000E+00  0.00000000E+00  0.00000000E+00
  0.00000000E+00  0.00000000E+00  0.00000000E+00
  0.00000000E+00  0.00000000E+00  0.00000000E+00
  0.00000000E+00  0.00000000E+00  0.00000000E+00
  0.00000000E+00  0.00000000E+00  0.00000000E+00
  0.00000000E+00  0.00000000E+00  0.00000000E+00
  0.00000000E+00  0.00000000E+00  0.00000000E+00
  0.00000000E+00  0.00000000E+00  0.00000000E+00
  0.00000000E+00  0.00000000E+00  0.00000000E+00
  0.00000000E+00  0.00000000E+00  0.00000000E+00
  0.00000000E+00  0.00000000E+00  0.00000000E+00
  0.00000000E+00  0.00000000E+00  0.00000000E+00
  0.00000000E+00  0.00000000E+00  0.00000000E+00
  0.00000000E+00  0.00000000E+00  0.00000000E+00
  0.00000000E+00  0.00000000E+00  0.00000000E+00
  0.00000000E+00  0.00000000E+00  0.00000000E+00
  0.00000000E+00  0.00000000E+00  0.00000000E+00
  0.00000000E+00  0.00000000E+00  0.00000000E+00
  0.00000000E+00  0.00000000E+00  0.00000000E+00
  0.00000000E+00  0.00000000E+00  0.00000000E+00
  0.00000000E+00  0.00000000E+00  0.00000000E+00
  0.00000000E+00  0.00000000E+00  0.00000000E+00
  0.00000000E+00  0.00000000E+00  0.00000000E+00
  0.00000000E+00  0.00000000E+00  0.00000000E+00
  0.00000000E+00  0.00000000E+00  0.00000000E+00
