config 37                               
   1.00000000000000     
    15.4263309999999993    0.0000000000000000    0.0000000000000000
     0.0000000000000000   15.4263309999999993    0.0000000000000000
     0.0000000000000000    0.0000000000000000   15.4263309999999993
   Li   Ti   O    F 
     1    64    64   128
Direct
  0.6309054597256163  0.3881326936612329  0.1052838498651042
  0.9950667994004682  0.9953545937610210  0.9946357145669069
  0.9985876030443228  0.9922590465420672  0.4936695887190550
  0.0077719624753482  0.4955512167309202  0.9970176874643445
  0.9944398088359115  0.5034832778111274  0.5070231086450764
  0.4942681476064033  0.9928186499015806  0.0009962201312194
  0.5011995287182012  0.0082655565596993  0.4984192282256754
  0.5044424119333634  0.4932186216814889  0.9954721454991704
  0.4921975830211289  0.4981269296532687  0.4956367547472227
  0.0059248963474720  0.0032166123564646  0.2560709799647435
  0.0013306918739592  0.0081261872261475  0.7568185285264850
  0.9949716767459372  0.4936376006559392  0.2504535503010655
  0.9930009186017306  0.4999835632213001  0.7415648216549833
  0.5046644567661362  0.0086842421125766  0.2514081299419033
  0.4930161373904587  0.0056011287191142  0.7533892318852508
  0.4922924425195110  0.4953554826440134  0.2582352426005374
  0.5013355641407969  0.5031115255899816  0.7586524797520644
  0.9925520510027187  0.2577271977309482  0.0029925412052547
  0.9975382798562885  0.2486831040640776  0.4908224711839378
  0.9986524089721529  0.7578616830594459  0.0062399830966134
  0.9970546330897658  0.7569245584503173  0.5059737532151718
  0.4937901698838575  0.2567301045201632  0.0027048443474922
  0.5091624143012292  0.2453157177591602  0.4973430153349389
  0.5079669951686488  0.7556197388435992  0.0006995023471507
  0.5071215000533116  0.7520690414008177  0.5092546060301554
  0.0001167026240831  0.2584302546845501  0.2546698110079380
  0.0060888057978988  0.2431744141933027  0.7482919184451975
  0.0064169370861091  0.7481978016959727  0.2433067452426184
  0.9928611474257182  0.7508475002448664  0.7432088088474874
  0.5084883063302090  0.2401161582077476  0.2535723882584220
  0.5071640530902797  0.2436659145054357  0.7521666301912159
  0.5062967822020227  0.7510445049896783  0.2520418161260451
  0.5020886332537444  0.7409911723383297  0.7444927816534864
  0.2563208599135348  0.9976782798704285  0.0058964367692068
  0.2504539564358668  0.9935011450671530  0.5064124277907791
  0.2449999259044895  0.5078590409457900  0.9973749661860625
  0.2545249739890305  0.4939037747612479  0.5067116677660917
  0.7563793301944864  0.0027163152377899  0.9946436255535330
  0.7494051107109351  0.0086176105891500  0.4946426944948502
  0.7447599716078331  0.5012972308937133  0.0036565697126129
  0.7556749431744382  0.4977477311887299  0.5047726179796607
  0.2443665303842348  0.0019785514538854  0.2436705839135725
  0.2579786788597858  0.9978823860779544  0.7444531813527218
  0.2549630537884254  0.4912795196235404  0.2517159884944874
  0.2469627470906556  0.5057119942183422  0.7411123556704580
  0.7435925639593240  0.0023699376701533  0.2549349261893635
  0.7477305789023657  0.0088493733322795  0.7558018687747090
  0.7569476440962962  0.4978135090592541  0.2420660525080660
  0.7575844990295222  0.4981597178250230  0.7413320221185664
  0.2548574150465555  0.2518394516912743  0.0068011957082212
  0.2529469089295233  0.2563256321450447  0.5058022251181136
  0.2528362679661973  0.7417840243647571  0.9941040025501026
  0.2520502117242243  0.7548322578640974  0.4930563071176941
  0.7537710649370357  0.2540051839389002  0.0113214479873736
  0.7422988930827343  0.2428194658762420  0.4982002808780446
  0.7419980648281668  0.7493059054568487  0.9942760395322343
  0.7414578687154296  0.7520162346900036  0.4937313865814179
  0.2511338012355426  0.2573569250171135  0.2439814390612491
  0.2431360691301047  0.2515745278037925  0.7445320056165105
  0.2436492718427897  0.7470822730236850  0.2560175283781068
  0.2479258215923883  0.7415362588221890  0.7568525618348506
  0.7438212507026007  0.2521921523940778  0.2449159364874378
  0.7445412596912674  0.2427432343078911  0.7520746544036339
  0.7452043965663591  0.7489750379426700  0.2568890737685238
  0.7573438628859646  0.7499383615147557  0.7572573592312122
  0.0101899910465215  0.5035622439737549  0.6243206397428687
  0.9954227545374675  0.0062958629482146  0.3762619784940996
  0.0009155517200124  0.0022520259209887  0.8729740417740193
  0.4982394122225271  0.4841319376346048  0.3755956525266408
  0.4939779511574820  0.4857200479778202  0.8753883279018023
  0.9986741819401546  0.7449992217957451  0.1257624559279924
  0.0020075621676655  0.7451470240569746  0.6241787331854208
  0.5031268703661875  0.7417173984895231  0.6251706081714767
  0.9858279796250879  0.2481241474899458  0.3758942771248523
  0.2556669591805251  0.0024699329252057  0.1252008601720702
  0.2565671726771375  0.0036628313867714  0.6252212956435490
  0.2377635651662008  0.4937228491410325  0.6258040047788834
  0.7429982556137830  0.4760116413739884  0.1241317463093222
  0.7457403405256079  0.4858330966571269  0.6235956146206610
  0.7493512986348506  0.0111220040162556  0.3761692594424427
  0.7444798621623869  0.0119321482034039  0.8739624979677708
  0.2387829443641482  0.2498558969534375  0.1257066769701990
  0.2438886608847723  0.2503303307819748  0.6251617096756155
  0.7222120542539026  0.2825486192441535  0.1193293711673390
  0.2549935545048023  0.7446823136952345  0.3749173450825640
  0.2519129228937718  0.7513407979289322  0.8755792297637401
  0.7511826690869605  0.7388863723093315  0.3742882893513799
  0.7483410079042179  0.7393980220317632  0.8758808187627922
  0.1262250207704703  0.5091902415340813  0.9913253179137339
  0.6270791653703387  0.5052229011736037  0.9995968563137856
  0.1248136414384057  0.0049376340352862  0.2512479307295380
  0.6236982900097395  0.0038227050789603  0.2493501435082113
  0.6242243644547115  0.2596229355986143  0.4845378602493707
  0.6247815009631268  0.7377142508445872  0.0043722727051211
  0.6242284826139753  0.7653198525441749  0.4956302372630801
  0.1243147129946224  0.2521814461135406  0.7576024018973290
  0.1251340928006818  0.7484564178391093  0.2523687477467338
  0.6220060018910625  0.2420995233718814  0.2687563127469326
  0.6255182835200306  0.2543362985707791  0.7578198999677770
  0.6223883110029949  0.7508975071107410  0.2508715825418056
  0.3760718044134381  0.9944896270552013  0.9912206440230610
  0.3759508850918882  0.5065461688439716  0.5055942617490037
  0.8725139029648739 -0.0004020181630192 -0.0009046583637845
  0.8753737366779055  0.5051345599924859  0.5009761250955641
  0.3762330261543420  0.9971545176280349  0.7593295967887564
  0.3740026359575709  0.4918519773132191  0.2469642639601395
  0.8760551619540596  0.4964922105673402  0.2463188694644851
  0.8754416905795313  0.5101743072429137  0.7437729931128813
  0.3757669631116957  0.2555067477093339  0.0111413334513315
  0.8741313939434614  0.2540178128147321  0.0172811121166511
  0.8748170554089708  0.7429590232111565  0.7491169783880659
  0.5123624247573977  0.1221276403256304  0.4856737434170911
  0.9963830821133438  0.1266385151457446  0.7443059900132700
  0.4893172508777735  0.1232521324585591  0.2709850903051950
  0.5019197990328368  0.1243128445223641  0.7594357486997340
  0.5027068917832900  0.6240555726699060  0.7596459119537833
  0.0048886118884082  0.3764844690026641  0.0046701766071117
  0.0053017203445987  0.8748862509956434  0.0019805450147341
  0.9925123809029983  0.8751469658605594  0.4989081931852444
  0.5171654970089714  0.3725030840315762  0.0235968602295585
  0.5083446876481920  0.8743308414217534  0.0130105058833754
  0.0105270698133995  0.3743800676138105  0.2470000996997201
  0.2630103396303130  0.6244920767942950  0.0034092344819794
  0.7376869781741123  0.1257329680056717  0.5136256837978015
  0.2463642151782357  0.6242575769043093  0.7493119630080142
  0.7497727997478236  0.1258459228660830  0.7348021340104900
  0.2544692858677711  0.3729634882691928  0.4929318691197608
  0.2551971522342492  0.8753771820097497  0.4995290081737951
  0.2383947945838658  0.3741191642174804  0.2578650045970879
  0.9990758064066515  0.0026126278786015  0.1267430288809278
  0.0032811239199009  0.9980109229819072  0.6237422552412796
  0.0048187602949243  0.5106306114856396  0.1247632176778512
  0.4910676687581613  0.0165049020006460  0.1265093085181821
  0.4950186010428173  0.0076567860279868  0.6231098276380654
  0.5056431840153507  0.5127612185396713  0.1278838139330118
  0.5103510515947272  0.5079722397594640  0.6246951614465147
  0.0002245830552524  0.4948271289230342  0.3753255400543500
  0.9923335541832993  0.4969969526537100  0.8727308022855692
  0.5040284534341573  0.9785873943630636  0.3770049373742542
  0.5168285665046559  0.9887359367220901  0.8758203794494028
  0.0187044568130941  0.2458262869327434  0.1276602944100269
  0.0087507283898742  0.2582057985219743  0.6213129595184995
  0.5154256550141747  0.2282881926241457  0.1266848394241742
  0.5096114914825942  0.2366757399953855  0.6228535366970314
  0.4953722512691577  0.7346338702214944  0.1272765754824609
  0.9859226314067642  0.2513979244525607  0.8748332087987243
  0.9929982630333547  0.7514677329997256  0.3751967651779468
  0.0018255840383284  0.7519940716840616  0.8738771743461683
  0.4819247280205580  0.2693565962592723  0.3761165769662351
  0.4892530404502233  0.2662787488804803  0.8753749036135715
  0.4922786220628469  0.7630533362665056  0.3756687507806472
  0.4994159650202293  0.7598195564688109  0.8750614601209697
  0.2428406622019366  0.4922675063604915  0.1245297503316399
  0.7488404892952835  0.9853887819443822  0.1258883615959158
  0.7477128512540573  0.9866288388715542  0.6231596472172509
  0.2507752227781115  0.0015765664711284  0.3755576016763220
  0.2413056937082411  0.9939211130225613  0.8744754318345147
  0.2503730739657272  0.5126274146850675  0.3750423937059817
  0.2638576063587116  0.4987894731716110  0.8736961310556474
  0.7484382305712949  0.5179927770878522  0.3733951646633961
  0.7545890157477437  0.5174179681315114  0.8742896250059662
  0.2518746019028631  0.7546892235916467  0.1251677631359087
  0.2489326814079036  0.7511503708041778  0.6252250334321815
  0.7414229782030910  0.2690012228730591  0.6232946068762334
  0.7523080379013771  0.7618656174243474  0.1257941194561936
  0.7471718880812206  0.7585207042225397  0.6245440173696472
  0.2624425491249612  0.2430281656175522  0.3742780072995413
  0.2599415657108869  0.2509124531436072  0.8754212821752478
  0.7698952147313791  0.2323132134115736  0.3773131345384609
  0.7620628954905267  0.2350114156674476  0.8755748574819753
  0.1260818333645954  0.0059954637598532  0.0033312366263318
  0.1245691810066580  0.0009728109710610  0.4993271244773516
  0.1236816120062561  0.4974951002889209  0.4896743795110724
  0.6240019830886772  0.0076619465411045  0.0095671113620471
  0.6234891198770789  0.9809669062810612  0.5034758248851514
  0.6258141515611084  0.4902193889066724  0.4956709780539875
  0.1269145884729505  0.0004671949516281  0.7456705687587828
  0.1244262303488893  0.5108112910808033  0.2512713557511941
  0.1236747156808515  0.4919048159332439  0.7650446189151620
  0.6233608626007860  0.9949512487644980  0.7394222464857737
  0.6247152836718337  0.4987520126400434  0.2486874159426525
  0.6269378160337994  0.4915139123581185  0.7574341150414911
  0.1252146120601646  0.2468433109111663  0.9875358825248921
  0.1233266154454547  0.2488617597522239  0.4880795720445637
  0.1256078715650996  0.7389602305168307  0.0011164502479926
  0.1240421320685445  0.7534586269652375  0.4951069480995915
  0.6248630005653455  0.2437582648941301  0.9813249943229690
  0.1248585744910517  0.2346989609860173  0.2658024688647436
  0.1235828334649545  0.7555472769197145  0.7513102209537920
  0.6261681220666128  0.7553937499840254  0.7513620937759290
  0.3774138697308402  0.0104167720376608  0.4927093466652059
  0.3754727958969035  0.4869136878337398  0.0101004197666708
  0.8740591897769880  0.0114485075654865  0.5089886613484167
  0.8749586677375825  0.4956484779514654  0.0030790136842004
  0.3761009512644191  0.9908414654912878  0.2574858258815172
  0.3753881714495272  0.4998959029237710  0.7386469848876311
  0.8735518507689790  0.9966854560114021  0.2475588233653290
  0.8738624595913129  0.9949630712433979  0.7444423419655375
  0.3792520916435413  0.2390513919767617  0.5083452742133876
  0.3772215506931805  0.7607106873211363  0.0020964907873753
  0.3774115374909655  0.7397553602663262  0.5029303936317223
  0.8741071062435122  0.2479573651526780  0.5142022621415546
  0.8722186583557964  0.7582826642209365  0.9983730997263015
  0.8720376649866793  0.7393538561978132  0.5042871179043568
  0.3773623756476208  0.2611479123874962  0.2373616298608000
  0.3764604743266153  0.2486624129642684  0.7430797990598973
  0.3766904200345770  0.7498431785901577  0.2473596829438913
  0.3754444162173447  0.7529813234711008  0.7488060813885324
  0.8756052418886470  0.2598955427085355  0.2323103064801899
  0.8740245876512025  0.2547050207972422  0.7381872283501901
  0.8731001162264395  0.7479091079019287  0.2488856859001334
  0.0000272460888098  0.1274416507892693  0.0014303302666195
  1.0008675661322948  0.1262967642236675  0.5088323800267105
  0.9899924666623403  0.6255513214946671  0.9929792611169745
  0.0055792738690295  0.6267312611570268  0.4906773093757422
  0.4981562878458984  0.1250921033106053  0.9881626839555927
  0.4884179557771040  0.6246056381659019  0.9918397852063618
  0.5111998294576618  0.6259735471367802  0.4874435497444811
  0.9893391213360145  0.1280924756211990  0.2459979282110459
  0.9964759379710408  0.6233131364489166  0.2590582977375627
  0.0126321152853877  0.6248808215718783  0.7567376787893253
  0.4984815220740020  0.6248746091604780  0.2650597321151503
 -0.0010363662864111  0.3744022178077613  0.4987406349832749
  0.4914677494633510  0.3711889617235083  0.5161878594753722
  0.4846952001513600  0.8776547984194860  0.5101781244553110
  0.9944211414391085  0.3752911819913232  0.7497004109289814
  0.9972816244427455  0.8757937300376769  0.2510219035991841
  0.9987524531483732  0.8758942543661695  0.7468596264486588
  0.5104498750965679  0.3715910965545610  0.2290816930537315
  0.4962301167149668  0.3735112739989067  0.7350569697261065
  0.4985640426677652  0.8749147112503175  0.2360024053419317
  0.5012178812541510  0.8748436536319416  0.7442002962899820
  0.2523792266533370  0.1248839350759733  0.9935431859189078
  0.2464320762254207  0.1244579756501995  0.4969568167306395
  0.2430580266468944  0.6260327219538984  0.5066037127153322
  0.7479610889275831  0.1270964131154127  0.0210046840804927
  0.7631094503057658  0.6256697479939979  0.0181863125665844
  0.7387555054783120  0.6254913222361972  0.5121591120804542
  0.2626215029980007  0.1260892470353254  0.2521233874608781
  0.2509583330642234  0.1245369484711950  0.7578616770283924
  0.2543761475616080  0.6229506967314273  0.2393065999406150
  0.7587271419058895  0.1227963024918350  0.2282815766048220
  0.7479017333438945  0.6245623917895284  0.2315437454746198
  0.7377091753800495  0.6249426815780358  0.7364781594028598
  0.2433766142547099  0.3760680750459442  0.9962743169787948
  0.2408345400968216  0.8732047928305768  0.0032327281077422
  0.7450768629504567  0.3769169226808959  0.9737900686808271
  0.7584258790033213  0.3731794732505232  0.4811525603828282
  0.7396407891084427  0.8756197021738810  0.9913903437796128
  0.7645191659044468  0.8763020472866049  0.4913610995379715
  0.2554204947108423  0.3758413786823878  0.7569596189197341
  0.2506011818752591  0.8748302899083662  0.2520730513251862
  0.2478163178028549  0.8733288424332886  0.7458910490719588
  0.7465954593996900  0.3788397864398752  0.2761322839636731
  0.7570520785033888  0.3751663862991788  0.7663952846209008
  0.7512990746263801  0.8748207266713798  0.2600973679232861
  0.7513683924571712  0.8753241234800104  0.7576054838908854
 
  0.00000000E+00  0.00000000E+00  0.00000000E+00
  0.00000000E+00  0.00000000E+00  0.00000000E+00
  0.00000000E+00  0.00000000E+00  0.00000000E+00
  0.00000000E+00  0.00000000E+00  0.00000000E+00
  0.00000000E+00  0.00000000E+00  0.00000000E+00
  0.00000000E+00  0.00000000E+00  0.00000000E+00
  0.00000000E+00  0.00000000E+00  0.00000000E+00
  0.00000000E+00  0.00000000E+00  0.00000000E+00
  0.00000000E+00  0.00000000E+00  0.00000000E+00
  0.00000000E+00  0.00000000E+00  0.00000000E+00
  0.00000000E+00  0.00000000E+00  0.00000000E+00
  0.00000000E+00  0.00000000E+00  0.00000000E+00
  0.00000000E+00  0.00000000E+00  0.00000000E+00
  0.00000000E+00  0.00000000E+00  0.00000000E+00
  0.00000000E+00  0.00000000E+00  0.00000000E+00
  0.00000000E+00  0.00000000E+00  0.00000000E+00
  0.00000000E+00  0.00000000E+00  0.00000000E+00
  0.00000000E+00  0.00000000E+00  0.00000000E+00
  0.00000000E+00  0.00000000E+00  0.00000000E+00
  0.00000000E+00  0.00000000E+00  0.00000000E+00
  0.00000000E+00  0.00000000E+00  0.00000000E+00
  0.00000000E+00  0.00000000E+00  0.00000000E+00
  0.00000000E+00  0.00000000E+00  0.00000000E+00
  0.00000000E+00  0.00000000E+00  0.00000000E+00
  0.00000000E+00  0.00000000E+00  0.00000000E+00
  0.00000000E+00  0.00000000E+00  0.00000000E+00
  0.00000000E+00  0.00000000E+00  0.00000000E+00
  0.00000000E+00  0.00000000E+00  0.00000000E+00
  0.00000000E+00  0.00000000E+00  0.00000000E+00
  0.00000000E+00  0.00000000E+00  0.00000000E+00
  0.00000000E+00  0.00000000E+00  0.00000000E+00
  0.00000000E+00  0.00000000E+00  0.00000000E+00
  0.00000000E+00  0.00000000E+00  0.00000000E+00
  0.00000000E+00  0.00000000E+00  0.00000000E+00
  0.00000000E+00  0.00000000E+00  0.00000000E+00
  0.00000000E+00  0.00000000E+00  0.00000000E+00
  0.00000000E+00  0.00000000E+00  0.00000000E+00
  0.00000000E+00  0.00000000E+00  0.00000000E+00
  0.00000000E+00  0.00000000E+00  0.00000000E+00
  0.00000000E+00  0.00000000E+00  0.00000000E+00
  0.00000000E+00  0.00000000E+00  0.00000000E+00
  0.00000000E+00  0.00000000E+00  0.00000000E+00
  0.00000000E+00  0.00000000E+00  0.00000000E+00
  0.00000000E+00  0.00000000E+00  0.00000000E+00
  0.00000000E+00  0.00000000E+00  0.00000000E+00
  0.00000000E+00  0.00000000E+00  0.00000000E+00
  0.00000000E+00  0.00000000E+00  0.00000000E+00
  0.00000000E+00  0.00000000E+00  0.00000000E+00
  0.00000000E+00  0.00000000E+00  0.00000000E+00
  0.00000000E+00  0.00000000E+00  0.00000000E+00
  0.00000000E+00  0.00000000E+00  0.00000000E+00
  0.00000000E+00  0.00000000E+00  0.00000000E+00
  0.00000000E+00  0.00000000E+00  0.00000000E+00
  0.00000000E+00  0.00000000E+00  0.00000000E+00
  0.00000000E+00  0.00000000E+00  0.00000000E+00
  0.00000000E+00  0.00000000E+00  0.00000000E+00
  0.00000000E+00  0.00000000E+00  0.00000000E+00
  0.00000000E+00  0.00000000E+00  0.00000000E+00
  0.00000000E+00  0.00000000E+00  0.00000000E+00
  0.00000000E+00  0.00000000E+00  0.00000000E+00
  0.00000000E+00  0.00000000E+00  0.00000000E+00
  0.00000000E+00  0.00000000E+00  0.00000000E+00
  0.00000000E+00  0.00000000E+00  0.00000000E+00
  0.00000000E+00  0.00000000E+00  0.00000000E+00
  0.00000000E+00  0.00000000E+00  0.00000000E+00
  0.00000000E+00  0.00000000E+00  0.00000000E+00
  0.00000000E+00  0.00000000E+00  0.00000000E+00
  0.00000000E+00  0.00000000E+00  0.00000000E+00
  0.00000000E+00  0.00000000E+00  0.00000000E+00
  0.00000000E+00  0.00000000E+00  0.00000000E+00
  0.00000000E+00  0.00000000E+00  0.00000000E+00
  0.00000000E+00  0.00000000E+00  0.00000000E+00
  0.00000000E+00  0.00000000E+00  0.00000000E+00
  0.00000000E+00  0.00000000E+00  0.00000000E+00
  0.00000000E+00  0.00000000E+00  0.00000000E+00
  0.00000000E+00  0.00000000E+00  0.00000000E+00
  0.00000000E+00  0.00000000E+00  0.00000000E+00
  0.00000000E+00  0.00000000E+00  0.00000000E+00
  0.00000000E+00  0.00000000E+00  0.00000000E+00
  0.00000000E+00  0.00000000E+00  0.00000000E+00
  0.00000000E+00  0.00000000E+00  0.00000000E+00
  0.00000000E+00  0.00000000E+00  0.00000000E+00
  0.00000000E+00  0.00000000E+00  0.00000000E+00
  0.00000000E+00  0.00000000E+00  0.00000000E+00
  0.00000000E+00  0.00000000E+00  0.00000000E+00
  0.00000000E+00  0.00000000E+00  0.00000000E+00
  0.00000000E+00  0.00000000E+00  0.00000000E+00
  0.00000000E+00  0.00000000E+00  0.00000000E+00
  0.00000000E+00  0.00000000E+00  0.00000000E+00
  0.00000000E+00  0.00000000E+00  0.00000000E+00
  0.00000000E+00  0.00000000E+00  0.00000000E+00
  0.00000000E+00  0.00000000E+00  0.00000000E+00
  0.00000000E+00  0.00000000E+00  0.00000000E+00
  0.00000000E+00  0.00000000E+00  0.00000000E+00
  0.00000000E+00  0.00000000E+00  0.00000000E+00
  0.00000000E+00  0.00000000E+00  0.00000000E+00
  0.00000000E+00  0.00000000E+00  0.00000000E+00
  0.00000000E+00  0.00000000E+00  0.00000000E+00
  0.00000000E+00  0.00000000E+00  0.00000000E+00
  0.00000000E+00  0.00000000E+00  0.00000000E+00
  0.00000000E+00  0.00000000E+00  0.00000000E+00
  0.00000000E+00  0.00000000E+00  0.00000000E+00
  0.00000000E+00  0.00000000E+00  0.00000000E+00
  0.00000000E+00  0.00000000E+00  0.00000000E+00
  0.00000000E+00  0.00000000E+00  0.00000000E+00
  0.00000000E+00  0.00000000E+00  0.00000000E+00
  0.00000000E+00  0.00000000E+00  0.00000000E+00
  0.00000000E+00  0.00000000E+00  0.00000000E+00
  0.00000000E+00  0.00000000E+00  0.00000000E+00
  0.00000000E+00  0.00000000E+00  0.00000000E+00
  0.00000000E+00  0.00000000E+00  0.00000000E+00
  0.00000000E+00  0.00000000E+00  0.00000000E+00
  0.00000000E+00  0.00000000E+00  0.00000000E+00
  0.00000000E+00  0.00000000E+00  0.00000000E+00
  0.00000000E+00  0.00000000E+00  0.00000000E+00
  0.00000000E+00  0.00000000E+00  0.00000000E+00
  0.00000000E+00  0.00000000E+00  0.00000000E+00
  0.00000000E+00  0.00000000E+00  0.00000000E+00
  0.00000000E+00  0.00000000E+00  0.00000000E+00
  0.00000000E+00  0.00000000E+00  0.00000000E+00
  0.00000000E+00  0.00000000E+00  0.00000000E+00
  0.00000000E+00  0.00000000E+00  0.00000000E+00
  0.00000000E+00  0.00000000E+00  0.00000000E+00
  0.00000000E+00  0.00000000E+00  0.00000000E+00
  0.00000000E+00  0.00000000E+00  0.00000000E+00
  0.00000000E+00  0.00000000E+00  0.00000000E+00
  0.00000000E+00  0.00000000E+00  0.00000000E+00
  0.00000000E+00  0.00000000E+00  0.00000000E+00
  0.00000000E+00  0.00000000E+00  0.00000000E+00
  0.00000000E+00  0.00000000E+00  0.00000000E+00
  0.00000000E+00  0.00000000E+00  0.00000000E+00
  0.00000000E+00  0.00000000E+00  0.00000000E+00
  0.00000000E+00  0.00000000E+00  0.00000000E+00
  0.00000000E+00  0.00000000E+00  0.00000000E+00
  0.00000000E+00  0.00000000E+00  0.00000000E+00
  0.00000000E+00  0.00000000E+00  0.00000000E+00
  0.00000000E+00  0.00000000E+00  0.00000000E+00
  0.00000000E+00  0.00000000E+00  0.00000000E+00
  0.00000000E+00  0.00000000E+00  0.00000000E+00
  0.00000000E+00  0.00000000E+00  0.00000000E+00
  0.00000000E+00  0.00000000E+00  0.00000000E+00
  0.00000000E+00  0.00000000E+00  0.00000000E+00
  0.00000000E+00  0.00000000E+00  0.00000000E+00
  0.00000000E+00  0.00000000E+00  0.00000000E+00
  0.00000000E+00  0.00000000E+00  0.00000000E+00
  0.00000000E+00  0.00000000E+00  0.00000000E+00
  0.00000000E+00  0.00000000E+00  0.00000000E+00
  0.00000000E+00  0.00000000E+00  0.00000000E+00
  0.00000000E+00  0.00000000E+00  0.00000000E+00
  0.00000000E+00  0.00000000E+00  0.00000000E+00
  0.00000000E+00  0.00000000E+00  0.00000000E+00
  0.00000000E+00  0.00000000E+00  0.00000000E+00
  0.00000000E+00  0.00000000E+00  0.00000000E+00
  0.00000000E+00  0.00000000E+00  0.00000000E+00
  0.00000000E+00  0.00000000E+00  0.00000000E+00
  0.00000000E+00  0.00000000E+00  0.00000000E+00
  0.00000000E+00  0.00000000E+00  0.00000000E+00
  0.00000000E+00  0.00000000E+00  0.00000000E+00
  0.00000000E+00  0.00000000E+00  0.00000000E+00
  0.00000000E+00  0.00000000E+00  0.00000000E+00
  0.00000000E+00  0.00000000E+00  0.00000000E+00
  0.00000000E+00  0.00000000E+00  0.00000000E+00
  0.00000000E+00  0.00000000E+00  0.00000000E+00
  0.00000000E+00  0.00000000E+00  0.00000000E+00
  0.00000000E+00  0.00000000E+00  0.00000000E+00
  0.00000000E+00  0.00000000E+00  0.00000000E+00
  0.00000000E+00  0.00000000E+00  0.00000000E+00
  0.00000000E+00  0.00000000E+00  0.00000000E+00
  0.00000000E+00  0.00000000E+00  0.00000000E+00
  0.00000000E+00  0.00000000E+00  0.00000000E+00
  0.00000000E+00  0.00000000E+00  0.00000000E+00
  0.00000000E+00  0.00000000E+00  0.00000000E+00
  0.00000000E+00  0.00000000E+00  0.00000000E+00
  0.00000000E+00  0.00000000E+00  0.00000000E+00
  0.00000000E+00  0.00000000E+00  0.00000000E+00
  0.00000000E+00  0.00000000E+00  0.00000000E+00
  0.00000000E+00  0.00000000E+00  0.00000000E+00
  0.00000000E+00  0.00000000E+00  0.00000000E+00
  0.00000000E+00  0.00000000E+00  0.00000000E+00
  0.00000000E+00  0.00000000E+00  0.00000000E+00
  0.00000000E+00  0.00000000E+00  0.00000000E+00
  0.00000000E+00  0.00000000E+00  0.00000000E+00
  0.00000000E+00  0.00000000E+00  0.00000000E+00
  0.00000000E+00  0.00000000E+00  0.00000000E+00
  0.00000000E+00  0.00000000E+00  0.00000000E+00
  0.00000000E+00  0.00000000E+00  0.00000000E+00
  0.00000000E+00  0.00000000E+00  0.00000000E+00
  0.00000000E+00  0.00000000E+00  0.00000000E+00
  0.00000000E+00  0.00000000E+00  0.00000000E+00
  0.00000000E+00  0.00000000E+00  0.00000000E+00
  0.00000000E+00  0.00000000E+00  0.00000000E+00
  0.00000000E+00  0.00000000E+00  0.00000000E+00
  0.00000000E+00  0.00000000E+00  0.00000000E+00
  0.00000000E+00  0.00000000E+00  0.00000000E+00
  0.00000000E+00  0.00000000E+00  0.00000000E+00
  0.00000000E+00  0.00000000E+00  0.00000000E+00
  0.00000000E+00  0.00000000E+00  0.00000000E+00
  0.00000000E+00  0.00000000E+00  0.00000000E+00
  0.00000000E+00  0.00000000E+00  0.00000000E+00
  0.00000000E+00  0.00000000E+00  0.00000000E+00
  0.00000000E+00  0.00000000E+00  0.00000000E+00
  0.00000000E+00  0.00000000E+00  0.00000000E+00
  0.00000000E+00  0.00000000E+00  0.00000000E+00
  0.00000000E+00  0.00000000E+00  0.00000000E+00
  0.00000000E+00  0.00000000E+00  0.00000000E+00
  0.00000000E+00  0.00000000E+00  0.00000000E+00
  0.00000000E+00  0.00000000E+00  0.00000000E+00
  0.00000000E+00  0.00000000E+00  0.00000000E+00
  0.00000000E+00  0.00000000E+00  0.00000000E+00
  0.00000000E+00  0.00000000E+00  0.00000000E+00
  0.00000000E+00  0.00000000E+00  0.00000000E+00
  0.00000000E+00  0.00000000E+00  0.00000000E+00
  0.00000000E+00  0.00000000E+00  0.00000000E+00
  0.00000000E+00  0.00000000E+00  0.00000000E+00
  0.00000000E+00  0.00000000E+00  0.00000000E+00
  0.00000000E+00  0.00000000E+00  0.00000000E+00
  0.00000000E+00  0.00000000E+00  0.00000000E+00
  0.00000000E+00  0.00000000E+00  0.00000000E+00
  0.00000000E+00  0.00000000E+00  0.00000000E+00
  0.00000000E+00  0.00000000E+00  0.00000000E+00
  0.00000000E+00  0.00000000E+00  0.00000000E+00
  0.00000000E+00  0.00000000E+00  0.00000000E+00
  0.00000000E+00  0.00000000E+00  0.00000000E+00
  0.00000000E+00  0.00000000E+00  0.00000000E+00
  0.00000000E+00  0.00000000E+00  0.00000000E+00
  0.00000000E+00  0.00000000E+00  0.00000000E+00
  0.00000000E+00  0.00000000E+00  0.00000000E+00
  0.00000000E+00  0.00000000E+00  0.00000000E+00
  0.00000000E+00  0.00000000E+00  0.00000000E+00
  0.00000000E+00  0.00000000E+00  0.00000000E+00
  0.00000000E+00  0.00000000E+00  0.00000000E+00
  0.00000000E+00  0.00000000E+00  0.00000000E+00
  0.00000000E+00  0.00000000E+00  0.00000000E+00
  0.00000000E+00  0.00000000E+00  0.00000000E+00
  0.00000000E+00  0.00000000E+00  0.00000000E+00
  0.00000000E+00  0.00000000E+00  0.00000000E+00
  0.00000000E+00  0.00000000E+00  0.00000000E+00
  0.00000000E+00  0.00000000E+00  0.00000000E+00
  0.00000000E+00  0.00000000E+00  0.00000000E+00
  0.00000000E+00  0.00000000E+00  0.00000000E+00
  0.00000000E+00  0.00000000E+00  0.00000000E+00
  0.00000000E+00  0.00000000E+00  0.00000000E+00
  0.00000000E+00  0.00000000E+00  0.00000000E+00
  0.00000000E+00  0.00000000E+00  0.00000000E+00
  0.00000000E+00  0.00000000E+00  0.00000000E+00
  0.00000000E+00  0.00000000E+00  0.00000000E+00
  0.00000000E+00  0.00000000E+00  0.00000000E+00
  0.00000000E+00  0.00000000E+00  0.00000000E+00
  0.00000000E+00  0.00000000E+00  0.00000000E+00
  0.00000000E+00  0.00000000E+00  0.00000000E+00
  0.00000000E+00  0.00000000E+00  0.00000000E+00
  0.00000000E+00  0.00000000E+00  0.00000000E+00
  0.00000000E+00  0.00000000E+00  0.00000000E+00
  0.00000000E+00  0.00000000E+00  0.00000000E+00
  0.00000000E+00  0.00000000E+00  0.00000000E+00
  0.00000000E+00  0.00000000E+00  0.00000000E+00
  0.00000000E+00  0.00000000E+00  0.00000000E+00
