config 18                               
   1.00000000000000     
    15.4263309999999993    0.0000000000000000    0.0000000000000000
     0.0000000000000000   15.4263309999999993    0.0000000000000000
     0.0000000000000000    0.0000000000000000   15.4263309999999993
   Li   Ti   O    F 
     1    64    64   128
Direct
  0.3745230938535417  0.1078564138516044  0.3842443302275874
  0.9959006111092011  0.9955611387905045  0.9943952129702531
  0.0009883059949901  0.9920049101297234  0.4934355547226492
  0.0055050130696981  0.4955053433506724  0.9976163375706891
  0.9938309930023453  0.5028195403055328  0.5070716910540578
  0.4948732678164933  0.9940816659186679  0.0011281327111554
  0.5023398306617620  0.0049733970082020  0.4989523748606461
  0.5038968881853003  0.4944233731337811  0.9969220796414175
  0.4920141726739692  0.4962573718363666  0.4954718063203258
  0.0064564417097565  0.0039201814345103  0.2557074542181558
  0.0027472777529591  0.0074853017532926  0.7567506745324171
  0.9936559982223517  0.4932370825259606  0.2514081163012917
  0.9924495421177646  0.4991756302077244  0.7419503723047649
  0.5074914497980780  0.0094108404682536  0.2518817325616770
  0.4934315719962827  0.0054869463198590  0.7533407501938190
  0.4930959158212264  0.4951264671363255  0.2577510182337378
  0.5007902577794369  0.5031578058401094  0.7593874374688728
  0.9955473091116411  0.2574834831666108  0.0009779629379381
  0.9977493549676610  0.2482609411549145  0.4908926346255753
  0.9979783862010702  0.7581573682255108  0.0060575631066294
  0.9978093236774133  0.7565877165399277  0.5058604514501384
  0.4950811173979814  0.2577875346068830  0.0019658984021508
  0.5069846005434062  0.2415082514875331  0.4974829434292990
  0.5069767964027910  0.7568673930852923  0.0004489706241532
  0.5068042703078921  0.7502958607874888  0.5094624728053363
  0.9995823552760179  0.2587045977379497  0.2548769817951714
  0.0061490391658760  0.2423852210837296  0.7470323841013523
  0.0063193645585452  0.7483507614876020  0.2430234949957366
  0.9929632984933762  0.7507945509420846  0.7431781689183603
  0.5073065753467271  0.2400886696368376  0.2529285825760501
  0.5064030436604372  0.2424990216221021  0.7509077243209540
  0.5062608263650391  0.7516787186256291  0.2517768300835969
  0.5018480600033585  0.7410084402580497  0.7445044982661317
  0.2572257827048893  0.9986874518001183  0.0045677193741905
  0.2507863060789414  0.9930327391805478  0.5072872433712309
  0.2433569499863488  0.5078965106570060  0.9975640207540131
  0.2540173700720345  0.4953873588045473  0.5063090646561834
  0.7575469089467307  0.0004864797053986  0.9944872633925184
  0.7515837277107408  0.0069263686364820  0.4953721909169072
  0.7415567074660798  0.5005940515945297  0.0051329923006109
  0.7552412625163817  0.4978851374686096  0.5054953824215547
  0.2438199224471503  0.0024697860029204  0.2416439775421861
  0.2594178573926584  0.9979988703200391  0.7448092734650136
  0.2550254866884663  0.4921472215707806  0.2516728387103333
  0.2469978227990503  0.5063276669819563  0.7410163023657749
  0.7454626419238931  0.0020565811097615  0.2564058510313332
  0.7488034505926781  0.0066431040990795  0.7565959535007893
  0.7555007749013326  0.4984392902651152  0.2429291892471105
  0.7570078823568472  0.4981931772196956  0.7427518782813173
  0.2574440413453299  0.2513032006454570  0.0049529237544778
  0.2511606079154225  0.2590122243214276  0.5057160112742646
  0.2518516692162224  0.7426060859418117  0.9932279778491753
  0.2517152965680425  0.7550241846841484  0.4922775384731918
  0.7573832680071494  0.2509012959639937  0.0069231190474689
  0.7419312932711309  0.2426046763101103  0.4981576112603708
  0.7416863211181990  0.7496620001782902  0.9942438698726420
  0.7416136856196266  0.7524783889092062  0.4942345881908344
  0.2499151255322953  0.2585518707241380  0.2424395314617512
  0.2437357640932699  0.2517768402559888  0.7435892751926877
  0.2435482176828073  0.7475962374713492  0.2552323493354132
  0.2482761492909242  0.7420046162802463  0.7562181426804185
  0.7418648784241475  0.2501408509100565  0.2422295943461602
  0.7437327519356858  0.2422381631770812  0.7505503290879422
  0.7451347851465819  0.7503997061387834  0.2568672339545250
  0.7574307909872967  0.7509122656828601  0.7569444461171927
  0.0070974066924549  0.5021778849332409  0.6245816948116171
  0.9986706723030084  0.0060308225422635  0.3757143940372313
  0.0036126699729272  0.0023313721246296  0.8728519158344703
  0.4997700349440647  0.4851272377628912  0.3752241026260951
  0.4949347784347712  0.4886053463907422  0.8753732885070354
  0.9984696426264847  0.7462404375034207  0.1257385634877035
  0.0010572788027194  0.7461953842741949  0.6240424914577600
  0.5016971128454613  0.7399707221509423  0.6249247160225616
  0.9949588352223613  0.2472442486900996  0.3759501427815462
  0.2571570969362079  0.0040913616590283  0.1245838933597361
  0.2606141256045574  0.0038711836636119  0.6247181337230000
  0.2398556193076569  0.4953602765076462  0.6255598802298380
  0.7504345924426999  0.4922572347349354  0.1257949976025680
  0.7463094765777781  0.4943049777803167  0.6242908398511955
  0.7499986940148263  0.9997289330605845  0.3755148945908539
  0.7448137921628301  0.9987034916679522  0.8743330740931832
  0.2460930896308244  0.2489498896758184  0.1251515693957999
  0.2521151319664340  0.2502012552305151  0.6244816758826367
  0.7442414118792950  0.2579501680103313  0.1263805012426231
  0.2541443639925488  0.7460811127241480  0.3742337419269175
  0.2511676440516923  0.7524694125188446  0.8748468352469260
  0.7515505164904042  0.7521851237024640  0.3741276293942801
  0.7482572144232216  0.7522469160800246  0.8756609834515588
  0.1241833671561005  0.5041129442891781  0.9950981700380549
  0.6253660622368776  0.5070451159719649  0.9990662735139173
  0.1251476120968449  0.0098658938187524  0.2484663485508965
  0.6252532057781518  0.0133223791427465  0.2470659710154113
  0.6246798523101806  0.2514502423217279  0.4971316516116354
  0.6243604235568452  0.7425751966513608  0.0033133687098023
  0.6244168222481956  0.7612407106741608  0.4969355382847556
  0.1247253918121734  0.2515172636845411  0.7488554044771383
  0.1252536973441621  0.7462081699941747  0.2513661964806024
  0.6245887525204020  0.2343507665441406  0.2581114056983865
  0.6252647537161633  0.2522090078474424  0.7458285205138451
  0.6223217788060360  0.7483041202629529  0.2509655292017056
  0.3762510197864074 -0.0007270498214385  0.9908443392556340
  0.3749950649451984  0.5026251760364034  0.5031282530778305
  0.8736177664246988  0.0019010844003705 -0.0015823923049294
  0.8751309006873400  0.5012797863406075  0.4991747058600188
  0.3760568533518037  0.9964475693039425  0.7626701290975717
  0.3736444791242354  0.4907510044802015  0.2493678761493360
  0.8753095529842806  0.4907761185926563  0.2526281821839523
  0.8750113289271757  0.5074356070458781  0.7469158402355462
  0.3756096881401688  0.2483386684280419  0.0025376241912077
  0.8743001898309677  0.2488216827213232  0.0039648630509671
  0.8750042495433371  0.7448623839064167  0.7496680462264733
  0.4951101400890980  0.1267715291981378  0.4726618547085222
  0.9970282693919690  0.1260263556959448  0.7438324750502414
  0.4821181958601624  0.1250867674217704  0.2790781357527546
  0.5017608591309217  0.1242176658700362  0.7638155956839540
  0.5013566084306780  0.6248206367839949  0.7598418108958948
  1.0006810219577820  0.3752199115829939  0.0040949572861748
  0.0020413522266217  0.8750269597308852  0.0013367390111747
 -0.0003301183726154  0.8749572708973824  0.4980105712796823
  0.5029758100856632  0.3734123904444115  0.0158982847499718
  0.5038412657061473  0.8754375137640622  0.0150785656094866
  0.0124042610158420  0.3739348740420054  0.2474392978168284
  0.2554526214822280  0.6252666682909698  0.0019248696988744
  0.7478815410488587  0.1248949395369920  0.5040481404141559
  0.2481299816746310  0.6247654074990611  0.7494931076824785
  0.7518254101528298  0.1248247439745957  0.7452452583662535
  0.2474062648237889  0.3743663389149686  0.4921068969107525
  0.2509011063509806  0.8755805800508770  0.4986342714267042
  0.2367160880197220  0.3745133764299780  0.2563301547275653
 -0.0015819063150248  0.0028068359462018  0.1265641737787011
  0.0032699349420229  0.9979383347546634  0.6234564700996141
  0.9995643757363138  0.5083163667012714  0.1252115996271851
  0.4908663598545371  0.0198864244873743  0.1274313611049075
  0.4919493767113927  0.0130286993966443  0.6280511661503760
  0.5007290884326795  0.5130195835499072  0.1279910386657857
  0.5063601139024970  0.5082586710694600  0.6247837015364175
  0.0033888571725235  0.4964639424741308  0.3759156647599371
  0.9954705237749992  0.4976715234976561  0.8728628987185486
  0.5086538992759460  0.9743535304645673  0.3715627503158429
  0.5167876179453068  0.9858320263707229  0.8764666092506234
  0.0062729661974287  0.2454752535817636  0.1271796293013919
  0.9993771196715929  0.2576520515458404  0.6209195100803772
  0.5034761869202735  0.2277029541847565  0.1279451886199595
  0.4949066121585909  0.2321086368342914  0.6227213671320931
  0.4953655646592329  0.7357491210757294  0.1272472260424393
  0.9965007764423319  0.2507176942344655  0.8739908972878607
  0.9945882434237977  0.7504251916541876  0.3748865005501942
  0.0019113981737761  0.7510703773769469  0.8738920175772064
  0.4948180160412491  0.2749639603176506  0.3745528487775868
  0.5013709495977652  0.2646759574577296  0.8749706294876848
  0.4936579476442689  0.7647922491536676  0.3752717914927816
  0.4988405901604731  0.7625129459018201  0.8747625343818579
  0.2448853367546966  0.4944117124327905  0.1247214443465981
  0.7519535570609592  0.0038172675696024  0.1267660590796257
  0.7533360509894494  0.9957632354058626  0.6246027820142481
  0.2492137689010864  0.0068045457028548  0.3740001605963332
  0.2403505912390678  0.9950168568045141  0.8743143666363750
  0.2469731130364119  0.5122732994491529  0.3748031523635095
  0.2581960257728677  0.4978310424339054  0.8735376439643807
  0.7462593360285507  0.5052933775726695  0.3746809977588558
  0.7518707862032840  0.5052162951460006  0.8742568522663444
  0.2519648931778202  0.7549317035447504  0.1248633360202777
  0.2497041926990705  0.7512761290283078  0.6244697625824407
  0.7530001776129066  0.2603995484074942  0.6233846536961288
  0.7522162147082100  0.7483764388597030  0.1261433588929684
  0.7478746478617144  0.7486188293724745  0.6245170890973052
  0.2558741366564731  0.2413431228990527  0.3735248024876369
  0.2513791322588262  0.2513277623611906  0.8747112860282543
  0.7595234940670224  0.2450626574845708  0.3737226232597923
  0.7500787997290231  0.2454873905264976  0.8761820565682954
  0.1265606447989866  0.0021430301420262  0.0044304722012666
  0.1260459566805037  0.0089645861582078  0.5013316227588032
  0.1230309599788313  0.5016985307384892  0.4927250501234859
  0.6250934967804820  0.0026367798387103  0.0104019483304086
  0.6296251327814038  0.9867503939787573  0.5089932325724468
  0.6251244334977419  0.4944100359185039  0.4981111025059408
  0.1281473472316647  0.0004993541104053  0.7437041141320446
  0.1237625714830929  0.5118689674826078  0.2490198253035099
  0.1231281079444405  0.4937025585058168  0.7618481313161034
  0.6243263670551764  0.9957239249873091  0.7400573418714035
  0.6245594842281860  0.5057697948443076  0.2499783456092872
  0.6263255568951765  0.4927948244528645  0.7547475265219901
  0.1250696922540661  0.2495237077036633  0.9950947294328291
  0.1233269040406666  0.2431996149045030  0.4972053343135909
  0.1250732027175801  0.7451810578156018  0.0008221903213124
  0.1244273693446223  0.7485336770594484  0.4962180326938817
  0.6256516047427596  0.2481394795565636  0.9973866409587917
  0.1245110829900199  0.2319270170536834  0.2560287591229701
  0.1236443973048758  0.7535890871371607  0.7500236107220751
  0.6262787414190337  0.7540776008031888  0.7504725591793510
  0.3732192084204169  0.0081956986156235  0.4780839842404497
  0.3732085767409312  0.4954402445108363  0.0068983771861952
  0.8765720845941047  0.0042951720247762  0.5061620639645570
  0.8744153725364850  0.4975434230978488  0.9990477316933055
  0.3762298557048485  0.9938181976514590  0.2622227085939532
  0.3745197291802573  0.4983414219213878  0.7420291627979175
  0.8743647651311804  0.9931010046053061  0.2481839039354735
  0.8754567014136567  0.9935551401242224  0.7468012539835197
  0.3768646011890811  0.2493550175261739  0.4937044628408186
  0.3764725824756134  0.7566965701333300  0.0014906725042354
  0.3770384452283516  0.7435472123404850  0.5011965749184781
  0.8742524626744035  0.2519888970306897  0.5038375271653120
  0.8721543709628446  0.7545900059313274  0.9990837804783202
  0.8727219111568600  0.7431128377879581  0.5025551055009940
  0.3773455022012066  0.2622129606932830  0.2481341945081547
  0.3759001872577289  0.2494765521983327  0.7516559774268154
  0.3766096055210920  0.7548349839067658  0.2476269280899071
  0.3752930018512063  0.7545730735864252  0.7488327540593708
  0.8737252525772637  0.2632042351919666  0.2458342295822671
  0.8744568769797250  0.2537115995397461  0.7478782124426357
  0.8734050230349788  0.7550914419003054  0.2492070827206634
  0.0035316468766313  0.1271186419633537  0.0009629723726997
  0.9966591682992169  0.1258272776391219  0.5084164312153340
  0.9933389472865691  0.6254712187462551  0.9944966446947340
  0.0018461518226874  0.6265727866695865  0.4923042788328175
  0.5038906701729523  0.1243410261378679  0.9873283779050509
  0.4903404558613336  0.6271170203305491  0.9922361275574469
  0.5066678864949613  0.6252327961004576  0.4867633192164778
  0.9857394869523779  0.1281302345190048  0.2465016554821811
  0.9921960441483982  0.6233733378831192  0.2566013607984183
  0.0100819000750645  0.6246538296389194  0.7554495472104895
  0.4944265043312100  0.6261588273428813  0.2643012908086418
  0.0030049748643971  0.3738764909946482  0.4981359191896536
  0.4961082527121256  0.3711115586796159  0.5163000704454195
  0.4878667142036687  0.8761606752876896  0.5122181230498563
  0.9956697076858623  0.3744422940639180  0.7501938831209676
  1.0023933041992787  0.8764439507375812  0.2511967542615935
  0.0011746864057353  0.8757433699795205  0.7472339099110303
  0.5100361328985769  0.3704121916161927  0.2337581658042342
  0.4965341711482887  0.3729996896622592  0.7363473861751684
  0.5024640823079586  0.8770261646944587  0.2328028620089779
  0.5020748302810812  0.8750348871360258  0.7421378254407088
  0.2467576485056923  0.1248236938049184  0.9924290930461811
  0.2577312302547079  0.1257089608988743  0.4927924142861344
  0.2462854087736527  0.6265555839301025  0.5050125007347744
  0.7444611519719591  0.1261699894097645  0.0029860941219021
  0.7608048309568706  0.6255258753025135  0.0034589543004978
  0.7433082464993536  0.6255291962669829  0.5010753349170054
  0.2693023562222487  0.1265957506451178  0.2556775061190514
  0.2513808173785902  0.1247221948130710  0.7564677420432028
  0.2567081823773303  0.6236753072901657  0.2404957966022280
  0.7680779028464126  0.1267837182104139  0.2484201325041297
  0.7542470969051434  0.6251819589190983  0.2477576539849958
  0.7396440897995261  0.6249461186174196  0.7476674046229126
  0.2481715340937282  0.3760088081665184  0.9974879517160319
  0.2455856443202617  0.8740791464438966  0.0027649662689029
  0.7470888782733017  0.3749207207657299  0.9883464567621228
  0.7531835092659594  0.3725439607412936  0.4903475754065684
  0.7452156770056790  0.8750361720926482  0.0083934633222324
  0.7629191437700846  0.8758548337266990  0.5031034494546817
  0.2537243620625215  0.3759997885658706  0.7557689867135534
  0.2482960389626271  0.8762200261228051  0.2516069685771257
  0.2471339886796100  0.8736507381308798  0.7455133850968784
  0.7373022569558254  0.3738855489134933  0.2630705312029735
  0.7546466645366479  0.3738003372700825  0.7577853101199048
  0.7448199662051965  0.8763488206083923  0.2437896711979771
  0.7506720685562841  0.8751943103514047  0.7450873770404812
 
  0.00000000E+00  0.00000000E+00  0.00000000E+00
  0.00000000E+00  0.00000000E+00  0.00000000E+00
  0.00000000E+00  0.00000000E+00  0.00000000E+00
  0.00000000E+00  0.00000000E+00  0.00000000E+00
  0.00000000E+00  0.00000000E+00  0.00000000E+00
  0.00000000E+00  0.00000000E+00  0.00000000E+00
  0.00000000E+00  0.00000000E+00  0.00000000E+00
  0.00000000E+00  0.00000000E+00  0.00000000E+00
  0.00000000E+00  0.00000000E+00  0.00000000E+00
  0.00000000E+00  0.00000000E+00  0.00000000E+00
  0.00000000E+00  0.00000000E+00  0.00000000E+00
  0.00000000E+00  0.00000000E+00  0.00000000E+00
  0.00000000E+00  0.00000000E+00  0.00000000E+00
  0.00000000E+00  0.00000000E+00  0.00000000E+00
  0.00000000E+00  0.00000000E+00  0.00000000E+00
  0.00000000E+00  0.00000000E+00  0.00000000E+00
  0.00000000E+00  0.00000000E+00  0.00000000E+00
  0.00000000E+00  0.00000000E+00  0.00000000E+00
  0.00000000E+00  0.00000000E+00  0.00000000E+00
  0.00000000E+00  0.00000000E+00  0.00000000E+00
  0.00000000E+00  0.00000000E+00  0.00000000E+00
  0.00000000E+00  0.00000000E+00  0.00000000E+00
  0.00000000E+00  0.00000000E+00  0.00000000E+00
  0.00000000E+00  0.00000000E+00  0.00000000E+00
  0.00000000E+00  0.00000000E+00  0.00000000E+00
  0.00000000E+00  0.00000000E+00  0.00000000E+00
  0.00000000E+00  0.00000000E+00  0.00000000E+00
  0.00000000E+00  0.00000000E+00  0.00000000E+00
  0.00000000E+00  0.00000000E+00  0.00000000E+00
  0.00000000E+00  0.00000000E+00  0.00000000E+00
  0.00000000E+00  0.00000000E+00  0.00000000E+00
  0.00000000E+00  0.00000000E+00  0.00000000E+00
  0.00000000E+00  0.00000000E+00  0.00000000E+00
  0.00000000E+00  0.00000000E+00  0.00000000E+00
  0.00000000E+00  0.00000000E+00  0.00000000E+00
  0.00000000E+00  0.00000000E+00  0.00000000E+00
  0.00000000E+00  0.00000000E+00  0.00000000E+00
  0.00000000E+00  0.00000000E+00  0.00000000E+00
  0.00000000E+00  0.00000000E+00  0.00000000E+00
  0.00000000E+00  0.00000000E+00  0.00000000E+00
  0.00000000E+00  0.00000000E+00  0.00000000E+00
  0.00000000E+00  0.00000000E+00  0.00000000E+00
  0.00000000E+00  0.00000000E+00  0.00000000E+00
  0.00000000E+00  0.00000000E+00  0.00000000E+00
  0.00000000E+00  0.00000000E+00  0.00000000E+00
  0.00000000E+00  0.00000000E+00  0.00000000E+00
  0.00000000E+00  0.00000000E+00  0.00000000E+00
  0.00000000E+00  0.00000000E+00  0.00000000E+00
  0.00000000E+00  0.00000000E+00  0.00000000E+00
  0.00000000E+00  0.00000000E+00  0.00000000E+00
  0.00000000E+00  0.00000000E+00  0.00000000E+00
  0.00000000E+00  0.00000000E+00  0.00000000E+00
  0.00000000E+00  0.00000000E+00  0.00000000E+00
  0.00000000E+00  0.00000000E+00  0.00000000E+00
  0.00000000E+00  0.00000000E+00  0.00000000E+00
  0.00000000E+00  0.00000000E+00  0.00000000E+00
  0.00000000E+00  0.00000000E+00  0.00000000E+00
  0.00000000E+00  0.00000000E+00  0.00000000E+00
  0.00000000E+00  0.00000000E+00  0.00000000E+00
  0.00000000E+00  0.00000000E+00  0.00000000E+00
  0.00000000E+00  0.00000000E+00  0.00000000E+00
  0.00000000E+00  0.00000000E+00  0.00000000E+00
  0.00000000E+00  0.00000000E+00  0.00000000E+00
  0.00000000E+00  0.00000000E+00  0.00000000E+00
  0.00000000E+00  0.00000000E+00  0.00000000E+00
  0.00000000E+00  0.00000000E+00  0.00000000E+00
  0.00000000E+00  0.00000000E+00  0.00000000E+00
  0.00000000E+00  0.00000000E+00  0.00000000E+00
  0.00000000E+00  0.00000000E+00  0.00000000E+00
  0.00000000E+00  0.00000000E+00  0.00000000E+00
  0.00000000E+00  0.00000000E+00  0.00000000E+00
  0.00000000E+00  0.00000000E+00  0.00000000E+00
  0.00000000E+00  0.00000000E+00  0.00000000E+00
  0.00000000E+00  0.00000000E+00  0.00000000E+00
  0.00000000E+00  0.00000000E+00  0.00000000E+00
  0.00000000E+00  0.00000000E+00  0.00000000E+00
  0.00000000E+00  0.00000000E+00  0.00000000E+00
  0.00000000E+00  0.00000000E+00  0.00000000E+00
  0.00000000E+00  0.00000000E+00  0.00000000E+00
  0.00000000E+00  0.00000000E+00  0.00000000E+00
  0.00000000E+00  0.00000000E+00  0.00000000E+00
  0.00000000E+00  0.00000000E+00  0.00000000E+00
  0.00000000E+00  0.00000000E+00  0.00000000E+00
  0.00000000E+00  0.00000000E+00  0.00000000E+00
  0.00000000E+00  0.00000000E+00  0.00000000E+00
  0.00000000E+00  0.00000000E+00  0.00000000E+00
  0.00000000E+00  0.00000000E+00  0.00000000E+00
  0.00000000E+00  0.00000000E+00  0.00000000E+00
  0.00000000E+00  0.00000000E+00  0.00000000E+00
  0.00000000E+00  0.00000000E+00  0.00000000E+00
  0.00000000E+00  0.00000000E+00  0.00000000E+00
  0.00000000E+00  0.00000000E+00  0.00000000E+00
  0.00000000E+00  0.00000000E+00  0.00000000E+00
  0.00000000E+00  0.00000000E+00  0.00000000E+00
  0.00000000E+00  0.00000000E+00  0.00000000E+00
  0.00000000E+00  0.00000000E+00  0.00000000E+00
  0.00000000E+00  0.00000000E+00  0.00000000E+00
  0.00000000E+00  0.00000000E+00  0.00000000E+00
  0.00000000E+00  0.00000000E+00  0.00000000E+00
  0.00000000E+00  0.00000000E+00  0.00000000E+00
  0.00000000E+00  0.00000000E+00  0.00000000E+00
  0.00000000E+00  0.00000000E+00  0.00000000E+00
  0.00000000E+00  0.00000000E+00  0.00000000E+00
  0.00000000E+00  0.00000000E+00  0.00000000E+00
  0.00000000E+00  0.00000000E+00  0.00000000E+00
  0.00000000E+00  0.00000000E+00  0.00000000E+00
  0.00000000E+00  0.00000000E+00  0.00000000E+00
  0.00000000E+00  0.00000000E+00  0.00000000E+00
  0.00000000E+00  0.00000000E+00  0.00000000E+00
  0.00000000E+00  0.00000000E+00  0.00000000E+00
  0.00000000E+00  0.00000000E+00  0.00000000E+00
  0.00000000E+00  0.00000000E+00  0.00000000E+00
  0.00000000E+00  0.00000000E+00  0.00000000E+00
  0.00000000E+00  0.00000000E+00  0.00000000E+00
  0.00000000E+00  0.00000000E+00  0.00000000E+00
  0.00000000E+00  0.00000000E+00  0.00000000E+00
  0.00000000E+00  0.00000000E+00  0.00000000E+00
  0.00000000E+00  0.00000000E+00  0.00000000E+00
  0.00000000E+00  0.00000000E+00  0.00000000E+00
  0.00000000E+00  0.00000000E+00  0.00000000E+00
  0.00000000E+00  0.00000000E+00  0.00000000E+00
  0.00000000E+00  0.00000000E+00  0.00000000E+00
  0.00000000E+00  0.00000000E+00  0.00000000E+00
  0.00000000E+00  0.00000000E+00  0.00000000E+00
  0.00000000E+00  0.00000000E+00  0.00000000E+00
  0.00000000E+00  0.00000000E+00  0.00000000E+00
  0.00000000E+00  0.00000000E+00  0.00000000E+00
  0.00000000E+00  0.00000000E+00  0.00000000E+00
  0.00000000E+00  0.00000000E+00  0.00000000E+00
  0.00000000E+00  0.00000000E+00  0.00000000E+00
  0.00000000E+00  0.00000000E+00  0.00000000E+00
  0.00000000E+00  0.00000000E+00  0.00000000E+00
  0.00000000E+00  0.00000000E+00  0.00000000E+00
  0.00000000E+00  0.00000000E+00  0.00000000E+00
  0.00000000E+00  0.00000000E+00  0.00000000E+00
  0.00000000E+00  0.00000000E+00  0.00000000E+00
  0.00000000E+00  0.00000000E+00  0.00000000E+00
  0.00000000E+00  0.00000000E+00  0.00000000E+00
  0.00000000E+00  0.00000000E+00  0.00000000E+00
  0.00000000E+00  0.00000000E+00  0.00000000E+00
  0.00000000E+00  0.00000000E+00  0.00000000E+00
  0.00000000E+00  0.00000000E+00  0.00000000E+00
  0.00000000E+00  0.00000000E+00  0.00000000E+00
  0.00000000E+00  0.00000000E+00  0.00000000E+00
  0.00000000E+00  0.00000000E+00  0.00000000E+00
  0.00000000E+00  0.00000000E+00  0.00000000E+00
  0.00000000E+00  0.00000000E+00  0.00000000E+00
  0.00000000E+00  0.00000000E+00  0.00000000E+00
  0.00000000E+00  0.00000000E+00  0.00000000E+00
  0.00000000E+00  0.00000000E+00  0.00000000E+00
  0.00000000E+00  0.00000000E+00  0.00000000E+00
  0.00000000E+00  0.00000000E+00  0.00000000E+00
  0.00000000E+00  0.00000000E+00  0.00000000E+00
  0.00000000E+00  0.00000000E+00  0.00000000E+00
  0.00000000E+00  0.00000000E+00  0.00000000E+00
  0.00000000E+00  0.00000000E+00  0.00000000E+00
  0.00000000E+00  0.00000000E+00  0.00000000E+00
  0.00000000E+00  0.00000000E+00  0.00000000E+00
  0.00000000E+00  0.00000000E+00  0.00000000E+00
  0.00000000E+00  0.00000000E+00  0.00000000E+00
  0.00000000E+00  0.00000000E+00  0.00000000E+00
  0.00000000E+00  0.00000000E+00  0.00000000E+00
  0.00000000E+00  0.00000000E+00  0.00000000E+00
  0.00000000E+00  0.00000000E+00  0.00000000E+00
  0.00000000E+00  0.00000000E+00  0.00000000E+00
  0.00000000E+00  0.00000000E+00  0.00000000E+00
  0.00000000E+00  0.00000000E+00  0.00000000E+00
  0.00000000E+00  0.00000000E+00  0.00000000E+00
  0.00000000E+00  0.00000000E+00  0.00000000E+00
  0.00000000E+00  0.00000000E+00  0.00000000E+00
  0.00000000E+00  0.00000000E+00  0.00000000E+00
  0.00000000E+00  0.00000000E+00  0.00000000E+00
  0.00000000E+00  0.00000000E+00  0.00000000E+00
  0.00000000E+00  0.00000000E+00  0.00000000E+00
  0.00000000E+00  0.00000000E+00  0.00000000E+00
  0.00000000E+00  0.00000000E+00  0.00000000E+00
  0.00000000E+00  0.00000000E+00  0.00000000E+00
  0.00000000E+00  0.00000000E+00  0.00000000E+00
  0.00000000E+00  0.00000000E+00  0.00000000E+00
  0.00000000E+00  0.00000000E+00  0.00000000E+00
  0.00000000E+00  0.00000000E+00  0.00000000E+00
  0.00000000E+00  0.00000000E+00  0.00000000E+00
  0.00000000E+00  0.00000000E+00  0.00000000E+00
  0.00000000E+00  0.00000000E+00  0.00000000E+00
  0.00000000E+00  0.00000000E+00  0.00000000E+00
  0.00000000E+00  0.00000000E+00  0.00000000E+00
  0.00000000E+00  0.00000000E+00  0.00000000E+00
  0.00000000E+00  0.00000000E+00  0.00000000E+00
  0.00000000E+00  0.00000000E+00  0.00000000E+00
  0.00000000E+00  0.00000000E+00  0.00000000E+00
  0.00000000E+00  0.00000000E+00  0.00000000E+00
  0.00000000E+00  0.00000000E+00  0.00000000E+00
  0.00000000E+00  0.00000000E+00  0.00000000E+00
  0.00000000E+00  0.00000000E+00  0.00000000E+00
  0.00000000E+00  0.00000000E+00  0.00000000E+00
  0.00000000E+00  0.00000000E+00  0.00000000E+00
  0.00000000E+00  0.00000000E+00  0.00000000E+00
  0.00000000E+00  0.00000000E+00  0.00000000E+00
  0.00000000E+00  0.00000000E+00  0.00000000E+00
  0.00000000E+00  0.00000000E+00  0.00000000E+00
  0.00000000E+00  0.00000000E+00  0.00000000E+00
  0.00000000E+00  0.00000000E+00  0.00000000E+00
  0.00000000E+00  0.00000000E+00  0.00000000E+00
  0.00000000E+00  0.00000000E+00  0.00000000E+00
  0.00000000E+00  0.00000000E+00  0.00000000E+00
  0.00000000E+00  0.00000000E+00  0.00000000E+00
  0.00000000E+00  0.00000000E+00  0.00000000E+00
  0.00000000E+00  0.00000000E+00  0.00000000E+00
  0.00000000E+00  0.00000000E+00  0.00000000E+00
  0.00000000E+00  0.00000000E+00  0.00000000E+00
  0.00000000E+00  0.00000000E+00  0.00000000E+00
  0.00000000E+00  0.00000000E+00  0.00000000E+00
  0.00000000E+00  0.00000000E+00  0.00000000E+00
  0.00000000E+00  0.00000000E+00  0.00000000E+00
  0.00000000E+00  0.00000000E+00  0.00000000E+00
  0.00000000E+00  0.00000000E+00  0.00000000E+00
  0.00000000E+00  0.00000000E+00  0.00000000E+00
  0.00000000E+00  0.00000000E+00  0.00000000E+00
  0.00000000E+00  0.00000000E+00  0.00000000E+00
  0.00000000E+00  0.00000000E+00  0.00000000E+00
  0.00000000E+00  0.00000000E+00  0.00000000E+00
  0.00000000E+00  0.00000000E+00  0.00000000E+00
  0.00000000E+00  0.00000000E+00  0.00000000E+00
  0.00000000E+00  0.00000000E+00  0.00000000E+00
  0.00000000E+00  0.00000000E+00  0.00000000E+00
  0.00000000E+00  0.00000000E+00  0.00000000E+00
  0.00000000E+00  0.00000000E+00  0.00000000E+00
  0.00000000E+00  0.00000000E+00  0.00000000E+00
  0.00000000E+00  0.00000000E+00  0.00000000E+00
  0.00000000E+00  0.00000000E+00  0.00000000E+00
  0.00000000E+00  0.00000000E+00  0.00000000E+00
  0.00000000E+00  0.00000000E+00  0.00000000E+00
  0.00000000E+00  0.00000000E+00  0.00000000E+00
  0.00000000E+00  0.00000000E+00  0.00000000E+00
  0.00000000E+00  0.00000000E+00  0.00000000E+00
  0.00000000E+00  0.00000000E+00  0.00000000E+00
  0.00000000E+00  0.00000000E+00  0.00000000E+00
  0.00000000E+00  0.00000000E+00  0.00000000E+00
  0.00000000E+00  0.00000000E+00  0.00000000E+00
  0.00000000E+00  0.00000000E+00  0.00000000E+00
  0.00000000E+00  0.00000000E+00  0.00000000E+00
  0.00000000E+00  0.00000000E+00  0.00000000E+00
  0.00000000E+00  0.00000000E+00  0.00000000E+00
  0.00000000E+00  0.00000000E+00  0.00000000E+00
  0.00000000E+00  0.00000000E+00  0.00000000E+00
  0.00000000E+00  0.00000000E+00  0.00000000E+00
  0.00000000E+00  0.00000000E+00  0.00000000E+00
  0.00000000E+00  0.00000000E+00  0.00000000E+00
  0.00000000E+00  0.00000000E+00  0.00000000E+00
  0.00000000E+00  0.00000000E+00  0.00000000E+00
  0.00000000E+00  0.00000000E+00  0.00000000E+00
  0.00000000E+00  0.00000000E+00  0.00000000E+00
  0.00000000E+00  0.00000000E+00  0.00000000E+00
  0.00000000E+00  0.00000000E+00  0.00000000E+00
  0.00000000E+00  0.00000000E+00  0.00000000E+00
  0.00000000E+00  0.00000000E+00  0.00000000E+00
  0.00000000E+00  0.00000000E+00  0.00000000E+00
