Ti64 O64 F128                           
   1.00000000000000     
    15.4263309585497339    0.0000000000000000    0.0000000000000000
     0.0000000000000000   15.4263309585497339    0.0000000000000000
     0.0000000000000000    0.0000000000000000   15.4263309585497339
   Ti   O    F 
    64    64   128
Direct
  0.9949376497660339  0.9956199893803753  0.9947198354573412
  0.0000862278020811  0.9916887726388531  0.4934967407385555
  0.0056412202524332  0.4952046877631893  0.9979453442290049
  0.9935924732052490  0.5022444400882745  0.5071242164072164
  0.4939259529197492  0.9947133187952060  0.9995199442389155
  0.5002745851658200  0.0082961775348451  0.5001929288394772
  0.5042770226697296  0.4956643341386758  0.9957722652005061
  0.4919045577216783  0.4993907803832520  0.4948124838516715
  0.0069355471188411  0.0025350191249352  0.2562809464740541
  0.0010479964599733  0.0075507239923894  0.7569581981459805
  0.9934196784180095  0.4940909904927983  0.2517190191574997
  0.9924063574806280  0.4987991494684870  0.7423929536175928
  0.5065415725651151  0.0078719531179948  0.2501071567281742
  0.4925819459702978  0.0051000094887708  0.7511586081860923
  0.4929910366058519  0.4975279115957535  0.2573931222165765
  0.5010152868022048  0.5045654232202843  0.7581419374121461
  0.9953312870324131  0.2571964407500263  0.0009891025997685
  0.9988418692519686  0.2479698277203252  0.4913292123898839
  0.9979575372665420  0.7580898336703412  0.0061253391107801
  0.9980832490774612  0.7564346400679286  0.5060873318280754
  0.4946912994670920  0.2580623304448302  0.0001712346952438
  0.5080230758168995  0.2454797812123485  0.4999613614403423
  0.5070401038420598  0.7569621759567985  0.9988274656936147
  0.5066909823949423  0.7527038197759265  0.5090160739946262
  0.9995194537614810  0.2581742634175760  0.2553000773625606
  0.0063356395696417  0.2423376181664394  0.7473219780468275
  0.0070431074671231  0.7487769313798498  0.2429964610073747
  0.9929239155030906  0.7509175534404922  0.7433625261389136
  0.5081872660127172  0.2423506915724370  0.2508440758786902
  0.5067232281515253  0.2428771105379006  0.7497611025934396
  0.5070501211937425  0.7515492573871980  0.2517327711751994
  0.5014377931606947  0.7423127608093752  0.7433117136778854
  0.2561394314229650  0.9988964478621392  0.0062316650641553
  0.2492367558952165  0.9936996785363246  0.5065994501900002
  0.2432276702037142  0.5075685665819497  0.9978182395067487
  0.2541053625966483  0.4941248917864769  0.5063167048471600
  0.7573211922110602  0.0004504968838743  0.9943150905233782
  0.7510698230402932  0.0065891691859610  0.4943326391007729
  0.7419008590844983  0.5005833087768904  0.0050970643422679
  0.7555597842131436  0.4979511195570911  0.5053459216146158
  0.2447671855688071  0.0019716325461718  0.2439010832482141
  0.2571696624963675  0.9978595596681704  0.7441694966545049
  0.2553737553018211  0.4924408768931893  0.2518558955392471
  0.2475266539861632  0.5062389856505300  0.7413312507799236
  0.7448154172983383  0.9997339833028435  0.2560855913319194
  0.7484633525002542  0.0062271076755293  0.7564334996083362
  0.7559224859752331  0.4995023522359927  0.2427868817286382
  0.7571558748725699  0.4982270788382691  0.7428088789554054
  0.2574848702654169  0.2510352985770190  0.0056471865890271
  0.2526542300302366  0.2567146406043291  0.5055557140285439
  0.2516758721747402  0.7425592425137387  0.9933098753969360
  0.2513345276714217  0.7554287422573345  0.4926808015928567
  0.7575470423416741  0.2502942033420292  0.0064617802172503
  0.7432673005564093  0.2425052558887410  0.4981307844022294
  0.7419781955546788  0.7500317079642488  0.9940729154112240
  0.7418461344142799  0.7518591075199571  0.4941330766203098
  0.2516605425182627  0.2573673139084335  0.2435556123546474
  0.2439045954367556  0.2513856586312938  0.7435481283821278
  0.2440688764501809  0.7483379972668668  0.2555776655925511
  0.2483250490631404  0.7418313201435892  0.7566064597427133
  0.7427841427865103  0.2505339246929624  0.2419021867594050
  0.7441417422305308  0.2420378702700567  0.7506795991748063
  0.7458486072400512  0.7503065437849564  0.2567649928635818
  0.7574643978284006  0.7511864078074308  0.7569084564136945
  0.0044729906558302  0.5011742761391280  0.6247766907841669
  0.9957061624129533  0.0054177472728221  0.3761696949449141
  0.9987941071032345  0.0023480105580323  0.8730307488455098
  0.5018728213630387  0.4969018127682350  0.3751469071800773
  0.4971129633824751  0.4995720984959484  0.8745370558710210
  0.9985124948084984  0.7474164147552523  0.1257187174611823
  0.0001301900615621  0.7462725007329155  0.6242655795292089
  0.4998542419924639  0.7550050902965528  0.6246464952472045
  0.9975094756484127  0.2467317826873474  0.3765143245871924
  0.2533707833232859  0.0029881075843925  0.1254859177411250
  0.2521843602700293  0.0031603177583283  0.6252862576041478
  0.2428087204365023  0.4967546336773177  0.6257294762486443
  0.7519002469605305  0.4949692576768422  0.1256253434029211
  0.7479887090351548  0.4968193234442732  0.6241483695887644
  0.7515953787120919  0.9972920667945914  0.3762255285226712
  0.7477386746453495  0.9970884653239944  0.8737649658279745
  0.2491859609401536  0.2485241026888597  0.1256170656564390
  0.2535187168317306  0.2486182528447829  0.6250823621138899
  0.7467611898193134  0.2544612421927822  0.1259059581798397
  0.2537045838957603  0.7475993923956691  0.3744989632255852
  0.2508466575378469  0.7528878552652031  0.8750017293472563
  0.7514686519838566  0.7534026759975916  0.3741995077400717
  0.7482325386744297  0.7536638981835122  0.8754999701530022
  0.1242548434591392  0.5016471394317499  0.9975611671719227
  0.6257717057532036  0.5055728441469505  0.0001230004482424
  0.1255155054213593  0.0010758459961364  0.2526109050260351
  0.6251935646428346  0.9989182203227137  0.2516254223416824
  0.6244322664259827  0.2521504434299549  0.4981415981782388
  0.6246385111686282  0.7452873021748294  0.0033309429153590
  0.6246019760677167  0.7563208354997853  0.4975772191435586
  0.1245271179363388  0.2507647597866536  0.7479032353165574
  0.1257206015689937  0.7525252758837214  0.2507055026203445
  0.6255062968371973  0.2480852276051770  0.2576097984298860
  0.6254125513089838  0.2514228050499513  0.7455156420376543
  0.6231353697290002  0.7539817001398086  0.2500682593754212
  0.3758003201865537  0.0018615568532974  0.9946806954839760
  0.3751242018844643  0.5015540610045472  0.5011490711657782
  0.8730444399213780  0.0039043267518649  0.0018505530683678
  0.8751370655238899  0.4989910025134168  0.4969701038823053
  0.3758999282509522  0.9962400827514789  0.7537937306758401
  0.3740139545657323  0.4983750743365041  0.2510568965125702
  0.8755655870425031  0.4998225353007549  0.2538107647883589
  0.8749795232719575  0.5049354832430479  0.7499138481440376
  0.3757696278309581  0.2470051017226162  0.0002681528151864
  0.8743681475126683  0.2469596297650937  0.0016156342913131
  0.8749333495620920  0.7465683690905102  0.7502531763994233
  0.5042308922280774  0.1228865243204276  0.4989252139037474
  0.9956674366777605  0.1259413548095259  0.7445113263751183
  0.4976079899703504  0.1248924741799189  0.2571233518286354
  0.5007312361394676  0.1236163478817941  0.7450116990901686
  0.5000253074108459  0.6255040596346696  0.7480552229582489
  0.9989307309565857  0.3749961865112642  0.0032633862203220
  0.9996978074471743  0.8751232973097155  0.0005643776116551
  0.0006905988677778  0.8746372261741918  0.4983795470830811
  0.5012857577943568  0.3742497156293946  0.0038192900928474
  0.5020139264970421  0.8755906031592513  0.0012884101190673
  0.0038315234088678  0.3739531316729137  0.2484936421480767
  0.2524585232698895  0.6252026374731769  0.0006473731825159
  0.7477633416282699  0.1250156988439362  0.5019802660884120
  0.2499473573309312  0.6245819648811535  0.7508958049106559
  0.7522798949923046  0.1245796270875664  0.7464312785713269
  0.2489146338653907  0.3729582325191899  0.4945890285145520
  0.2483843323831474  0.8756423017432379  0.4999697099836458
  0.2446063503673070  0.3744466456672425  0.2545852298634918
  0.0004442922707501  0.0021463392347134  0.1270305045872379
  0.0035850921598679  0.9987565618425071  0.6235181483792013
  0.9984035951446237  0.5066394571725499  0.1253125393493004
  0.4973988371439847  0.0025330954258472  0.1262662887089090
  0.4999463500377295  0.9926171600617684  0.6229937781314309
  0.5005685894367216  0.5040146725145552  0.1273687742409785
  0.5043746618054082  0.4982774388444392  0.6245595041359472
  0.0052354045232451  0.4979739154159626  0.3761335808205258
  0.9985288177162677  0.4992650967221062  0.8730232991675667
  0.5005716284260784  0.9937267496568247  0.3768852283332091
  0.5114088329172699  0.0023020152987213  0.8746987367903231
  0.0034451344104723  0.2460788589408472  0.1273076848600887
  0.9970066703694077  0.2568255803750650  0.6213252883898889
  0.5041475335581673  0.2444905158586093  0.1265685863454784
  0.4935928402546164  0.2515587445040915  0.6232319080668129
  0.4956229774160388  0.7493560123217743  0.1267745634413624
  0.9982318580953874  0.2505619233745378  0.8741855756687089
  0.9959539328377682  0.7488340449942467  0.3752266859900721
  0.0022307432338429  0.7498916310272067  0.8739627620943793
  0.4945785674485255  0.2572209032238318  0.3760941359395249
  0.5027526311997169  0.2482164405685405  0.8743086154798291
  0.4944492904896623  0.7516631203906428  0.3755763894611193
  0.4983475153804200  0.7509622345495750  0.8737637919678335
  0.2474808626656698  0.4964440382042129  0.1248980621189724
  0.7481366520165296  0.0045725762571112  0.1268153615104023
  0.7460369267864330  0.9969842379707430  0.6232099916324131
  0.2538539612226685  0.0006908411084330  0.3756769062243751
  0.2450756806315440  0.9961281404996978  0.8744335304937583
  0.2441610121387368  0.5089343907433962  0.3752455266617625
  0.2551437469401895  0.4961664576537660  0.8736901796370433
  0.7449936162468912  0.5028320554205937  0.3747193825269656
  0.7497732578609266  0.5026641501705298  0.8739953055539216
  0.2530184646444846  0.7536027332675462  0.1248040006105002
  0.2504746496376971  0.7504571075810827  0.6249078938192482
  0.7541403501041114  0.2575902046672569  0.6232191372293647
  0.7528348134964383  0.7473412776272791  0.1260143098196319
  0.7487965813762351  0.7476145302177273  0.6244103550787524
  0.2501079239427169  0.2441378471440763  0.3745767130716597
  0.2500613157731063  0.2509636155218057  0.8750640298647158
  0.7579885134299876  0.2477807662796284  0.3742438981406053
  0.7493459085055043  0.2483262506883275  0.8757326062863078
  0.1258983145338183  0.0011843391685108  0.0011011083087790
  0.1246710362014154  0.0082806640702541  0.4981166663519693
  0.1230196768183477  0.5014499845282167  0.4952538558158197
  0.6252246041602469  0.0005168476601845  0.0052491599021666
  0.6239276366381197  0.9902546451911828  0.5009136384531412
  0.6252238398559516  0.4977677281215750  0.4993482331786572
  0.1265853954576857  0.0001725003764509  0.7484007954102047
  0.1239614324658159  0.5053626671434115  0.2475486383063622
  0.1231613132539564  0.4951963342134628  0.7588466083234544
  0.6236801178564330  0.9954164718765413  0.7434609888891797
  0.6252555399757016  0.4984734820470409  0.2489921596659370
  0.6264166174787171  0.4951468924102188  0.7522063869984007
  0.1251138111205576  0.2504025801282398  0.9973823962258099
  0.1233931580448545  0.2439575761913665  0.5009212696149401
  0.1251068425644651  0.7483125218060382  0.0008607004757055
  0.1243274942182817  0.7461851045757225  0.4978116067402418
  0.6260659119499122  0.2496966770226386  0.9973384545639135
  0.1245449818873121  0.2401661816644055  0.2530298414951546
  0.1235624711025781  0.7523467084413069  0.7494867776681395
  0.6262306202568081  0.7526618271089999  0.7497541234974070
  0.3771100725321218  0.0015105196075988  0.4983532429434339
  0.3734310441149062  0.4983039597448515  0.0046050104097336
  0.8749173672955373  0.0018872961780677  0.5083929066445469
  0.8746013950513629  0.5000072188872008  0.9971835582484426
  0.3774408779015208  0.9975010398265726  0.2543058546616019
  0.3746305198512612  0.4960093170684278  0.7453195792466121
  0.8739566738431188  0.0002582689449147  0.2469511633563568
  0.8742496713806838  0.9925366688562653  0.7420576315650571
  0.3786745668440115  0.2468339590906176  0.4965247569530100
  0.3766035338401479  0.7535677066375071  0.0011699551674250
  0.3770709361611971  0.7480323850817927  0.5006664248828686
  0.8742290902218145  0.2525669716968426  0.5020599341278188
  0.8723426752404109  0.7514043470889432  0.9990946898658684
  0.8726118025647382  0.7469365393074110  0.5016671773961525
  0.3780185773451444  0.2540816604359376  0.2505791889999974
  0.3761819679680803  0.2501544943234537  0.7533645276531843
  0.3772992090582045  0.7481669380579363  0.2480478635715177
  0.3750964490796895  0.7559134789307819  0.7495178318376323
  0.8740553513551141  0.2514820196081231  0.2485545027253044
  0.8741795518604601  0.2550557371002942  0.7491962231504788
  0.8739360683754674  0.7472821137959409  0.2498750365733460
  0.0045862493006964  0.1269487631703383  0.0014464389320952
  0.9955605863290107  0.1253840598357465  0.5079083601959903
  0.9959843539006912  0.6254243827944946  0.9960860496220423
  0.9996386003814270  0.6262458373570416  0.4939411777075204
  0.5054983999111375  0.1246575715561376  0.0005467962715603
  0.4927980443853291  0.6275312208998050  0.0017722748641444
  0.5031934707699287  0.6267194505655674  0.4991427718163358
  0.9947659780550566  0.1274120746878674  0.2468682174007739
  0.0001781707274511  0.6235315523718148  0.2550595784825236
  0.0080585824184401  0.6245487507904510  0.7546072189951025
  0.5017766657536461  0.6262515517150248  0.2517189398279908
  0.0032609198175780  0.3735576304490256  0.4982473005748349
  0.4978501656907748  0.3722601744749071  0.5035054407880580
  0.4940474061697123  0.8781636253164850  0.4961115612994628
  0.9971679512705836  0.3742374908445353  0.7512396460254699
  0.9945523682779024  0.8757895285446750  0.2522227731626270
  0.0016022800566480  0.8757948016497279  0.7475047550440284
  0.5012686097193370  0.3719098398375582  0.2451714784374965
  0.4979862012909711  0.3732243690507333  0.7472529702624440
  0.4958796269038105  0.8760513846305984  0.2495528284776741
  0.5030696985753118  0.8752924811313283  0.7537170981869720
  0.2452861162171528  0.1247978589560891  0.9937019980703811
  0.2527167882940222  0.1241953007884024  0.4963489618821292
  0.2482220429202733  0.6262636382008592  0.5030848232189672
  0.7425470936880421  0.1258829912441650  0.9999835635703697
  0.7580848108742831  0.6256557321049097  0.0010414218129695
  0.7474975206430114  0.6254787036723586  0.4993688612692517
  0.2572118360270049  0.1261707765209989  0.2544000288637127
  0.2512351770502999  0.1243731879197076  0.7568732857513177
  0.2503986180572556  0.6237971482276347  0.2432482661100284
  0.7560404704505121  0.1256061206004260  0.2517860498045740
  0.7465336822082614  0.6252976908220773  0.2494899982034104
  0.7417406283314371  0.6250617640605273  0.7493396166252311
  0.2502776853904705  0.3759552429207106  0.9987948762365308
  0.2473978310510062  0.8741078234514637  0.0023517716102337
  0.7493097936528633  0.3748359924368675  0.9914372290897209
  0.7510299794380806  0.3723350232803416  0.4936598645907404
  0.7484743519731962  0.8750135671503726  0.0092530478252839
  0.7562099877572552  0.8763281363469601  0.5049135624221996
  0.2524197428751108  0.3757654005181538  0.7551577235347651
  0.2560681123806098  0.8754952458833053  0.2504972830949458
  0.2462670782489483  0.8735079971052971  0.7470227049396502
  0.7504417153435269  0.3741716876687607  0.2597395177158048
  0.7522970209824388  0.3736466381365676  0.7542728654252695
  0.7553104889064242  0.8750684034196460  0.2425065197389621
  0.7491136953858659  0.8752670930100831  0.7434332260309976
 
  0.00000000E+00  0.00000000E+00  0.00000000E+00
  0.00000000E+00  0.00000000E+00  0.00000000E+00
  0.00000000E+00  0.00000000E+00  0.00000000E+00
  0.00000000E+00  0.00000000E+00  0.00000000E+00
  0.00000000E+00  0.00000000E+00  0.00000000E+00
  0.00000000E+00  0.00000000E+00  0.00000000E+00
  0.00000000E+00  0.00000000E+00  0.00000000E+00
  0.00000000E+00  0.00000000E+00  0.00000000E+00
  0.00000000E+00  0.00000000E+00  0.00000000E+00
  0.00000000E+00  0.00000000E+00  0.00000000E+00
  0.00000000E+00  0.00000000E+00  0.00000000E+00
  0.00000000E+00  0.00000000E+00  0.00000000E+00
  0.00000000E+00  0.00000000E+00  0.00000000E+00
  0.00000000E+00  0.00000000E+00  0.00000000E+00
  0.00000000E+00  0.00000000E+00  0.00000000E+00
  0.00000000E+00  0.00000000E+00  0.00000000E+00
  0.00000000E+00  0.00000000E+00  0.00000000E+00
  0.00000000E+00  0.00000000E+00  0.00000000E+00
  0.00000000E+00  0.00000000E+00  0.00000000E+00
  0.00000000E+00  0.00000000E+00  0.00000000E+00
  0.00000000E+00  0.00000000E+00  0.00000000E+00
  0.00000000E+00  0.00000000E+00  0.00000000E+00
  0.00000000E+00  0.00000000E+00  0.00000000E+00
  0.00000000E+00  0.00000000E+00  0.00000000E+00
  0.00000000E+00  0.00000000E+00  0.00000000E+00
  0.00000000E+00  0.00000000E+00  0.00000000E+00
  0.00000000E+00  0.00000000E+00  0.00000000E+00
  0.00000000E+00  0.00000000E+00  0.00000000E+00
  0.00000000E+00  0.00000000E+00  0.00000000E+00
  0.00000000E+00  0.00000000E+00  0.00000000E+00
  0.00000000E+00  0.00000000E+00  0.00000000E+00
  0.00000000E+00  0.00000000E+00  0.00000000E+00
  0.00000000E+00  0.00000000E+00  0.00000000E+00
  0.00000000E+00  0.00000000E+00  0.00000000E+00
  0.00000000E+00  0.00000000E+00  0.00000000E+00
  0.00000000E+00  0.00000000E+00  0.00000000E+00
  0.00000000E+00  0.00000000E+00  0.00000000E+00
  0.00000000E+00  0.00000000E+00  0.00000000E+00
  0.00000000E+00  0.00000000E+00  0.00000000E+00
  0.00000000E+00  0.00000000E+00  0.00000000E+00
  0.00000000E+00  0.00000000E+00  0.00000000E+00
  0.00000000E+00  0.00000000E+00  0.00000000E+00
  0.00000000E+00  0.00000000E+00  0.00000000E+00
  0.00000000E+00  0.00000000E+00  0.00000000E+00
  0.00000000E+00  0.00000000E+00  0.00000000E+00
  0.00000000E+00  0.00000000E+00  0.00000000E+00
  0.00000000E+00  0.00000000E+00  0.00000000E+00
  0.00000000E+00  0.00000000E+00  0.00000000E+00
  0.00000000E+00  0.00000000E+00  0.00000000E+00
  0.00000000E+00  0.00000000E+00  0.00000000E+00
  0.00000000E+00  0.00000000E+00  0.00000000E+00
  0.00000000E+00  0.00000000E+00  0.00000000E+00
  0.00000000E+00  0.00000000E+00  0.00000000E+00
  0.00000000E+00  0.00000000E+00  0.00000000E+00
  0.00000000E+00  0.00000000E+00  0.00000000E+00
  0.00000000E+00  0.00000000E+00  0.00000000E+00
  0.00000000E+00  0.00000000E+00  0.00000000E+00
  0.00000000E+00  0.00000000E+00  0.00000000E+00
  0.00000000E+00  0.00000000E+00  0.00000000E+00
  0.00000000E+00  0.00000000E+00  0.00000000E+00
  0.00000000E+00  0.00000000E+00  0.00000000E+00
  0.00000000E+00  0.00000000E+00  0.00000000E+00
  0.00000000E+00  0.00000000E+00  0.00000000E+00
  0.00000000E+00  0.00000000E+00  0.00000000E+00
  0.00000000E+00  0.00000000E+00  0.00000000E+00
  0.00000000E+00  0.00000000E+00  0.00000000E+00
  0.00000000E+00  0.00000000E+00  0.00000000E+00
  0.00000000E+00  0.00000000E+00  0.00000000E+00
  0.00000000E+00  0.00000000E+00  0.00000000E+00
  0.00000000E+00  0.00000000E+00  0.00000000E+00
  0.00000000E+00  0.00000000E+00  0.00000000E+00
  0.00000000E+00  0.00000000E+00  0.00000000E+00
  0.00000000E+00  0.00000000E+00  0.00000000E+00
  0.00000000E+00  0.00000000E+00  0.00000000E+00
  0.00000000E+00  0.00000000E+00  0.00000000E+00
  0.00000000E+00  0.00000000E+00  0.00000000E+00
  0.00000000E+00  0.00000000E+00  0.00000000E+00
  0.00000000E+00  0.00000000E+00  0.00000000E+00
  0.00000000E+00  0.00000000E+00  0.00000000E+00
  0.00000000E+00  0.00000000E+00  0.00000000E+00
  0.00000000E+00  0.00000000E+00  0.00000000E+00
  0.00000000E+00  0.00000000E+00  0.00000000E+00
  0.00000000E+00  0.00000000E+00  0.00000000E+00
  0.00000000E+00  0.00000000E+00  0.00000000E+00
  0.00000000E+00  0.00000000E+00  0.00000000E+00
  0.00000000E+00  0.00000000E+00  0.00000000E+00
  0.00000000E+00  0.00000000E+00  0.00000000E+00
  0.00000000E+00  0.00000000E+00  0.00000000E+00
  0.00000000E+00  0.00000000E+00  0.00000000E+00
  0.00000000E+00  0.00000000E+00  0.00000000E+00
  0.00000000E+00  0.00000000E+00  0.00000000E+00
  0.00000000E+00  0.00000000E+00  0.00000000E+00
  0.00000000E+00  0.00000000E+00  0.00000000E+00
  0.00000000E+00  0.00000000E+00  0.00000000E+00
  0.00000000E+00  0.00000000E+00  0.00000000E+00
  0.00000000E+00  0.00000000E+00  0.00000000E+00
  0.00000000E+00  0.00000000E+00  0.00000000E+00
  0.00000000E+00  0.00000000E+00  0.00000000E+00
  0.00000000E+00  0.00000000E+00  0.00000000E+00
  0.00000000E+00  0.00000000E+00  0.00000000E+00
  0.00000000E+00  0.00000000E+00  0.00000000E+00
  0.00000000E+00  0.00000000E+00  0.00000000E+00
  0.00000000E+00  0.00000000E+00  0.00000000E+00
  0.00000000E+00  0.00000000E+00  0.00000000E+00
  0.00000000E+00  0.00000000E+00  0.00000000E+00
  0.00000000E+00  0.00000000E+00  0.00000000E+00
  0.00000000E+00  0.00000000E+00  0.00000000E+00
  0.00000000E+00  0.00000000E+00  0.00000000E+00
  0.00000000E+00  0.00000000E+00  0.00000000E+00
  0.00000000E+00  0.00000000E+00  0.00000000E+00
  0.00000000E+00  0.00000000E+00  0.00000000E+00
  0.00000000E+00  0.00000000E+00  0.00000000E+00
  0.00000000E+00  0.00000000E+00  0.00000000E+00
  0.00000000E+00  0.00000000E+00  0.00000000E+00
  0.00000000E+00  0.00000000E+00  0.00000000E+00
  0.00000000E+00  0.00000000E+00  0.00000000E+00
  0.00000000E+00  0.00000000E+00  0.00000000E+00
  0.00000000E+00  0.00000000E+00  0.00000000E+00
  0.00000000E+00  0.00000000E+00  0.00000000E+00
  0.00000000E+00  0.00000000E+00  0.00000000E+00
  0.00000000E+00  0.00000000E+00  0.00000000E+00
  0.00000000E+00  0.00000000E+00  0.00000000E+00
  0.00000000E+00  0.00000000E+00  0.00000000E+00
  0.00000000E+00  0.00000000E+00  0.00000000E+00
  0.00000000E+00  0.00000000E+00  0.00000000E+00
  0.00000000E+00  0.00000000E+00  0.00000000E+00
  0.00000000E+00  0.00000000E+00  0.00000000E+00
  0.00000000E+00  0.00000000E+00  0.00000000E+00
  0.00000000E+00  0.00000000E+00  0.00000000E+00
  0.00000000E+00  0.00000000E+00  0.00000000E+00
  0.00000000E+00  0.00000000E+00  0.00000000E+00
  0.00000000E+00  0.00000000E+00  0.00000000E+00
  0.00000000E+00  0.00000000E+00  0.00000000E+00
  0.00000000E+00  0.00000000E+00  0.00000000E+00
  0.00000000E+00  0.00000000E+00  0.00000000E+00
  0.00000000E+00  0.00000000E+00  0.00000000E+00
  0.00000000E+00  0.00000000E+00  0.00000000E+00
  0.00000000E+00  0.00000000E+00  0.00000000E+00
  0.00000000E+00  0.00000000E+00  0.00000000E+00
  0.00000000E+00  0.00000000E+00  0.00000000E+00
  0.00000000E+00  0.00000000E+00  0.00000000E+00
  0.00000000E+00  0.00000000E+00  0.00000000E+00
  0.00000000E+00  0.00000000E+00  0.00000000E+00
  0.00000000E+00  0.00000000E+00  0.00000000E+00
  0.00000000E+00  0.00000000E+00  0.00000000E+00
  0.00000000E+00  0.00000000E+00  0.00000000E+00
  0.00000000E+00  0.00000000E+00  0.00000000E+00
  0.00000000E+00  0.00000000E+00  0.00000000E+00
  0.00000000E+00  0.00000000E+00  0.00000000E+00
  0.00000000E+00  0.00000000E+00  0.00000000E+00
  0.00000000E+00  0.00000000E+00  0.00000000E+00
  0.00000000E+00  0.00000000E+00  0.00000000E+00
  0.00000000E+00  0.00000000E+00  0.00000000E+00
  0.00000000E+00  0.00000000E+00  0.00000000E+00
  0.00000000E+00  0.00000000E+00  0.00000000E+00
  0.00000000E+00  0.00000000E+00  0.00000000E+00
  0.00000000E+00  0.00000000E+00  0.00000000E+00
  0.00000000E+00  0.00000000E+00  0.00000000E+00
  0.00000000E+00  0.00000000E+00  0.00000000E+00
  0.00000000E+00  0.00000000E+00  0.00000000E+00
  0.00000000E+00  0.00000000E+00  0.00000000E+00
  0.00000000E+00  0.00000000E+00  0.00000000E+00
  0.00000000E+00  0.00000000E+00  0.00000000E+00
  0.00000000E+00  0.00000000E+00  0.00000000E+00
  0.00000000E+00  0.00000000E+00  0.00000000E+00
  0.00000000E+00  0.00000000E+00  0.00000000E+00
  0.00000000E+00  0.00000000E+00  0.00000000E+00
  0.00000000E+00  0.00000000E+00  0.00000000E+00
  0.00000000E+00  0.00000000E+00  0.00000000E+00
  0.00000000E+00  0.00000000E+00  0.00000000E+00
  0.00000000E+00  0.00000000E+00  0.00000000E+00
  0.00000000E+00  0.00000000E+00  0.00000000E+00
  0.00000000E+00  0.00000000E+00  0.00000000E+00
  0.00000000E+00  0.00000000E+00  0.00000000E+00
  0.00000000E+00  0.00000000E+00  0.00000000E+00
  0.00000000E+00  0.00000000E+00  0.00000000E+00
  0.00000000E+00  0.00000000E+00  0.00000000E+00
  0.00000000E+00  0.00000000E+00  0.00000000E+00
  0.00000000E+00  0.00000000E+00  0.00000000E+00
  0.00000000E+00  0.00000000E+00  0.00000000E+00
  0.00000000E+00  0.00000000E+00  0.00000000E+00
  0.00000000E+00  0.00000000E+00  0.00000000E+00
  0.00000000E+00  0.00000000E+00  0.00000000E+00
  0.00000000E+00  0.00000000E+00  0.00000000E+00
  0.00000000E+00  0.00000000E+00  0.00000000E+00
  0.00000000E+00  0.00000000E+00  0.00000000E+00
  0.00000000E+00  0.00000000E+00  0.00000000E+00
  0.00000000E+00  0.00000000E+00  0.00000000E+00
  0.00000000E+00  0.00000000E+00  0.00000000E+00
  0.00000000E+00  0.00000000E+00  0.00000000E+00
  0.00000000E+00  0.00000000E+00  0.00000000E+00
  0.00000000E+00  0.00000000E+00  0.00000000E+00
  0.00000000E+00  0.00000000E+00  0.00000000E+00
  0.00000000E+00  0.00000000E+00  0.00000000E+00
  0.00000000E+00  0.00000000E+00  0.00000000E+00
  0.00000000E+00  0.00000000E+00  0.00000000E+00
  0.00000000E+00  0.00000000E+00  0.00000000E+00
  0.00000000E+00  0.00000000E+00  0.00000000E+00
  0.00000000E+00  0.00000000E+00  0.00000000E+00
  0.00000000E+00  0.00000000E+00  0.00000000E+00
  0.00000000E+00  0.00000000E+00  0.00000000E+00
  0.00000000E+00  0.00000000E+00  0.00000000E+00
  0.00000000E+00  0.00000000E+00  0.00000000E+00
  0.00000000E+00  0.00000000E+00  0.00000000E+00
  0.00000000E+00  0.00000000E+00  0.00000000E+00
  0.00000000E+00  0.00000000E+00  0.00000000E+00
  0.00000000E+00  0.00000000E+00  0.00000000E+00
  0.00000000E+00  0.00000000E+00  0.00000000E+00
  0.00000000E+00  0.00000000E+00  0.00000000E+00
  0.00000000E+00  0.00000000E+00  0.00000000E+00
  0.00000000E+00  0.00000000E+00  0.00000000E+00
  0.00000000E+00  0.00000000E+00  0.00000000E+00
  0.00000000E+00  0.00000000E+00  0.00000000E+00
  0.00000000E+00  0.00000000E+00  0.00000000E+00
  0.00000000E+00  0.00000000E+00  0.00000000E+00
  0.00000000E+00  0.00000000E+00  0.00000000E+00
  0.00000000E+00  0.00000000E+00  0.00000000E+00
  0.00000000E+00  0.00000000E+00  0.00000000E+00
  0.00000000E+00  0.00000000E+00  0.00000000E+00
  0.00000000E+00  0.00000000E+00  0.00000000E+00
  0.00000000E+00  0.00000000E+00  0.00000000E+00
  0.00000000E+00  0.00000000E+00  0.00000000E+00
  0.00000000E+00  0.00000000E+00  0.00000000E+00
  0.00000000E+00  0.00000000E+00  0.00000000E+00
  0.00000000E+00  0.00000000E+00  0.00000000E+00
  0.00000000E+00  0.00000000E+00  0.00000000E+00
  0.00000000E+00  0.00000000E+00  0.00000000E+00
  0.00000000E+00  0.00000000E+00  0.00000000E+00
  0.00000000E+00  0.00000000E+00  0.00000000E+00
  0.00000000E+00  0.00000000E+00  0.00000000E+00
  0.00000000E+00  0.00000000E+00  0.00000000E+00
  0.00000000E+00  0.00000000E+00  0.00000000E+00
  0.00000000E+00  0.00000000E+00  0.00000000E+00
  0.00000000E+00  0.00000000E+00  0.00000000E+00
  0.00000000E+00  0.00000000E+00  0.00000000E+00
  0.00000000E+00  0.00000000E+00  0.00000000E+00
  0.00000000E+00  0.00000000E+00  0.00000000E+00
  0.00000000E+00  0.00000000E+00  0.00000000E+00
  0.00000000E+00  0.00000000E+00  0.00000000E+00
  0.00000000E+00  0.00000000E+00  0.00000000E+00
  0.00000000E+00  0.00000000E+00  0.00000000E+00
  0.00000000E+00  0.00000000E+00  0.00000000E+00
  0.00000000E+00  0.00000000E+00  0.00000000E+00
  0.00000000E+00  0.00000000E+00  0.00000000E+00
  0.00000000E+00  0.00000000E+00  0.00000000E+00
  0.00000000E+00  0.00000000E+00  0.00000000E+00
  0.00000000E+00  0.00000000E+00  0.00000000E+00
  0.00000000E+00  0.00000000E+00  0.00000000E+00
  0.00000000E+00  0.00000000E+00  0.00000000E+00
  0.00000000E+00  0.00000000E+00  0.00000000E+00
  0.00000000E+00  0.00000000E+00  0.00000000E+00
  0.00000000E+00  0.00000000E+00  0.00000000E+00
  0.00000000E+00  0.00000000E+00  0.00000000E+00
  0.00000000E+00  0.00000000E+00  0.00000000E+00
  0.00000000E+00  0.00000000E+00  0.00000000E+00
  0.00000000E+00  0.00000000E+00  0.00000000E+00
