TiOF2 2x2x2 config 0005                 
   1.00000000000000     
     7.9336473665688008   -0.0000000002394460    0.0000000416119551
     0.0000000005180482    7.7988848440402814   -0.0000000195022274
     0.0000000393324164   -0.0000000198840483    7.5350456784164139
   Ti   O    F 
     8     8    16
Direct
  0.9999999971800881  0.0001417406325846  0.9888681620335982
  0.0000000028444747  0.0001417441630718  0.5111318551238015
  0.0000000028239360  0.4998583103630720  0.0111318409239668
  0.9999999971451509  0.4998583103891441  0.4888681440037676
  0.4999999971662228  0.9876233538639515  0.0003721514998790
  0.5000000028274166  0.9876233571165635  0.4996279425066678
  0.5000000028322723  0.5123765972086528  0.9996278559256858
  0.4999999971726700  0.5123765976967685  0.5003720459060517
  0.5000000000045984  0.7499999754550748  0.0000000777702543
  0.4999999999914960  0.7499999769784289  0.4999999212783397
  0.0000000000910731  0.9996595914917370  0.7500000114662855
  0.9999999999133592  0.5003404423400819  0.2499999891550628
  0.5000000000490848  0.0054613076097212  0.2500000147239863
  0.4999999999466770  0.0053488645643317  0.7500000146422316
  0.5000000000316817  0.4946509438261122  0.2499999846532166
  0.4999999999544230  0.4945387743515280  0.7499999844845626
  0.2368026938997429  0.0010375728017755  0.0058748267919263
  0.2368026980036141  0.0010375891516217  0.4941251903235143
  0.2368026944610522  0.4989624294463185  0.9941251151698909
  0.2368026943053917  0.4989624053799625  0.5058748111584587
  0.7631973039496260  0.0010375659280364  0.0058748551350630
  0.7631973041747198  0.0010375958063749  0.4941252190335059
  0.7631973076872489  0.4989624224923814  0.9941251435240739
  0.7631973035043567  0.4989624120002986  0.5058748398474411
  0.0000000000266115  0.2500000226412216  0.9999999791505848
  0.0000000000178030  0.2500000242404676  0.5000000225512083
  0.9999999999845455  0.7500000216636648  0.9999999980390458
  0.9999999999844549  0.7500000234156690  0.5000000028534926
  0.5000000000123210  0.2499999765182169  0.9999999219126908
  0.5000000000303872  0.2499999776597920  0.5000000774268281
  0.9999999999510210  0.9996013561010959  0.2500000104833080
  0.0000000000324858  0.5003987167022780  0.7499999905016091
 
  0.00000000E+00  0.00000000E+00  0.00000000E+00
  0.00000000E+00  0.00000000E+00  0.00000000E+00
  0.00000000E+00  0.00000000E+00  0.00000000E+00
  0.00000000E+00  0.00000000E+00  0.00000000E+00
  0.00000000E+00  0.00000000E+00  0.00000000E+00
  0.00000000E+00  0.00000000E+00  0.00000000E+00
  0.00000000E+00  0.00000000E+00  0.00000000E+00
  0.00000000E+00  0.00000000E+00  0.00000000E+00
  0.00000000E+00  0.00000000E+00  0.00000000E+00
  0.00000000E+00  0.00000000E+00  0.00000000E+00
  0.00000000E+00  0.00000000E+00  0.00000000E+00
  0.00000000E+00  0.00000000E+00  0.00000000E+00
  0.00000000E+00  0.00000000E+00  0.00000000E+00
  0.00000000E+00  0.00000000E+00  0.00000000E+00
  0.00000000E+00  0.00000000E+00  0.00000000E+00
  0.00000000E+00  0.00000000E+00  0.00000000E+00
  0.00000000E+00  0.00000000E+00  0.00000000E+00
  0.00000000E+00  0.00000000E+00  0.00000000E+00
  0.00000000E+00  0.00000000E+00  0.00000000E+00
  0.00000000E+00  0.00000000E+00  0.00000000E+00
  0.00000000E+00  0.00000000E+00  0.00000000E+00
  0.00000000E+00  0.00000000E+00  0.00000000E+00
  0.00000000E+00  0.00000000E+00  0.00000000E+00
  0.00000000E+00  0.00000000E+00  0.00000000E+00
  0.00000000E+00  0.00000000E+00  0.00000000E+00
  0.00000000E+00  0.00000000E+00  0.00000000E+00
  0.00000000E+00  0.00000000E+00  0.00000000E+00
  0.00000000E+00  0.00000000E+00  0.00000000E+00
  0.00000000E+00  0.00000000E+00  0.00000000E+00
  0.00000000E+00  0.00000000E+00  0.00000000E+00
  0.00000000E+00  0.00000000E+00  0.00000000E+00
  0.00000000E+00  0.00000000E+00  0.00000000E+00
