config 59                               
   1.00000000000000     
    15.4263309999999993    0.0000000000000000    0.0000000000000000
     0.0000000000000000   15.4263309999999993    0.0000000000000000
     0.0000000000000000    0.0000000000000000   15.4263309999999993
   Li   Ti   O    F 
     1    64    64   128
Direct
  0.8740871552583633  0.5635982590468692  0.6228866393961059
  0.9954062909658369  0.9939096008394128  0.9946654325863009
  0.9989272111035697  0.9904248007053756  0.4941250898335961
  0.0058547954851852  0.4953023866546135  0.9983389019493613
  0.9957396677171810  0.5049922832982743  0.5046651115497741
  0.4941000957628452  0.9934351027293474  0.0001024208980418
  0.5019515249993863  0.0097059708322791  0.4984745839612938
  0.5039558574239155  0.4952950413569362  0.9962426956099855
  0.4912985626068689  0.4995892774269067  0.4954422299207779
  0.0063170716709294  0.0021980680644173  0.2557100855865960
  0.0034790412733223  0.0070056489184194  0.7575443535045020
  0.9933473629488313  0.4925123459458503  0.2499181673867182
  0.9951357603799187  0.5011725122332843  0.7432305970252606
  0.5048310065584395  0.0088936107927237  0.2505116094703507
  0.4938749363324242  0.0068966927644155  0.7525378706868081
  0.4919850001906093  0.4958227109545366  0.2573700135252308
  0.5020811082262977  0.5046267846113768  0.7588812268273649
  0.9957580761351946  0.2579395571279458  0.0024991476316542
  0.9991539141393262  0.2492877179203989  0.4909803725070954
  0.9977324410983368  0.7572994711825535  0.0072178828200306
  0.9970093632674750  0.7562731534088802  0.5066177147795220
  0.4953734701083048  0.2584487680950990  0.0019016140001175
  0.5098470091631395  0.2465455207242419  0.4978534857678351
  0.5067827764709828  0.7563898296109715  0.9995538588962758
  0.5071271047665838  0.7538988961590360  0.5089832614923583
  0.9991066274138611  0.2589289808386065  0.2546967132539362
  0.0089436686593132  0.2432488066427648  0.7489368239606986
  0.0056479158724644  0.7468143628789425  0.2433143629795021
  0.9927198916230999  0.7496854540651025  0.7431893457884414
  0.5073181270740484  0.2409238962857325  0.2521054683094750
  0.5088610894574215  0.2442292714328157  0.7514664987081847
  0.5055615598223401  0.7509987725819310  0.2521422995674433
  0.5032881507391579  0.7419591533643369  0.7441301564183526
  0.2562486606486388  0.9974672148037387  0.0054802490858220
  0.2516411502535356  0.9933632980177621  0.5060098885469271
  0.2433756592070776  0.5081809961358466  0.9977689416455198
  0.2556216199945275  0.4943460960751638  0.5068341984532178
  0.7566014349521925  0.9998551230788947  0.9937409471678177
  0.7496785408685868  0.0085532956360490  0.4944024490206078
  0.7408953087202028  0.5011847387576364  0.0042716542741385
  0.7506190877877119  0.4986522570898586  0.5003232737195897
  0.2440538962631396  0.0020954730086811  0.2430780325642031
  0.2589790602400073  0.9989162055745336  0.7439614553417039
  0.2545687944908708  0.4912552007704081  0.2517969067548487
  0.2473533170478995  0.5066353796151232  0.7412006464027726
  0.7433006325513959  0.0012733685027166  0.2555930728563567
  0.7473460142250736  0.0073642500071335  0.7560555316661332
  0.7550777276059066  0.4982951573269864  0.2407977094425480
  0.7569791515911773  0.4996231790818632  0.7438795321163016
  0.2572670890279608  0.2517408281512499  0.0062649500296581
  0.2546056093112253  0.2568558839124067  0.5052862029375464
  0.2515498471306813  0.7420726151018123  0.9938444564130092
  0.2525655500981325  0.7555971975726306  0.4929933898918374
  0.7571407014007524  0.2518875804215705  0.0075604701644234
  0.7429954959250480  0.2438672403927246  0.4968494935982459
  0.7409934955810967  0.7493485283784030  0.9945460587862931
  0.7405326838467274  0.7543873275063021  0.4940029560080381
  0.2503685790856694  0.2574186210529981  0.2434977414621232
  0.2446825145858940  0.2530622239955290  0.7437128225633104
  0.2426807325481460  0.7469968779120447  0.2561329512531074
  0.2471685887604509  0.7418316863836738  0.7565448370545196
  0.7409849052675083  0.2503285636890488  0.2422903824478848
  0.7444599821552024  0.2430974980203603  0.7511280447575454
  0.7445442469432291  0.7498900704489897  0.2572086677594813
  0.7582509639653138  0.7511117100584419  0.7576511389286447
  0.0043828058636271  0.5180774462062415  0.6263245645020262
  0.0001808148559437  0.9943043096789276  0.3759527109554533
  0.0041805129069563  0.9923962201373805  0.8728387518786508
  0.4961136296563147  0.4889923348276337  0.3752785965569477
  0.4934277342331339  0.4920714446551017  0.8747166780219593
  0.9995284076733721  0.7380624280849312  0.1258561948293297
  0.0023067641075121  0.7358372316471635  0.6244578213898396
  0.5043070505729015  0.7452311900608429  0.6247891952794323
  0.9900619331575072  0.2589933266178053  0.3763279993764476
  0.2568526921289227  1.0000066555345100  0.1249810672699360
  0.2593789756959169  0.0023688475315752  0.6248930180688658
  0.2399057539034180  0.4941730342261199  0.6262678250901771
  0.7463474275452529  0.4906290411726696  0.1245571828679182
  0.7538183816463303  0.5043812355221622  0.6275264814276112
  0.7459193033280026  0.0010041151460161  0.3756236963215414
  0.7422709253276342 -0.0000049343883255  0.8734623252389221
  0.2412413977476945  0.2508434325190290  0.1255715303728308
  0.2478635046372493  0.2510882872670251  0.6249943281869659
  0.7375232424602494  0.2588410003427207  0.1260918749174822
  0.2547028153514245  0.7451266549462019  0.3748632260640911
  0.2525026641025285  0.7501468605499931  0.8751807098983136
  0.7531057385205219  0.7520872758003918  0.3740981614223119
  0.7519347516057595  0.7525903167628877  0.8760359931053362
  0.1240004077840820  0.5087088354007978  0.9918480845048088
  0.6252084350514764  0.5122725211878261  0.9957537356744823
  0.1245753166322973  0.0079204339105833  0.2477125228482826
  0.6236962625711644  0.0079445191667071  0.2465386259170149
  0.6250090471335867  0.2645342541730739  0.4884151203154078
  0.6238253681257759  0.7368956433419623  0.9994593905196242
  0.6237744009672058  0.7718827794848585  0.4950886514170590
  0.1257491238629512  0.2632623658542720  0.7545036701332039
  0.1240775119881228  0.7444329931589236  0.2537693685143424
  0.6248382583796557  0.2393329232237289  0.2649743182383297
  0.6268132058728005  0.2627060163577666  0.7549538657183953
  0.6216428809164076  0.7463775864083061  0.2531255009969853
  0.3757146934448336  0.9930922909783160  0.9906898655263975
  0.3752318599145805  0.5126066909227320  0.5063371099924342
  0.8726267749758978  0.9943794459771386  0.9965169529628988
  0.8811131889595563  0.5173650011598223  0.5053917459556400
  0.3769076331024570  0.0093520368496004  0.7596317152694735
  0.3732682478702384  0.4909038552174863  0.2456225140363711
  0.8751930940872843  0.4914681155848616  0.2475449539368448
  0.8771031356979846  0.5214610971132080  0.7444909401124925
  0.3759228239521800  0.2538657993520700  0.0090400198398547
  0.8742460552362467  0.2554944598000126  0.0099236241540128
  0.8750123318263371  0.7325396370412653  0.7462011299621260
  0.5167772823158078  0.1233121955034275  0.4874304111418601
  0.0107632114083778  0.1263489048284452  0.7560263259074579
  0.4888367122497636  0.1248337987695571  0.2671664747027244
  0.5126329248064831  0.1247502123810194  0.7566962295464652
  0.5128194351977151  0.6257761666452383  0.7571367338403256
  0.0061993698677833  0.3753749900992895  0.0119707910942888
  0.0071892791629425  0.8742662122215248  0.0090968309524010
  0.9841303983158101  0.8743832661145757  0.5091866557157657
  0.5081989660393861  0.3741846342158326  0.0118565142531946
  0.5090896800138879  0.8749777284385191  0.0115392335601956
  0.0107153078276988  0.3737013247790958  0.2384087132310023
  0.2599316042049556  0.6249524176375654  0.0044306049978924
  0.7340707257062690  0.1254778492115280  0.5041660902188208
  0.2364010315330728  0.6249311359452325  0.7485670289169448
  0.7404926131615642  0.1255728411833054  0.7442850115854894
  0.2623099523789814  0.3729757501061568  0.4934725224725315
  0.2630470844310100  0.8758215844617896  0.4981426899123728
  0.2380463772871631  0.3739302514686309  0.2577031147009409
  0.9951954099574998  0.0104410789552114  0.1264843433153612
  0.9988930656318179  0.0090692149101718  0.6233257840471268
  0.0038071510271268  0.5158372680225474  0.1252351347334823
  0.4900108383272417  0.0139623523713146  0.1262924609730060
  0.4938180215007611  0.0082853728345257  0.6227131827719776
  0.5034756970382415  0.5115716841141167  0.1275101463203280
  0.5078266472537027  0.5060611508817177  0.6254034850253953
  0.9999977075578328  0.4860180046446529  0.3755930062355027
  0.9927955832961628  0.4882897661025439  0.8732082904832362
  0.5071576200873265  0.9823214047784801  0.3765154472988382
  0.5162516793862200  0.9894348767405591  0.8749533070160143
  0.0101719757483796  0.2363952169051390  0.1275184736087473
  0.0066805285897853  0.2447326409631005  0.6214808353184577
  0.5127286555608597  0.2334335617984087  0.1268762071063276
  0.5075780377950606  0.2403667998817056  0.6229086788176258
  0.4972418719175146  0.7385282533047257  0.1269866449935378
  0.9910546418552274  0.2620147873661572  0.8743967515348646
  0.9921336972190357  0.7583954424061090  0.3755983637109904
  0.9976464887260249  0.7581203419670979  0.8738554227907310
  0.4863202188015819  0.2664103497507788  0.3754675218913201
  0.4932220445161706  0.2602997863273041  0.8747590004562145
  0.4907620209747715  0.7625545102011863  0.3756387578648874
  0.4956447009709731  0.7609319356178856  0.8740910419209658
  0.2403064160254102  0.4928555276232184  0.1248237915055151
  0.7517769662497973  0.0011973210089326  0.1260686589866422
  0.7526780837973907  0.9956637117631103  0.6231517046627765
  0.2477938197412294  0.0027826452836548  0.3752961419116728
  0.2409753726727834  0.9968900857519349  0.8738708175700499
  0.2504833666565661  0.5113398502395317  0.3753444623552222
  0.2603340932565777  0.5000823799182883  0.8736561710195052
  0.7496389617038508  0.5070983511385463  0.3718850787956006
  0.7561418821745876  0.5057217169884782  0.8750521774581365
  0.2483760665664577  0.7556415629540790  0.1250308820987366
  0.2479302696531725  0.7528276028933912  0.6251582781919997
  0.7463961453309269  0.2597720399540617  0.6230956545350813
  0.7486498017543639  0.7506510141421998  0.1258241655397438
  0.7467188685457833  0.7500554797628546  0.6250179684643706
  0.2591175893987685  0.2420963716500455  0.3742078753430332
  0.2577373629699526  0.2490324203685335  0.8750034133535364
  0.7657461782807953  0.2421372768282709  0.3733128432152375
  0.7592563281514439  0.2456887043618329  0.8759076697987943
  0.1256649868346328  0.0081598003900734  0.0046192241574070
  0.1250335494702428  0.9886550097415308  0.5046123991134586
  0.1252996623590675  0.4890687527733816  0.4924524545561069
  0.6242954893280136  0.0088775215241663  0.0094060252950686
  0.6239012404906319  0.9797945176863039  0.5073284536060705
  0.6197315149984806  0.4822396429827246  0.4987549976799300
  0.1274673426955879  0.9869060069466091  0.7419732399872366
  0.1232895658620007  0.5111327951330352  0.2533785256033418
  0.1237325867337221  0.4843113938631411  0.7622652572850894
  0.6240439329888322  0.9851329105829407  0.7375984129515912
  0.6244314679909331  0.5058753397808798  0.2526289866852313
  0.6279327174623774  0.4849930268756804  0.7560377354899921
  0.1247279127090190  0.2440679588295668  0.9908104607380718
  0.1244952581932414  0.2590882693811952  0.4917758548938660
  0.1240700809213224  0.7387140379209619  0.9976491904521514
  0.1242512278177793  0.7639440014031392  0.4963320163029161
  0.6260393168245959  0.2426755989860349  0.9894303288399394
  0.1239560825215794  0.2344524722028793  0.2611741266201630
  0.1231910235027304  0.7658346530994412  0.7518921616935252
  0.6269619475685522  0.7655372050313347  0.7529403633573433
  0.3780469623620986  0.0165585583095075  0.4898196687577066
  0.3729865319526287  0.4908959774865255  0.0091580812240482
  0.8750261374936631  0.0193048294275302  0.5006935169017098
  0.8745520827044386  0.4929239612153610  0.0028910887878751
  0.3764114348787113  0.9903225728720688  0.2589249651217027
  0.3754641751116638  0.5106792697591185  0.7412349192368161
  0.8729747359227408  0.9934008776188475  0.2507554272075075
  0.8749135915602866  0.0080955377084601  0.7483547435753773
  0.3798967674001753  0.2326514553122870  0.5048448554566382
  0.3756631300795873  0.7620085420852102  0.0038597977122068
  0.3774835971267666  0.7368130069884731  0.5034409744309496
  0.8757805022828468  0.2350741183350382  0.5093439851888516
  0.8714279933586521  0.7605230988379418  0.0028455201362271
  0.8724099734093665  0.7317822753238095  0.5054500171117076
  0.3778293217860322  0.2607604251602221  0.2405938362609024
  0.3776276305556469  0.2410184997255226  0.7453140453774227
  0.3757370025983154  0.7546746123667586  0.2457881459689956
  0.3754651564431784  0.7411471281191826  0.7472738877803861
  0.8734786806690176  0.2601029054604614  0.2400011070188847
  0.8757627143522461  0.2440394379842135  0.7421390573909362
  0.8726968198357471  0.7546578595113117  0.2471295739612750
  0.9960113594599804  0.1270211786007315  0.9923023092622043
  0.0129011314714054  0.1255696221054132  0.4945600997460988
  0.9880412322608403  0.6249080315189290  0.9883211756419498
  0.0173462653499531  0.6281928930467983  0.4831822983241816
  0.4975402866354576  0.1242778607885967  0.9901026283750605
  0.4851540035001936  0.6274229389890956  0.9939592012889216
  0.5146850780010677  0.6274410153531309  0.4895530818709276
  0.9870025334650250  0.1274460491062577  0.2573295105857300
  0.9910338964123202  0.6226556648499251  0.2646824074381451
  0.0200305071314893  0.6254539679417136  0.7656951116420972
  0.4924478550049574  0.6260437077853431  0.2619507952567154
  0.9911637267998316  0.3739845984280355  0.5118416045496264
  0.4839573167914116  0.3711219154252738  0.5122985458250083
  0.4818412277193745  0.8795805004913421  0.5081477930591520
  0.9873540862378876  0.3761380066740199  0.7380326398024649
  0.0015209827971535  0.8752709725395491  0.2413475556136060
  0.9878253437958061  0.8752727877372509  0.7378562753001758
  0.5094321927729560  0.3712702164476206  0.2375835440726380
  0.4904783574284323  0.3741110732472313  0.7389392116784463
  0.5024985948388095  0.8759571535665263  0.2384361969569703
  0.4919155409510366  0.8761119333836256  0.7436177791716150
  0.2532911038252428  0.1244673183095139  0.9956544133925391
  0.2393624120191031  0.1241170097435230  0.4982313846908215
  0.2378311391461687  0.6269411820348886  0.5054479585396253
  0.7525109780985050  0.1262363624465179  0.0039724577188690
  0.7650942350620750  0.6257741338767862  0.0049848645175106
  0.7311662568492788  0.6304153503630491  0.5009740575699496
  0.2630699664856720  0.1260662138069228  0.2508780764548218
  0.2393240407460522  0.1248683475538529  0.7543515170979618
  0.2561319693165330  0.6231245751614809  0.2403552494989920
  0.7638085971516626  0.1260954597228587  0.2452186192506528
  0.7544568375370746  0.6250977765649510  0.2446464938063190
  0.7311032310685580  0.6264438009218245  0.7512943265831141
  0.2428312184060938  0.3759788032296173  0.9952398314510635
  0.2380410420031134  0.8734698470429649  0.0003519830222273
  0.7405356219033412  0.3751661693980043  0.9870928859887539
  0.7684425828763831  0.3683452335650498  0.4914294958946278
  0.7364068199247408  0.8751147538154994  0.0058541222626551
  0.7691345908979780  0.8776574154453587  0.5019562610660921
  0.2651109397669720  0.3766793865166979  0.7567611069477927
  0.2463897087982920  0.8751094556686095  0.2529954144626463
  0.2611478963119035  0.8735939766930513  0.7486286213082387
  0.7403528444319338  0.3740850585133655  0.2643940858801647
  0.7659736308924262  0.3750267696144126  0.7552659342109371
  0.7443494733042914  0.8755369206027881  0.2452943894726134
  0.7635307004391404  0.8759961466426581  0.7461107844390754
 
  0.00000000E+00  0.00000000E+00  0.00000000E+00
  0.00000000E+00  0.00000000E+00  0.00000000E+00
  0.00000000E+00  0.00000000E+00  0.00000000E+00
  0.00000000E+00  0.00000000E+00  0.00000000E+00
  0.00000000E+00  0.00000000E+00  0.00000000E+00
  0.00000000E+00  0.00000000E+00  0.00000000E+00
  0.00000000E+00  0.00000000E+00  0.00000000E+00
  0.00000000E+00  0.00000000E+00  0.00000000E+00
  0.00000000E+00  0.00000000E+00  0.00000000E+00
  0.00000000E+00  0.00000000E+00  0.00000000E+00
  0.00000000E+00  0.00000000E+00  0.00000000E+00
  0.00000000E+00  0.00000000E+00  0.00000000E+00
  0.00000000E+00  0.00000000E+00  0.00000000E+00
  0.00000000E+00  0.00000000E+00  0.00000000E+00
  0.00000000E+00  0.00000000E+00  0.00000000E+00
  0.00000000E+00  0.00000000E+00  0.00000000E+00
  0.00000000E+00  0.00000000E+00  0.00000000E+00
  0.00000000E+00  0.00000000E+00  0.00000000E+00
  0.00000000E+00  0.00000000E+00  0.00000000E+00
  0.00000000E+00  0.00000000E+00  0.00000000E+00
  0.00000000E+00  0.00000000E+00  0.00000000E+00
  0.00000000E+00  0.00000000E+00  0.00000000E+00
  0.00000000E+00  0.00000000E+00  0.00000000E+00
  0.00000000E+00  0.00000000E+00  0.00000000E+00
  0.00000000E+00  0.00000000E+00  0.00000000E+00
  0.00000000E+00  0.00000000E+00  0.00000000E+00
  0.00000000E+00  0.00000000E+00  0.00000000E+00
  0.00000000E+00  0.00000000E+00  0.00000000E+00
  0.00000000E+00  0.00000000E+00  0.00000000E+00
  0.00000000E+00  0.00000000E+00  0.00000000E+00
  0.00000000E+00  0.00000000E+00  0.00000000E+00
  0.00000000E+00  0.00000000E+00  0.00000000E+00
  0.00000000E+00  0.00000000E+00  0.00000000E+00
  0.00000000E+00  0.00000000E+00  0.00000000E+00
  0.00000000E+00  0.00000000E+00  0.00000000E+00
  0.00000000E+00  0.00000000E+00  0.00000000E+00
  0.00000000E+00  0.00000000E+00  0.00000000E+00
  0.00000000E+00  0.00000000E+00  0.00000000E+00
  0.00000000E+00  0.00000000E+00  0.00000000E+00
  0.00000000E+00  0.00000000E+00  0.00000000E+00
  0.00000000E+00  0.00000000E+00  0.00000000E+00
  0.00000000E+00  0.00000000E+00  0.00000000E+00
  0.00000000E+00  0.00000000E+00  0.00000000E+00
  0.00000000E+00  0.00000000E+00  0.00000000E+00
  0.00000000E+00  0.00000000E+00  0.00000000E+00
  0.00000000E+00  0.00000000E+00  0.00000000E+00
  0.00000000E+00  0.00000000E+00  0.00000000E+00
  0.00000000E+00  0.00000000E+00  0.00000000E+00
  0.00000000E+00  0.00000000E+00  0.00000000E+00
  0.00000000E+00  0.00000000E+00  0.00000000E+00
  0.00000000E+00  0.00000000E+00  0.00000000E+00
  0.00000000E+00  0.00000000E+00  0.00000000E+00
  0.00000000E+00  0.00000000E+00  0.00000000E+00
  0.00000000E+00  0.00000000E+00  0.00000000E+00
  0.00000000E+00  0.00000000E+00  0.00000000E+00
  0.00000000E+00  0.00000000E+00  0.00000000E+00
  0.00000000E+00  0.00000000E+00  0.00000000E+00
  0.00000000E+00  0.00000000E+00  0.00000000E+00
  0.00000000E+00  0.00000000E+00  0.00000000E+00
  0.00000000E+00  0.00000000E+00  0.00000000E+00
  0.00000000E+00  0.00000000E+00  0.00000000E+00
  0.00000000E+00  0.00000000E+00  0.00000000E+00
  0.00000000E+00  0.00000000E+00  0.00000000E+00
  0.00000000E+00  0.00000000E+00  0.00000000E+00
  0.00000000E+00  0.00000000E+00  0.00000000E+00
  0.00000000E+00  0.00000000E+00  0.00000000E+00
  0.00000000E+00  0.00000000E+00  0.00000000E+00
  0.00000000E+00  0.00000000E+00  0.00000000E+00
  0.00000000E+00  0.00000000E+00  0.00000000E+00
  0.00000000E+00  0.00000000E+00  0.00000000E+00
  0.00000000E+00  0.00000000E+00  0.00000000E+00
  0.00000000E+00  0.00000000E+00  0.00000000E+00
  0.00000000E+00  0.00000000E+00  0.00000000E+00
  0.00000000E+00  0.00000000E+00  0.00000000E+00
  0.00000000E+00  0.00000000E+00  0.00000000E+00
  0.00000000E+00  0.00000000E+00  0.00000000E+00
  0.00000000E+00  0.00000000E+00  0.00000000E+00
  0.00000000E+00  0.00000000E+00  0.00000000E+00
  0.00000000E+00  0.00000000E+00  0.00000000E+00
  0.00000000E+00  0.00000000E+00  0.00000000E+00
  0.00000000E+00  0.00000000E+00  0.00000000E+00
  0.00000000E+00  0.00000000E+00  0.00000000E+00
  0.00000000E+00  0.00000000E+00  0.00000000E+00
  0.00000000E+00  0.00000000E+00  0.00000000E+00
  0.00000000E+00  0.00000000E+00  0.00000000E+00
  0.00000000E+00  0.00000000E+00  0.00000000E+00
  0.00000000E+00  0.00000000E+00  0.00000000E+00
  0.00000000E+00  0.00000000E+00  0.00000000E+00
  0.00000000E+00  0.00000000E+00  0.00000000E+00
  0.00000000E+00  0.00000000E+00  0.00000000E+00
  0.00000000E+00  0.00000000E+00  0.00000000E+00
  0.00000000E+00  0.00000000E+00  0.00000000E+00
  0.00000000E+00  0.00000000E+00  0.00000000E+00
  0.00000000E+00  0.00000000E+00  0.00000000E+00
  0.00000000E+00  0.00000000E+00  0.00000000E+00
  0.00000000E+00  0.00000000E+00  0.00000000E+00
  0.00000000E+00  0.00000000E+00  0.00000000E+00
  0.00000000E+00  0.00000000E+00  0.00000000E+00
  0.00000000E+00  0.00000000E+00  0.00000000E+00
  0.00000000E+00  0.00000000E+00  0.00000000E+00
  0.00000000E+00  0.00000000E+00  0.00000000E+00
  0.00000000E+00  0.00000000E+00  0.00000000E+00
  0.00000000E+00  0.00000000E+00  0.00000000E+00
  0.00000000E+00  0.00000000E+00  0.00000000E+00
  0.00000000E+00  0.00000000E+00  0.00000000E+00
  0.00000000E+00  0.00000000E+00  0.00000000E+00
  0.00000000E+00  0.00000000E+00  0.00000000E+00
  0.00000000E+00  0.00000000E+00  0.00000000E+00
  0.00000000E+00  0.00000000E+00  0.00000000E+00
  0.00000000E+00  0.00000000E+00  0.00000000E+00
  0.00000000E+00  0.00000000E+00  0.00000000E+00
  0.00000000E+00  0.00000000E+00  0.00000000E+00
  0.00000000E+00  0.00000000E+00  0.00000000E+00
  0.00000000E+00  0.00000000E+00  0.00000000E+00
  0.00000000E+00  0.00000000E+00  0.00000000E+00
  0.00000000E+00  0.00000000E+00  0.00000000E+00
  0.00000000E+00  0.00000000E+00  0.00000000E+00
  0.00000000E+00  0.00000000E+00  0.00000000E+00
  0.00000000E+00  0.00000000E+00  0.00000000E+00
  0.00000000E+00  0.00000000E+00  0.00000000E+00
  0.00000000E+00  0.00000000E+00  0.00000000E+00
  0.00000000E+00  0.00000000E+00  0.00000000E+00
  0.00000000E+00  0.00000000E+00  0.00000000E+00
  0.00000000E+00  0.00000000E+00  0.00000000E+00
  0.00000000E+00  0.00000000E+00  0.00000000E+00
  0.00000000E+00  0.00000000E+00  0.00000000E+00
  0.00000000E+00  0.00000000E+00  0.00000000E+00
  0.00000000E+00  0.00000000E+00  0.00000000E+00
  0.00000000E+00  0.00000000E+00  0.00000000E+00
  0.00000000E+00  0.00000000E+00  0.00000000E+00
  0.00000000E+00  0.00000000E+00  0.00000000E+00
  0.00000000E+00  0.00000000E+00  0.00000000E+00
  0.00000000E+00  0.00000000E+00  0.00000000E+00
  0.00000000E+00  0.00000000E+00  0.00000000E+00
  0.00000000E+00  0.00000000E+00  0.00000000E+00
  0.00000000E+00  0.00000000E+00  0.00000000E+00
  0.00000000E+00  0.00000000E+00  0.00000000E+00
  0.00000000E+00  0.00000000E+00  0.00000000E+00
  0.00000000E+00  0.00000000E+00  0.00000000E+00
  0.00000000E+00  0.00000000E+00  0.00000000E+00
  0.00000000E+00  0.00000000E+00  0.00000000E+00
  0.00000000E+00  0.00000000E+00  0.00000000E+00
  0.00000000E+00  0.00000000E+00  0.00000000E+00
  0.00000000E+00  0.00000000E+00  0.00000000E+00
  0.00000000E+00  0.00000000E+00  0.00000000E+00
  0.00000000E+00  0.00000000E+00  0.00000000E+00
  0.00000000E+00  0.00000000E+00  0.00000000E+00
  0.00000000E+00  0.00000000E+00  0.00000000E+00
  0.00000000E+00  0.00000000E+00  0.00000000E+00
  0.00000000E+00  0.00000000E+00  0.00000000E+00
  0.00000000E+00  0.00000000E+00  0.00000000E+00
  0.00000000E+00  0.00000000E+00  0.00000000E+00
  0.00000000E+00  0.00000000E+00  0.00000000E+00
  0.00000000E+00  0.00000000E+00  0.00000000E+00
  0.00000000E+00  0.00000000E+00  0.00000000E+00
  0.00000000E+00  0.00000000E+00  0.00000000E+00
  0.00000000E+00  0.00000000E+00  0.00000000E+00
  0.00000000E+00  0.00000000E+00  0.00000000E+00
  0.00000000E+00  0.00000000E+00  0.00000000E+00
  0.00000000E+00  0.00000000E+00  0.00000000E+00
  0.00000000E+00  0.00000000E+00  0.00000000E+00
  0.00000000E+00  0.00000000E+00  0.00000000E+00
  0.00000000E+00  0.00000000E+00  0.00000000E+00
  0.00000000E+00  0.00000000E+00  0.00000000E+00
  0.00000000E+00  0.00000000E+00  0.00000000E+00
  0.00000000E+00  0.00000000E+00  0.00000000E+00
  0.00000000E+00  0.00000000E+00  0.00000000E+00
  0.00000000E+00  0.00000000E+00  0.00000000E+00
  0.00000000E+00  0.00000000E+00  0.00000000E+00
  0.00000000E+00  0.00000000E+00  0.00000000E+00
  0.00000000E+00  0.00000000E+00  0.00000000E+00
  0.00000000E+00  0.00000000E+00  0.00000000E+00
  0.00000000E+00  0.00000000E+00  0.00000000E+00
  0.00000000E+00  0.00000000E+00  0.00000000E+00
  0.00000000E+00  0.00000000E+00  0.00000000E+00
  0.00000000E+00  0.00000000E+00  0.00000000E+00
  0.00000000E+00  0.00000000E+00  0.00000000E+00
  0.00000000E+00  0.00000000E+00  0.00000000E+00
  0.00000000E+00  0.00000000E+00  0.00000000E+00
  0.00000000E+00  0.00000000E+00  0.00000000E+00
  0.00000000E+00  0.00000000E+00  0.00000000E+00
  0.00000000E+00  0.00000000E+00  0.00000000E+00
  0.00000000E+00  0.00000000E+00  0.00000000E+00
  0.00000000E+00  0.00000000E+00  0.00000000E+00
  0.00000000E+00  0.00000000E+00  0.00000000E+00
  0.00000000E+00  0.00000000E+00  0.00000000E+00
  0.00000000E+00  0.00000000E+00  0.00000000E+00
  0.00000000E+00  0.00000000E+00  0.00000000E+00
  0.00000000E+00  0.00000000E+00  0.00000000E+00
  0.00000000E+00  0.00000000E+00  0.00000000E+00
  0.00000000E+00  0.00000000E+00  0.00000000E+00
  0.00000000E+00  0.00000000E+00  0.00000000E+00
  0.00000000E+00  0.00000000E+00  0.00000000E+00
  0.00000000E+00  0.00000000E+00  0.00000000E+00
  0.00000000E+00  0.00000000E+00  0.00000000E+00
  0.00000000E+00  0.00000000E+00  0.00000000E+00
  0.00000000E+00  0.00000000E+00  0.00000000E+00
  0.00000000E+00  0.00000000E+00  0.00000000E+00
  0.00000000E+00  0.00000000E+00  0.00000000E+00
  0.00000000E+00  0.00000000E+00  0.00000000E+00
  0.00000000E+00  0.00000000E+00  0.00000000E+00
  0.00000000E+00  0.00000000E+00  0.00000000E+00
  0.00000000E+00  0.00000000E+00  0.00000000E+00
  0.00000000E+00  0.00000000E+00  0.00000000E+00
  0.00000000E+00  0.00000000E+00  0.00000000E+00
  0.00000000E+00  0.00000000E+00  0.00000000E+00
  0.00000000E+00  0.00000000E+00  0.00000000E+00
  0.00000000E+00  0.00000000E+00  0.00000000E+00
  0.00000000E+00  0.00000000E+00  0.00000000E+00
  0.00000000E+00  0.00000000E+00  0.00000000E+00
  0.00000000E+00  0.00000000E+00  0.00000000E+00
  0.00000000E+00  0.00000000E+00  0.00000000E+00
  0.00000000E+00  0.00000000E+00  0.00000000E+00
  0.00000000E+00  0.00000000E+00  0.00000000E+00
  0.00000000E+00  0.00000000E+00  0.00000000E+00
  0.00000000E+00  0.00000000E+00  0.00000000E+00
  0.00000000E+00  0.00000000E+00  0.00000000E+00
  0.00000000E+00  0.00000000E+00  0.00000000E+00
  0.00000000E+00  0.00000000E+00  0.00000000E+00
  0.00000000E+00  0.00000000E+00  0.00000000E+00
  0.00000000E+00  0.00000000E+00  0.00000000E+00
  0.00000000E+00  0.00000000E+00  0.00000000E+00
  0.00000000E+00  0.00000000E+00  0.00000000E+00
  0.00000000E+00  0.00000000E+00  0.00000000E+00
  0.00000000E+00  0.00000000E+00  0.00000000E+00
  0.00000000E+00  0.00000000E+00  0.00000000E+00
  0.00000000E+00  0.00000000E+00  0.00000000E+00
  0.00000000E+00  0.00000000E+00  0.00000000E+00
  0.00000000E+00  0.00000000E+00  0.00000000E+00
  0.00000000E+00  0.00000000E+00  0.00000000E+00
  0.00000000E+00  0.00000000E+00  0.00000000E+00
  0.00000000E+00  0.00000000E+00  0.00000000E+00
  0.00000000E+00  0.00000000E+00  0.00000000E+00
  0.00000000E+00  0.00000000E+00  0.00000000E+00
  0.00000000E+00  0.00000000E+00  0.00000000E+00
  0.00000000E+00  0.00000000E+00  0.00000000E+00
  0.00000000E+00  0.00000000E+00  0.00000000E+00
  0.00000000E+00  0.00000000E+00  0.00000000E+00
  0.00000000E+00  0.00000000E+00  0.00000000E+00
  0.00000000E+00  0.00000000E+00  0.00000000E+00
  0.00000000E+00  0.00000000E+00  0.00000000E+00
  0.00000000E+00  0.00000000E+00  0.00000000E+00
  0.00000000E+00  0.00000000E+00  0.00000000E+00
  0.00000000E+00  0.00000000E+00  0.00000000E+00
  0.00000000E+00  0.00000000E+00  0.00000000E+00
  0.00000000E+00  0.00000000E+00  0.00000000E+00
  0.00000000E+00  0.00000000E+00  0.00000000E+00
  0.00000000E+00  0.00000000E+00  0.00000000E+00
  0.00000000E+00  0.00000000E+00  0.00000000E+00
  0.00000000E+00  0.00000000E+00  0.00000000E+00
  0.00000000E+00  0.00000000E+00  0.00000000E+00
  0.00000000E+00  0.00000000E+00  0.00000000E+00
  0.00000000E+00  0.00000000E+00  0.00000000E+00
  0.00000000E+00  0.00000000E+00  0.00000000E+00
  0.00000000E+00  0.00000000E+00  0.00000000E+00
  0.00000000E+00  0.00000000E+00  0.00000000E+00
  0.00000000E+00  0.00000000E+00  0.00000000E+00
