config 49                               
   1.00000000000000     
    15.4263309999999993    0.0000000000000000    0.0000000000000000
     0.0000000000000000   15.4263309999999993    0.0000000000000000
     0.0000000000000000    0.0000000000000000   15.4263309999999993
   Li   Ti   O    F 
     1    64    64   128
Direct
  0.9005905908426567  0.1171523222551000  0.0814315871200814
  0.9963959035247809  0.9918494840815009  0.9910432145102263
  0.9980993389384814  0.9921400139606478  0.4930280542574838
  0.0048486096237072  0.4948258739062502  0.9974269183100918
  0.9941375587218623  0.5033518216129225  0.5077077529749737
  0.4942147526844215  0.9942212491019244  1.0000967056861898
  0.5017050233513178  0.0086551096108760  0.4986434465415314
  0.5035862228189228  0.4940395792448639  0.9967631613674730
  0.4917304867550492  0.4994161215596841  0.4959216629010914
  0.0063212716125039  0.0036125152912283  0.2565849937294806
  0.0014394993519827  0.0082916697132344  0.7542201921794053
  0.9934114616946040  0.4938610300510910  0.2518557622674988
  0.9925893817723106  0.4994198983318114  0.7418290106431612
  0.5046390833304337  0.0099237192643982  0.2508280687031610
  0.4931783533529645  0.0053289360401527  0.7522523502773363
  0.4922833060668261  0.4962541658246115  0.2577223265564954
  0.5006175743025244  0.5035825278154852  0.7591928170479628
  0.9938919885655231  0.2580456178610029  0.0021715481737531
  0.9978425239123310  0.2478825204581981  0.4916277479791491
  0.9973607350157987  0.7554931037124847  0.0065121512002795
  0.9964886050548115  0.7571614134064565  0.5058931892686068
  0.4940548918137009  0.2569470871833057  0.0032623917876131
  0.5092281579852207  0.2461231689432865  0.4976411944744445
  0.5064935729516548  0.7566039974330098  0.9997554088631079
  0.5070514264876814  0.7535579048891434  0.5087419781439835
  0.0003977110370968  0.2590142919454795  0.2563220035809465
  0.0068120899640843  0.2431823624051458  0.7477662713280359
  0.0066410332593337  0.7484550292912266  0.2437233758293305
  0.9927037351417944  0.7506032643159525  0.7433053298052635
  0.5092210950629525  0.2421414525311351  0.2533550450901678
  0.5076635712202691  0.2433150708751341  0.7519017238986897
  0.5064516986319906  0.7517031792839192  0.2520125087497190
  0.5019874022071462  0.7416229649481065  0.7438428343180961
  0.2571990262558437  0.9985726078426815  0.0052523255193452
  0.2508039062679027  0.9935253769791509  0.5058694058471142
  0.2428744952313299  0.5064847323604174  0.9978327524347658
  0.2545751635713264  0.4943114129352340  0.5071259764157987
  0.7568732582708471  0.0016358561525390  0.9928321560704849
  0.7496575705951652  0.0079908735589494  0.4945370400913336
  0.7418896762608673  0.4995061677950967  0.0050458514383684
  0.7552278279654600  0.4987193999799521  0.5058423578056367
  0.2446138682994889  0.0026574652400077  0.2431521527796405
  0.2579732601532012  0.9978299117477928  0.7438678498795712
  0.2545605951031507  0.4913951938231009  0.2521240684006087
  0.2463909261621754  0.5056136059815128  0.7412475887223855
  0.7433814966042182  0.0020425444747314  0.2560258750258710
  0.7486434758472711  0.0072741221122862  0.7542453930387844
  0.7550060086331347  0.4981406675633799  0.2429268623971115
  0.7570170438603488  0.4986327936940700  0.7427236243604279
  0.2565419140271932  0.2502660618485601  0.0072307088960221
  0.2534827526190800  0.2565783764776993  0.5057881759175998
  0.2513495226190713  0.7417665362498709  0.9938936403390702
  0.2522686583952852  0.7550856247423170  0.4930571183979779
  0.7546249280890408  0.2514794099839971  0.0054138513317620
  0.7420233296861433  0.2432722226909888  0.4966957152208906
  0.7419680412454472  0.7500182103824620  0.9942130049874832
  0.7412477398864842  0.7533630551048195  0.4941050159622339
  0.2511424842589748  0.2575904751266241  0.2440960768069342
  0.2437909592000190  0.2515283991775771  0.7445557712929847
  0.2438882942713126  0.7473919681565683  0.2559826606427223
  0.2477391636977986  0.7414250569145637  0.7566422501191254
  0.7411278317015865  0.2526762419939142  0.2427818262926541
  0.7450619501663481  0.2425357896515488  0.7504744975777403
  0.7454764503722509  0.7500741912248456  0.2569128813866379
  0.7573200156849759  0.7504414642765478  0.7567044180699861
  0.0111514686959555  0.5001743151897693  0.6249256624776420
  0.9939210943694102  0.0098352667360943  0.3757344865625929
  0.9977226687853322  0.0036861646128136  0.8714316925272886
  0.4966245839054271  0.4897628295438576  0.3759238633527780
  0.4909798832269250  0.4930578917891565  0.8750691774543595
  0.9992584479686148  0.7460004383857894  0.1255508874176714
  0.0022404812493516  0.7480825274450680  0.6239091103006782
  0.5031839528454578  0.7490987044419246  0.6245762553794111
  0.9866648152249637  0.2437037472540295  0.3768955220637032
  0.2546160858884460  0.0030780103843045  0.1248605123493098
  0.2544117453771017  0.0035684276366573  0.6248479817473236
  0.2363764578102839  0.4934992722441375  0.6260588514905863
  0.7480313701402523  0.4881761791038405  0.1263023331375987
  0.7435633063830022  0.4918131310035981  0.6245172948949204
  0.7518352605398245  0.0022898166801775  0.3763675671075605
  0.7499333240733675  1.0013766652353562  0.8730287028120247
  0.2381962999027389  0.2500255281650753  0.1262723518146899
  0.2442138228730317  0.2503179558879950  0.6255426676747169
  0.7322030422652378  0.2626848597247494  0.1314050751722256
  0.2552682111473333  0.7449547933922013  0.3747440401579312
  0.2519822155371131  0.7511961224034123  0.8753004517598796
  0.7527586977716583  0.7495774242844436  0.3743848218620003
  0.7485622515714707  0.7505042438020043  0.8754589531158199
  0.1239223658929800  0.4976019046878680  0.9921005912383301
  0.6251853385162545  0.5014329307766685  0.9963145879296885
  0.1245598173225197  0.0073341479316472  0.2512760517526114
  0.6243118503000975  0.0063555055638654  0.2507309793176826
  0.6242720534638856  0.2624059356651725  0.4840904880724071
  0.6244674416839013  0.7492248362774886  0.0031686063770463
  0.6243066931698997  0.7688484933683365  0.4948712006010497
  0.1243535911675148  0.2524797116516618  0.7579778322596981
  0.1248894145016074  0.7484336539059665  0.2529020229500515
  0.6236388392747705  0.2407111609255984  0.2728756997941803
  0.6262304723478006  0.2537890819929657  0.7582312890748721
  0.6226046952290406  0.7507593509622416  0.2519519255749690
  0.3760339978085351  0.0043151770498360  0.9912200128698345
  0.3753727094069836  0.5100781450489018  0.5071942849151367
  0.8742974282701191  0.0163283813315438  0.0053168520340239
  0.8752819861122416  0.5086241564796081  0.5032876930118418
  0.3762125929454487  0.9979465827597626  0.7573616300479391
  0.3734599393996323  0.4922419622199621  0.2467813763492252
  0.8756890319446013  0.4938813460862163  0.2503967391652679
  0.8752030677121962  0.5106462442019880  0.7427627021979556
  0.3752436619603899  0.2423127515795053  0.0124704439232909
  0.8791519148829710  0.2314823920821877  0.0228155989645386
  0.8748981443227356  0.7413590220866044  0.7486479280843557
  0.5156091113766234  0.1225629489668930  0.4903718711358228
  0.9979210178951241  0.1260268689544470  0.7408071148375049
  0.4891951884377185  0.1248275812290591  0.2663916029916028
  0.5029790818180524  0.1237454068989326  0.7521063423152902
  0.5032646348237804  0.6250743129822016  0.7537474373990927
  0.9916832489804422  0.3756861478650946  0.0028786354138975
  0.9933790262773862  0.8735736846997713 -0.0002404440245644
  0.9869006036502947  0.8756140227379490  0.4958768491131366
  0.4979175249852305  0.3731889559876217  0.0121510278702093
  0.4982936289684312  0.8753074992916536  0.0084446972548447
  0.0111328682227757  0.3742012361685834  0.2510987397140276
  0.2496728442809690  0.6245053327659151  0.0034866195352865
  0.7347917329295838  0.1254239951427163  0.5065690816177955
  0.2455390591401701  0.6242910428970710  0.7488621750284091
  0.7496795030086892  0.1244254043566150  0.7391261261386386
  0.2582315568800516  0.3729779381032891  0.4936639957964685
  0.2595414993794487  0.8756130627421310  0.4991639026454320
  0.2380991576724122  0.3740724174216246  0.2588498060022758
  0.9960015867333033  0.0043369854699707  0.1260131817677704
  0.0060575262813906  0.9948740174970711  0.6228571002777243
  0.0035163767569134  0.5077168038192922  0.1254618383846298
  0.4938658913644402  0.0128166503327101  0.1261038709683319
  0.4979610211814645  1.0004244764644952  0.6227625767011187
  0.5037981969608921  0.5113497622720450  0.1279622603144766
  0.5104828621496703  0.5033733280710778  0.6247363508288435
  0.0005476041978284  0.4980492380863702  0.3766803938597152
  0.9911602127303635  0.4988541537160591  0.8729600717793931
  0.5024231822669352  0.9839288927335297  0.3764647229255452
  0.5159082266980426  0.9950965878286520  0.8753354388249716
  0.0190035658485867  0.2485205329934663  0.1284820287286298
  0.0101510295530352  0.2608141473487549  0.6214974636427362
  0.5181022193619796  0.2346033282077180  0.1277257909879818
  0.5099663803350419  0.2430870535985293  0.6228470838864781
  0.4965461937148051  0.7400343633956059  0.1271213740984005
  0.9855131079448773  0.2460468218383600  0.8748106191431441
  0.9927630273366690  0.7499527834627502  0.3749628346416793
  0.0011971327380570  0.7502433045241045  0.8737807464242241
  0.4806759849544849  0.2653928060398850  0.3764213051657682
  0.4891637796410592  0.2558418162951697  0.8754407088540587
  0.4912458273792603  0.7598859862832624  0.3755560589255632
  0.4975704212653622  0.7562642317371281  0.8743771584768657
  0.2409821304830894  0.4915954307501085  0.1250803348534351
  0.7504060020558077  0.0006591650043376  0.1270412753238677
  0.7448145010258900  0.9919053007774732  0.6225588303089821
  0.2525558150485728  0.0019127624322913  0.3750538539541443
  0.2421743692653472  0.9938603475427216  0.8742972767226339
  0.2506300210555887  0.5129336255902760  0.3756085603001235
  0.2621303124981072  0.4992644488462781  0.8739909151154139
  0.7486428162155353  0.5115859931051151  0.3757905524974520
  0.7547953617944687  0.5117809402855915  0.8736970337089437
  0.2504716138907926  0.7553429717867953  0.1251742061749737
  0.2477078248337051  0.7517090586703183  0.6248641015876302
  0.7408031269550202  0.2643320549167858  0.6223420191573150
  0.7522463621666712  0.7519670907801502  0.1259673554570598
  0.7464251228779800  0.7519553722989679  0.6243260577129850
  0.2623490009643180  0.2427037241025877  0.3748331274289327
  0.2596846417363136  0.2498069952505190  0.8757197223405383
  0.7713820359285785  0.2396360336687028  0.3763056208829229
  0.7665211415802680  0.2391139331261637  0.8722659484737817
  0.1250705791975262  0.9949803352365237  0.0019810125199287
  0.1245200571850181  0.9945075663489025  0.4960413058266049
  0.1235416264278401  0.4935237482318185  0.4899696315264511
  0.6261825530538605  0.9928118822375068  0.0071726754325046
  0.6237269856521576  0.9784223033574617  0.5006461701689795
  0.6252928879515833  0.4874788852509963  0.4957631712071670
  0.1267036988931489  0.9993311914791657  0.7474551851677730
  0.1239700485396405  0.5112665228172155  0.2522836786767101
  0.1231945952886897  0.4910214130902281  0.7658804547184157
  0.6241853027135440  0.9933644054894776  0.7424306913256068
  0.6245898964212517  0.5039219881232425  0.2526517711051162
  0.6262864819977673  0.4905179085315643  0.7588298308067661
  0.1243151814944503  0.2539030729351306  0.9877880946596481
  0.1235774035703796  0.2535177207077727  0.4885453817336687
  0.1246450278990489  0.7514820960770069  0.0002427755482577
  0.1237453673347747  0.7591137882072734  0.4941902243213227
  0.6248288015238229  0.2547365298432775  0.9847891591334603
  0.1247398785725737  0.2329739515749306  0.2661392761941369
  0.1232958871218275  0.7560903902057520  0.7517144942129632
  0.6261692091265336  0.7568094833006800  0.7513977910596119
  0.3777053232429768  0.0151800095233781  0.4953455154258146
  0.3728046331575356  0.4991958161478506  0.0108826894146247
  0.8743603131665063  0.0163814882702212  0.5108077173554443
  0.8751405798576791  0.5073967016666407  0.0032654952276119
  0.3763879193379788  0.9914053057716009  0.2554612297559870
  0.3745246787327353  0.5003492012349471  0.7374833167900701
  0.8736726901478852  0.9969737168423121  0.2451970308170868
  0.8746645569657290  0.9954636358638341  0.7389404583149426
  0.3792976294481654  0.2351408447113798  0.5088039561029776
  0.3760669461043371  0.7517491765867329  0.0029954175462257
  0.3771845201471523  0.7368089049080968  0.5034152321264400
  0.8744254178769170  0.2421008754956188  0.5152056349526667
  0.8725718420092893  0.7452942478820360  0.9985734334498328
  0.8721289375331035  0.7357410863398773  0.5043899124315544
  0.3776582684114355  0.2610360138245702  0.2374829730142722
  0.3765213927585909  0.2476620410245570  0.7431909440206960
  0.3763508014806989  0.7525151116324694  0.2463645523999646
  0.3749925295738391  0.7528911431636166  0.7476147452434833
  0.8754342673738457  0.2599522988986725  0.2360667538659056
  0.8748353857340813  0.2527549767734738  0.7352355540511145
  0.8736806368397561  0.7518081239553857  0.2482872272512509
  0.0086183686302549  0.1244476797559866  0.0101358813971407
  0.0067270934505512  0.1257071993446389  0.5117708125886136
  1.0004350421691544  0.6254802585968177  0.9939048684335298
  0.0095919320198067  0.6270476290882394  0.4939444588082299
  0.5097486108073616  0.1238348451843995  0.9935336448501275
  0.4937736532655000  0.6270741566720301  0.9953249392676584
  0.5141166474648349  0.6269740767296864  0.4925133752740109
  0.9847826863909049  0.1281023318160841  0.2391198890090160
  0.9946199218378147  0.6238055930420191  0.2569817094863551
  0.0133050830758503  0.6246309384889994  0.7543798521553520
  0.4964044071074674  0.6262946471304496  0.2611589613870444
  0.9934596970396163  0.3738445309482541  0.4963256927127709
  0.4874192630608145  0.3715289466448588  0.5114656941750592
  0.4813393438452637  0.8784194586560430  0.5037516357934645
  0.9930385922801879  0.3744590814528062  0.7533523870194293
  0.9989392993153289  0.8767146033737211  0.2516341464525434
  0.9977912110313498  0.8757532080789969  0.7488165164439697
  0.5086080060522852  0.3718813709942441  0.2378099229349094
  0.4954851451292917  0.3729108081001162  0.7409263034729615
  0.5001101330116006  0.8762673121679844  0.2397975820309811
  0.5008282064892375  0.8753466112675096  0.7492845636115648
  0.2401299221942133  0.1240602383377654  0.9933189396799877
  0.2421412646976804  0.1242619222771960  0.4970670167762661
  0.2392047435890954  0.6265999810608842  0.5065748744321762
  0.7348468338336092  0.1221811849704085  0.0100245652752840
  0.7530767418074976  0.6259717426531772  0.0078417050997983
  0.7354582176727127  0.6263681138968259  0.5050442628081059
  0.2635212813541015  0.1262115185263551  0.2523071345319366
  0.2500820086822706  0.1243068743338865  0.7576642299227353
  0.2545716478597207  0.6235453960874990  0.2392832054612994
  0.7635526839314873  0.1263047055017593  0.2440510994089497
  0.7510454947592214  0.6253163300820865  0.2433940523158551
  0.7363216152383641  0.6253711545618960  0.7439264754185697
  0.2537299264812766  0.3750864595361663  0.9968463891865431
  0.2505586453374142  0.8737633976971209  0.0027279275888149
  0.7599669903522516  0.3790215567460731  0.9825509368245697
  0.7619560123242108  0.3729880663533749  0.4875510356354618
  0.7573370069545947  0.8753314441284108  0.0050135989553318
  0.7684302687087712  0.8767490582506201  0.5004644572394623
  0.2559359507728334  0.3756167003740116  0.7575545609609222
  0.2491234900250480  0.8756577612663619  0.2521424227074398
  0.2480725544500047  0.8734067724238442  0.7458442151086361
  0.7433833319484356  0.3758199720240027  0.2724262973762317
  0.7578575534278997  0.3744029610888079  0.7607408931828035
  0.7496984544490286  0.8759862750335512  0.2469932180336708
  0.7535796020622023  0.8752085681536594  0.7467333112940618
 
  0.00000000E+00  0.00000000E+00  0.00000000E+00
  0.00000000E+00  0.00000000E+00  0.00000000E+00
  0.00000000E+00  0.00000000E+00  0.00000000E+00
  0.00000000E+00  0.00000000E+00  0.00000000E+00
  0.00000000E+00  0.00000000E+00  0.00000000E+00
  0.00000000E+00  0.00000000E+00  0.00000000E+00
  0.00000000E+00  0.00000000E+00  0.00000000E+00
  0.00000000E+00  0.00000000E+00  0.00000000E+00
  0.00000000E+00  0.00000000E+00  0.00000000E+00
  0.00000000E+00  0.00000000E+00  0.00000000E+00
  0.00000000E+00  0.00000000E+00  0.00000000E+00
  0.00000000E+00  0.00000000E+00  0.00000000E+00
  0.00000000E+00  0.00000000E+00  0.00000000E+00
  0.00000000E+00  0.00000000E+00  0.00000000E+00
  0.00000000E+00  0.00000000E+00  0.00000000E+00
  0.00000000E+00  0.00000000E+00  0.00000000E+00
  0.00000000E+00  0.00000000E+00  0.00000000E+00
  0.00000000E+00  0.00000000E+00  0.00000000E+00
  0.00000000E+00  0.00000000E+00  0.00000000E+00
  0.00000000E+00  0.00000000E+00  0.00000000E+00
  0.00000000E+00  0.00000000E+00  0.00000000E+00
  0.00000000E+00  0.00000000E+00  0.00000000E+00
  0.00000000E+00  0.00000000E+00  0.00000000E+00
  0.00000000E+00  0.00000000E+00  0.00000000E+00
  0.00000000E+00  0.00000000E+00  0.00000000E+00
  0.00000000E+00  0.00000000E+00  0.00000000E+00
  0.00000000E+00  0.00000000E+00  0.00000000E+00
  0.00000000E+00  0.00000000E+00  0.00000000E+00
  0.00000000E+00  0.00000000E+00  0.00000000E+00
  0.00000000E+00  0.00000000E+00  0.00000000E+00
  0.00000000E+00  0.00000000E+00  0.00000000E+00
  0.00000000E+00  0.00000000E+00  0.00000000E+00
  0.00000000E+00  0.00000000E+00  0.00000000E+00
  0.00000000E+00  0.00000000E+00  0.00000000E+00
  0.00000000E+00  0.00000000E+00  0.00000000E+00
  0.00000000E+00  0.00000000E+00  0.00000000E+00
  0.00000000E+00  0.00000000E+00  0.00000000E+00
  0.00000000E+00  0.00000000E+00  0.00000000E+00
  0.00000000E+00  0.00000000E+00  0.00000000E+00
  0.00000000E+00  0.00000000E+00  0.00000000E+00
  0.00000000E+00  0.00000000E+00  0.00000000E+00
  0.00000000E+00  0.00000000E+00  0.00000000E+00
  0.00000000E+00  0.00000000E+00  0.00000000E+00
  0.00000000E+00  0.00000000E+00  0.00000000E+00
  0.00000000E+00  0.00000000E+00  0.00000000E+00
  0.00000000E+00  0.00000000E+00  0.00000000E+00
  0.00000000E+00  0.00000000E+00  0.00000000E+00
  0.00000000E+00  0.00000000E+00  0.00000000E+00
  0.00000000E+00  0.00000000E+00  0.00000000E+00
  0.00000000E+00  0.00000000E+00  0.00000000E+00
  0.00000000E+00  0.00000000E+00  0.00000000E+00
  0.00000000E+00  0.00000000E+00  0.00000000E+00
  0.00000000E+00  0.00000000E+00  0.00000000E+00
  0.00000000E+00  0.00000000E+00  0.00000000E+00
  0.00000000E+00  0.00000000E+00  0.00000000E+00
  0.00000000E+00  0.00000000E+00  0.00000000E+00
  0.00000000E+00  0.00000000E+00  0.00000000E+00
  0.00000000E+00  0.00000000E+00  0.00000000E+00
  0.00000000E+00  0.00000000E+00  0.00000000E+00
  0.00000000E+00  0.00000000E+00  0.00000000E+00
  0.00000000E+00  0.00000000E+00  0.00000000E+00
  0.00000000E+00  0.00000000E+00  0.00000000E+00
  0.00000000E+00  0.00000000E+00  0.00000000E+00
  0.00000000E+00  0.00000000E+00  0.00000000E+00
  0.00000000E+00  0.00000000E+00  0.00000000E+00
  0.00000000E+00  0.00000000E+00  0.00000000E+00
  0.00000000E+00  0.00000000E+00  0.00000000E+00
  0.00000000E+00  0.00000000E+00  0.00000000E+00
  0.00000000E+00  0.00000000E+00  0.00000000E+00
  0.00000000E+00  0.00000000E+00  0.00000000E+00
  0.00000000E+00  0.00000000E+00  0.00000000E+00
  0.00000000E+00  0.00000000E+00  0.00000000E+00
  0.00000000E+00  0.00000000E+00  0.00000000E+00
  0.00000000E+00  0.00000000E+00  0.00000000E+00
  0.00000000E+00  0.00000000E+00  0.00000000E+00
  0.00000000E+00  0.00000000E+00  0.00000000E+00
  0.00000000E+00  0.00000000E+00  0.00000000E+00
  0.00000000E+00  0.00000000E+00  0.00000000E+00
  0.00000000E+00  0.00000000E+00  0.00000000E+00
  0.00000000E+00  0.00000000E+00  0.00000000E+00
  0.00000000E+00  0.00000000E+00  0.00000000E+00
  0.00000000E+00  0.00000000E+00  0.00000000E+00
  0.00000000E+00  0.00000000E+00  0.00000000E+00
  0.00000000E+00  0.00000000E+00  0.00000000E+00
  0.00000000E+00  0.00000000E+00  0.00000000E+00
  0.00000000E+00  0.00000000E+00  0.00000000E+00
  0.00000000E+00  0.00000000E+00  0.00000000E+00
  0.00000000E+00  0.00000000E+00  0.00000000E+00
  0.00000000E+00  0.00000000E+00  0.00000000E+00
  0.00000000E+00  0.00000000E+00  0.00000000E+00
  0.00000000E+00  0.00000000E+00  0.00000000E+00
  0.00000000E+00  0.00000000E+00  0.00000000E+00
  0.00000000E+00  0.00000000E+00  0.00000000E+00
  0.00000000E+00  0.00000000E+00  0.00000000E+00
  0.00000000E+00  0.00000000E+00  0.00000000E+00
  0.00000000E+00  0.00000000E+00  0.00000000E+00
  0.00000000E+00  0.00000000E+00  0.00000000E+00
  0.00000000E+00  0.00000000E+00  0.00000000E+00
  0.00000000E+00  0.00000000E+00  0.00000000E+00
  0.00000000E+00  0.00000000E+00  0.00000000E+00
  0.00000000E+00  0.00000000E+00  0.00000000E+00
  0.00000000E+00  0.00000000E+00  0.00000000E+00
  0.00000000E+00  0.00000000E+00  0.00000000E+00
  0.00000000E+00  0.00000000E+00  0.00000000E+00
  0.00000000E+00  0.00000000E+00  0.00000000E+00
  0.00000000E+00  0.00000000E+00  0.00000000E+00
  0.00000000E+00  0.00000000E+00  0.00000000E+00
  0.00000000E+00  0.00000000E+00  0.00000000E+00
  0.00000000E+00  0.00000000E+00  0.00000000E+00
  0.00000000E+00  0.00000000E+00  0.00000000E+00
  0.00000000E+00  0.00000000E+00  0.00000000E+00
  0.00000000E+00  0.00000000E+00  0.00000000E+00
  0.00000000E+00  0.00000000E+00  0.00000000E+00
  0.00000000E+00  0.00000000E+00  0.00000000E+00
  0.00000000E+00  0.00000000E+00  0.00000000E+00
  0.00000000E+00  0.00000000E+00  0.00000000E+00
  0.00000000E+00  0.00000000E+00  0.00000000E+00
  0.00000000E+00  0.00000000E+00  0.00000000E+00
  0.00000000E+00  0.00000000E+00  0.00000000E+00
  0.00000000E+00  0.00000000E+00  0.00000000E+00
  0.00000000E+00  0.00000000E+00  0.00000000E+00
  0.00000000E+00  0.00000000E+00  0.00000000E+00
  0.00000000E+00  0.00000000E+00  0.00000000E+00
  0.00000000E+00  0.00000000E+00  0.00000000E+00
  0.00000000E+00  0.00000000E+00  0.00000000E+00
  0.00000000E+00  0.00000000E+00  0.00000000E+00
  0.00000000E+00  0.00000000E+00  0.00000000E+00
  0.00000000E+00  0.00000000E+00  0.00000000E+00
  0.00000000E+00  0.00000000E+00  0.00000000E+00
  0.00000000E+00  0.00000000E+00  0.00000000E+00
  0.00000000E+00  0.00000000E+00  0.00000000E+00
  0.00000000E+00  0.00000000E+00  0.00000000E+00
  0.00000000E+00  0.00000000E+00  0.00000000E+00
  0.00000000E+00  0.00000000E+00  0.00000000E+00
  0.00000000E+00  0.00000000E+00  0.00000000E+00
  0.00000000E+00  0.00000000E+00  0.00000000E+00
  0.00000000E+00  0.00000000E+00  0.00000000E+00
  0.00000000E+00  0.00000000E+00  0.00000000E+00
  0.00000000E+00  0.00000000E+00  0.00000000E+00
  0.00000000E+00  0.00000000E+00  0.00000000E+00
  0.00000000E+00  0.00000000E+00  0.00000000E+00
  0.00000000E+00  0.00000000E+00  0.00000000E+00
  0.00000000E+00  0.00000000E+00  0.00000000E+00
  0.00000000E+00  0.00000000E+00  0.00000000E+00
  0.00000000E+00  0.00000000E+00  0.00000000E+00
  0.00000000E+00  0.00000000E+00  0.00000000E+00
  0.00000000E+00  0.00000000E+00  0.00000000E+00
  0.00000000E+00  0.00000000E+00  0.00000000E+00
  0.00000000E+00  0.00000000E+00  0.00000000E+00
  0.00000000E+00  0.00000000E+00  0.00000000E+00
  0.00000000E+00  0.00000000E+00  0.00000000E+00
  0.00000000E+00  0.00000000E+00  0.00000000E+00
  0.00000000E+00  0.00000000E+00  0.00000000E+00
  0.00000000E+00  0.00000000E+00  0.00000000E+00
  0.00000000E+00  0.00000000E+00  0.00000000E+00
  0.00000000E+00  0.00000000E+00  0.00000000E+00
  0.00000000E+00  0.00000000E+00  0.00000000E+00
  0.00000000E+00  0.00000000E+00  0.00000000E+00
  0.00000000E+00  0.00000000E+00  0.00000000E+00
  0.00000000E+00  0.00000000E+00  0.00000000E+00
  0.00000000E+00  0.00000000E+00  0.00000000E+00
  0.00000000E+00  0.00000000E+00  0.00000000E+00
  0.00000000E+00  0.00000000E+00  0.00000000E+00
  0.00000000E+00  0.00000000E+00  0.00000000E+00
  0.00000000E+00  0.00000000E+00  0.00000000E+00
  0.00000000E+00  0.00000000E+00  0.00000000E+00
  0.00000000E+00  0.00000000E+00  0.00000000E+00
  0.00000000E+00  0.00000000E+00  0.00000000E+00
  0.00000000E+00  0.00000000E+00  0.00000000E+00
  0.00000000E+00  0.00000000E+00  0.00000000E+00
  0.00000000E+00  0.00000000E+00  0.00000000E+00
  0.00000000E+00  0.00000000E+00  0.00000000E+00
  0.00000000E+00  0.00000000E+00  0.00000000E+00
  0.00000000E+00  0.00000000E+00  0.00000000E+00
  0.00000000E+00  0.00000000E+00  0.00000000E+00
  0.00000000E+00  0.00000000E+00  0.00000000E+00
  0.00000000E+00  0.00000000E+00  0.00000000E+00
  0.00000000E+00  0.00000000E+00  0.00000000E+00
  0.00000000E+00  0.00000000E+00  0.00000000E+00
  0.00000000E+00  0.00000000E+00  0.00000000E+00
  0.00000000E+00  0.00000000E+00  0.00000000E+00
  0.00000000E+00  0.00000000E+00  0.00000000E+00
  0.00000000E+00  0.00000000E+00  0.00000000E+00
  0.00000000E+00  0.00000000E+00  0.00000000E+00
  0.00000000E+00  0.00000000E+00  0.00000000E+00
  0.00000000E+00  0.00000000E+00  0.00000000E+00
  0.00000000E+00  0.00000000E+00  0.00000000E+00
  0.00000000E+00  0.00000000E+00  0.00000000E+00
  0.00000000E+00  0.00000000E+00  0.00000000E+00
  0.00000000E+00  0.00000000E+00  0.00000000E+00
  0.00000000E+00  0.00000000E+00  0.00000000E+00
  0.00000000E+00  0.00000000E+00  0.00000000E+00
  0.00000000E+00  0.00000000E+00  0.00000000E+00
  0.00000000E+00  0.00000000E+00  0.00000000E+00
  0.00000000E+00  0.00000000E+00  0.00000000E+00
  0.00000000E+00  0.00000000E+00  0.00000000E+00
  0.00000000E+00  0.00000000E+00  0.00000000E+00
  0.00000000E+00  0.00000000E+00  0.00000000E+00
  0.00000000E+00  0.00000000E+00  0.00000000E+00
  0.00000000E+00  0.00000000E+00  0.00000000E+00
  0.00000000E+00  0.00000000E+00  0.00000000E+00
  0.00000000E+00  0.00000000E+00  0.00000000E+00
  0.00000000E+00  0.00000000E+00  0.00000000E+00
  0.00000000E+00  0.00000000E+00  0.00000000E+00
  0.00000000E+00  0.00000000E+00  0.00000000E+00
  0.00000000E+00  0.00000000E+00  0.00000000E+00
  0.00000000E+00  0.00000000E+00  0.00000000E+00
  0.00000000E+00  0.00000000E+00  0.00000000E+00
  0.00000000E+00  0.00000000E+00  0.00000000E+00
  0.00000000E+00  0.00000000E+00  0.00000000E+00
  0.00000000E+00  0.00000000E+00  0.00000000E+00
  0.00000000E+00  0.00000000E+00  0.00000000E+00
  0.00000000E+00  0.00000000E+00  0.00000000E+00
  0.00000000E+00  0.00000000E+00  0.00000000E+00
  0.00000000E+00  0.00000000E+00  0.00000000E+00
  0.00000000E+00  0.00000000E+00  0.00000000E+00
  0.00000000E+00  0.00000000E+00  0.00000000E+00
  0.00000000E+00  0.00000000E+00  0.00000000E+00
  0.00000000E+00  0.00000000E+00  0.00000000E+00
  0.00000000E+00  0.00000000E+00  0.00000000E+00
  0.00000000E+00  0.00000000E+00  0.00000000E+00
  0.00000000E+00  0.00000000E+00  0.00000000E+00
  0.00000000E+00  0.00000000E+00  0.00000000E+00
  0.00000000E+00  0.00000000E+00  0.00000000E+00
  0.00000000E+00  0.00000000E+00  0.00000000E+00
  0.00000000E+00  0.00000000E+00  0.00000000E+00
  0.00000000E+00  0.00000000E+00  0.00000000E+00
  0.00000000E+00  0.00000000E+00  0.00000000E+00
  0.00000000E+00  0.00000000E+00  0.00000000E+00
  0.00000000E+00  0.00000000E+00  0.00000000E+00
  0.00000000E+00  0.00000000E+00  0.00000000E+00
  0.00000000E+00  0.00000000E+00  0.00000000E+00
  0.00000000E+00  0.00000000E+00  0.00000000E+00
  0.00000000E+00  0.00000000E+00  0.00000000E+00
  0.00000000E+00  0.00000000E+00  0.00000000E+00
  0.00000000E+00  0.00000000E+00  0.00000000E+00
  0.00000000E+00  0.00000000E+00  0.00000000E+00
  0.00000000E+00  0.00000000E+00  0.00000000E+00
  0.00000000E+00  0.00000000E+00  0.00000000E+00
  0.00000000E+00  0.00000000E+00  0.00000000E+00
  0.00000000E+00  0.00000000E+00  0.00000000E+00
  0.00000000E+00  0.00000000E+00  0.00000000E+00
  0.00000000E+00  0.00000000E+00  0.00000000E+00
  0.00000000E+00  0.00000000E+00  0.00000000E+00
  0.00000000E+00  0.00000000E+00  0.00000000E+00
  0.00000000E+00  0.00000000E+00  0.00000000E+00
  0.00000000E+00  0.00000000E+00  0.00000000E+00
  0.00000000E+00  0.00000000E+00  0.00000000E+00
  0.00000000E+00  0.00000000E+00  0.00000000E+00
  0.00000000E+00  0.00000000E+00  0.00000000E+00
  0.00000000E+00  0.00000000E+00  0.00000000E+00
  0.00000000E+00  0.00000000E+00  0.00000000E+00
  0.00000000E+00  0.00000000E+00  0.00000000E+00
  0.00000000E+00  0.00000000E+00  0.00000000E+00
  0.00000000E+00  0.00000000E+00  0.00000000E+00
  0.00000000E+00  0.00000000E+00  0.00000000E+00
  0.00000000E+00  0.00000000E+00  0.00000000E+00
