config 15                               
   1.00000000000000     
    15.4263309999999993    0.0000000000000000    0.0000000000000000
     0.0000000000000000   15.4263309999999993    0.0000000000000000
     0.0000000000000000    0.0000000000000000   15.4263309999999993
   Li   Ti   O    F 
     1    64    64   128
Direct
  0.0589829315070247  0.8753938301675745  0.6239922423002682
  0.9950471322099972  0.9955040905169099  0.9961461282906825
  0.0020803092926300  0.9930303217069536  0.4902182588089090
  0.0059716898286339  0.4957624947114070  0.9972488802383594
  0.9934910213038748  0.4993164653423108  0.5072018614355756
  0.4944246351809483  0.9941696415502932  0.0001403226685142
  0.5003677169710201  0.0077928320860678  0.4995119000122443
  0.5042206644148735  0.4955190983418873  0.9961828312633614
  0.4916522385546926  0.4979676272134341  0.4954336450859884
  0.0068163063439144  0.0030811477250055  0.2548155039866629
  0.0006307508535244  0.0106729173088311  0.7595484233614584
  0.9936932112778223  0.4935186434555661  0.2513694485847040
  0.9924259348326387  0.4980267430570890  0.7416713023792525
  0.5064142963555582  0.0085592458110710  0.2509058700925237
  0.4932182180433813  0.0051940133409829  0.7515559701509176
  0.4928347151522772  0.4964119425691109  0.2574342347418082
  0.5006745299450301  0.5043876846905206  0.7586230117033850
  0.9957680044667967  0.2576830249111026  0.0012364114800576
  0.9989573476700500  0.2469129570587398  0.4912543647557115
  0.9986167106286388  0.7581686281459525  0.0052900366877182
  0.9981530220758827  0.7528669523357934  0.5007728495650881
  0.4952693593223572  0.2581826117950428  0.0013846125209156
  0.5084813971629387  0.2446805280779643  0.4988769481892277
  0.5073293768672116  0.7564164396888486  0.9987296255402640
  0.5077155429621882  0.7516359388601117  0.5086941014622965
  0.0000119000501897  0.2579731497696187  0.2552560994893511
  0.0070896408619205  0.2437422943354690  0.7472089321332476
  0.0076730021338989  0.7484392982716415  0.2416947592879168
  0.9930754550148180  0.7486729403849495  0.7427565778033269
  0.5084245412940405  0.2418450215432202  0.2517118913340184
  0.5073238166004970  0.2431418625619983  0.7504968759680466
  0.5070201333706379  0.7512645728556819  0.2526853413592818
  0.5021329799923464  0.7421587847984839  0.7436535396966590
  0.2564061264946247  0.9988691411472317  0.0063524594396398
  0.2487632514527860  0.9949068213575458  0.5062616179462296
  0.2437858752074931  0.5082131201876763  0.9975421264888098
  0.2535919074382704  0.4943810249333112  0.5069048384328099
  0.7573062310015359  0.0002240613951585  0.9943698214541001
  0.7531691437644028  0.0061515768856353  0.4944943795257188
  0.7418076161152953  0.5004223252559754  0.0047778469056396
  0.7552315954917361  0.4960874162456790  0.5052371183718876
  0.2449021950833270  0.0029626291247808  0.2438365926139099
  0.2577225147050939  0.9988010653709836  0.7444145040013765
  0.2551883021138934  0.4922727623205958  0.2517529182308280
  0.2469385338179890  0.5067099182939501  0.7414207155317740
  0.7453182891605010  0.0004327967937527  0.2559411163957250
  0.7491584157449225  0.0063766530568756  0.7558396877415134
  0.7556476965753447  0.4982984912809982  0.2424250212990557
  0.7568785448761020  0.4976832941779747  0.7422989701257663
  0.2575176242581918  0.2516015985066531  0.0060978915507377
  0.2527144411162823  0.2570369523116582  0.5056887487706945
  0.2528363471187376  0.7430100236715447  0.9937115966512025
  0.2512670452834982  0.7559380561577740  0.4924400300228911
  0.7574884505553143  0.2511471579343620  0.0072364866569572
  0.7443307213603205  0.2414706988097635  0.4977787484256453
  0.7422812498511533  0.7490856407827735  0.9931308933792238
  0.7423377284881170  0.7505628830640134  0.4937714863132499
  0.2513834343913217  0.2577353568261884  0.2435845009081063
  0.2446427859583906  0.2519363459882555  0.7439056671477289
  0.2446388343937613  0.7485031546720649  0.2561871308908437
  0.2490930587652187  0.7422295382188508  0.7575124163598801
  0.7425447007777493  0.2506372916438195  0.2422597796975268
  0.7448915858161484  0.2418556101283968  0.7506981761032065
  0.7461693990178802  0.7494374633946350  0.2570475974905477
  0.7575515728030453  0.7503940076441324  0.7558184520778042
  0.0083020850777942  0.4966271524026382  0.6248162196664708
  0.9921867276265601  0.0057108562850487  0.3731500989286900
  0.9964005563500251  0.0045832971150261  0.8743015730623398
  0.4988501023356164  0.4916341795548718  0.3753531556309753
  0.4937534392050651  0.4959454756836195  0.8749259146910617
  0.0044650407863784  0.7454889403356475  0.1243600646083891
  0.0131855341673557  0.7561435399806271  0.6272849007415644
  0.5083234332374005  0.7511129176295128  0.6250975514686345
  0.9944934584905809  0.2438316769310234  0.3764516671027849
  0.2532352042203669  0.0049593661754557  0.1253618196081803
  0.2479072364931838  0.0045341097619200  0.6257289957428540
  0.2384153323098914  0.4974699005020184  0.6260435944024749
  0.7495990527401162  0.4904040324772936  0.1254304331246274
  0.7448989279043090  0.4920503842793025  0.6242513586008585
  0.7551178724806320  0.0008494524643368  0.3759205498856844
  0.7496764219592222  0.9998378406760509  0.8733946107999984
  0.2455754791785267  0.2484794796278180  0.1257508583763993
  0.2514394961391275  0.2486592417423026  0.6255300992175918
  0.7424066050080071  0.2592715119435738  0.1261950269478973
  0.2611784060099254  0.7498556220102017  0.3743271488341620
  0.2586633981253357  0.7546129304339360  0.8754731392266279
  0.7573800211830815  0.7491785704913241  0.3739815778058855
  0.7550671149774146  0.7506008440144214  0.8749958143792327
  0.1245305827027963  0.5050309167096785  0.9940626413380969
  0.6257852607180254  0.5082960951254307  0.9977780855243168
  0.1257540962311552  0.0050676871826170  0.2532279907628592
  0.6253691666521419  0.0029285345974657  0.2531383380891512
  0.6250741160470596  0.2469810684894327  0.4940047022404883
  0.6246442970733810  0.7408324412005740  0.9959776456571277
  0.6239797997286303  0.7530136454610670  0.4898053975548535
  0.1248661971861651  0.2510710187291423  0.7508632660013603
  0.1257773207322614  0.7496800536743251  0.2563887456101810
  0.6258863984440310  0.2435014908469668  0.2618937960828518
  0.6260269645311070  0.2516862141930289  0.7486679833160252
  0.6230269056933011  0.7516737016598967  0.2561634384542799
  0.3761762695863098  0.9986105281696354  0.9950003450608875
  0.3750071077143105  0.4975436850076775  0.5048575445251018
  0.8730546879800869  0.0002249950450448  0.0034065725068118
  0.8746901126250748  0.4914408202201912  0.5001586092126828
  0.3761865089636061  0.9959517407283727  0.7522366122123216
  0.3738951416164156  0.4947543900925169  0.2481403973262886
  0.8756800937318445  0.4959340213378312  0.2511484378168589
  0.8750675502958956  0.5069984155025651  0.7455553571416473
  0.3760515323741771  0.2494954371951721  0.0043878893091644
  0.8745508528863581  0.2500447507563592  0.0057917948259885
  0.8747223729608464  0.7452073126265901  0.7418219831600723
  0.5001650356166536  0.1224203466263702  0.4934472702080939
  0.9951098939059335  0.1270939304797736  0.7413330890068295
  0.4937228931877371  0.1250889288546873  0.2634388505089049
  0.5010126773744119  0.1236962339940391  0.7495170900561874
  0.5006637101682472  0.6253272612119360  0.7516075514383687
  0.0018192307130818  0.3754226201317081  0.0022015907549005
  0.0033927308055155  0.8753147584583090  0.0006096420949930
  0.0158433184618474  0.8802375494468180  0.5031139515994880
  0.5040764986449204  0.3741618431806515  0.0084291057479078
  0.5058940054052599  0.8753263607140624  0.0051294915649223
  0.0081555357288607  0.3736656966812433  0.2490288152925331
  0.2564196329181385  0.6255653699464716  0.0004927318284302
  0.7536162351111884  0.1245786316060702  0.5057543847819730
  0.2488325829565312  0.6251022393145931  0.7515569353758238
  0.7532469709558356  0.1244457447835643  0.7432217413538069
  0.2452273899292479  0.3731293788583301  0.4951798188490812
  0.2409930269754241  0.8770494028993596  0.5019971283609195
  0.2408633099876951  0.3745766497922034  0.2550080624315640
  0.0025593668020605  0.0028265958778846  0.1259097435428274
  0.0152116737129333  0.9930013625025182  0.6258113657894029
  0.0013627464438457  0.5075818618075800  0.1250142074823586
  0.4976963740577531  0.0084943583163835  0.1266132894013481
  0.5020310654630080  0.9970296111700918  0.6230734100118198
  0.5027555330003395  0.5082615316974213  0.1275955268558207
  0.5076515588152546  0.5015868283620577  0.6248369853931948
  0.0025269076487149  0.4965480250472467  0.3760317515855718
  0.9946510991072799  0.5000756241749471  0.8726263372535925
  0.4992909565067123  0.9879601270487512  0.3767896906525507
  0.5117056164316409  0.9983163867584040  0.8749356113925160
  0.0083714193183440  0.2472471179666798  0.1271980487618123
  0.0013417277000869  0.2606384643118886  0.6214356825819678
  0.5092994580049321  0.2377859277695009  0.1269212219880060
  0.4978625440619240  0.2455022793673152  0.6230823364849627
  0.5027294577765886  0.7444749032542646  0.1270519974151867
  0.9948792873907024  0.2483565308229103  0.8741288804362028
  0.9877997302207646  0.7530967174301182  0.3720169699666442
  0.9950528420498586  0.7513647465601494  0.8736971253939672
  0.4917472917106949  0.2637820518742515  0.3758532523168086
  0.4996440280010930  0.2534487684356108  0.8747273149015129
  0.4870903209963444  0.7555274317435448  0.3757235937079528
  0.4907483460354172  0.7540373213634695  0.8741904860680734
  0.2439753794179893  0.4967188931145259  0.1248730191567375
  0.7464979759343535  0.0013604655983883  0.1264364677858865
  0.7451261086455361  0.9944478723884274  0.6232284027680066
  0.2555875231902363  0.0001940531774807  0.3755709435407582
  0.2465952589087763  0.9939740482129267  0.8744811470606635
  0.2479434709619568  0.5097294261126564  0.3754399162808681
  0.2595584498844588  0.4966716896706345  0.8737186077488346
  0.7475477611737418  0.5066264514307335  0.3746065786130188
  0.7532215896775796  0.5059197349672289  0.8740539485934562
  0.2471328613590629  0.7530116570786518  0.1250102158370581
  0.2413821861265433  0.7516861972667144  0.6257218136892035
  0.7505680216080250  0.2612156208150722  0.6230089426448941
  0.7465424481010245  0.7496476037994100  0.1254789776100438
  0.7383899490552750  0.7490675469873267  0.6251763417724945
  0.2533802695864651  0.2449146461222611  0.3747096418169491
  0.2530854756967500  0.2526057197319460  0.8753413752276629
  0.7629758151985300  0.2418688338793089  0.3739299448841180
  0.7535192300318343  0.2436791014134272  0.8759055471871591
  0.1261926583201074  0.0036655438950106  0.9996092396018383
  0.1261384994506471  0.0210085192133818  0.4932084609545910
  0.1231776517954728  0.5056642910218585  0.4922057987736252
  0.6254401968362160  0.0036369072832585  0.0047221446012031
  0.6247137434792478  0.9951202126865653  0.4985487086358305
  0.6249295341906276  0.4983357396097716  0.4969321808251976
  0.1267035308241660  0.0019820786974378  0.7527508583864844
  0.1239761197497842  0.5086498985738217  0.2499838420677492
  0.1231405724756129  0.4941765837353813  0.7629991674422669
  0.6243687436316776  0.9956616221048762  0.7441710798911956
  0.6251447361808786  0.5006142361439032  0.2510540751040153
  0.6263235132614184  0.4935141301713344  0.7560290417575857
  0.1252229693415785  0.2485481342806111  0.9940579942209808
  0.1239029983631070  0.2373638986702034  0.4980013519408999
  0.1253744863121682  0.7446375283317721  0.9936253124436902
  0.1281288803834215  0.7396058753823098  0.4888878035025002
  0.6263941508465933  0.2474107103514598  0.9939337981765419
  0.1248047140767881  0.2360381371448312  0.2569938044608264
  0.1240346849533367  0.7534721717215334  0.7603243013403258
  0.6259346098374365  0.7537712197884261  0.7589592268755680
  0.3770821589981637  0.9961783274235287  0.5011390159327433
  0.3733850826076264  0.4949603240283551  0.0081833594826506
  0.8764630116602632  0.9945705574034918  0.5124723997803500
  0.8748040118027021  0.4968590920755460  0.0000865774215342
  0.3775634619290500  0.9946709810596985  0.2535724369085202
  0.3745033361074164  0.4977700444673800  0.7405865340770532
  0.8739604179787293  0.9969970137683362  0.2429093741829789
  0.8756872578290285  0.9917676919334681  0.7389712194574614
  0.3791729249277154  0.2515423853995031  0.4993855411323622
  0.3767755434815712  0.7579880302382165  0.0086222006111427
  0.3768047415509628  0.7534933783472226  0.5092820302516046
  0.8748894506204508  0.2579612379269562  0.5054067506297812
  0.8724293733827935  0.7559514980196553  0.0049083575994260
  0.8680032689694741  0.7535582752970029  0.5121897647543037
  0.3783571696499024  0.2584646437666507  0.2461911587500225
  0.3765573906390784  0.2501250354480362  0.7512039202455583
  0.3773792076965066  0.7505179754445948  0.2420098532025676
  0.3750389745113196  0.7562057477873338  0.7416639079908833
  0.8744108916246844  0.2567618426652416  0.2441477026063410
  0.8745626664638166  0.2548418632407703  0.7456899481978780
  0.8737458155006976  0.7491734484708985  0.2426070407830281
  0.0022833330110501  0.1271773210853482  0.0025885506666796
  0.9888585253847211  0.1255927767462950  0.5129339161228259
  0.9927376736365545  0.6257434954729248  0.9943236748573838
  0.9909698759828558  0.6217626256636706  0.4961352121305538
  0.5031048889280996  0.1245746743061034  0.9959636858534253
  0.4890258658511968  0.6273285299912743  0.9986851037159497
  0.4997610791002671  0.6258982350132456  0.4953949719104358
  0.9904871989993609  0.1276777458308160  0.2441495048152476
  0.9969806970902440  0.6235385763261689  0.2568685943681643
  0.0101295980897049  0.6238412851184307  0.7518333696906367
  0.4990017120560637  0.6258007024258490  0.2571880432182567
  0.0100013180039014  0.3718827045356576  0.4952977912595102
  0.5019098659806147  0.3714655032745142  0.5090919716495534
  0.4977093139486755  0.8779280783920740  0.5004090997449921
  0.9957626719321979  0.3739906294537931  0.7543325118255169
  0.9979159017403916  0.8760311724889291  0.2479062941113739
  0.0075107521683009  0.8772706332297844  0.7452428824679771
  0.5059439033798157  0.3715320627829328  0.2394963704612607
  0.4972777789867209  0.3731102050606196  0.7435404061036976
  0.4989095675667201  0.8761451108251990  0.2448578421700276
  0.5030119069182959  0.8754227532293442  0.7514910417866361
  0.2480892669938939  0.1250337835297586  0.9921052320827499
  0.2604595930903244  0.1250375551358189  0.4964266452040178
  0.2545960944212595  0.6266398699998277  0.5038260037443294
  0.7461101177842622  0.1259915243163334  0.0042555069372412
  0.7621346784260155  0.6252934038624929  0.0047802547831495
  0.7496383844185104  0.6239469085425213  0.5030565911341043
  0.2615874857023073  0.1267490620927347  0.2549274583750645
  0.2524850025138718  0.1250349431020013  0.7589619483332442
  0.2532465183065966  0.6240168038545733  0.2437240528412374
  0.7606871539231008  0.1258356870617021  0.2459954038947672
  0.7488691890414003  0.6245346649527974  0.2451705421993609
  0.7398843109859712  0.6245195090286515  0.7463697995572716
  0.2474534690170529  0.3763522454686239  0.9990701595366573
  0.2438541827489971  0.8742517354307608  0.0044368055370327
  0.7465221067036723  0.3748200284630698  0.9867791585688508
  0.7466903494549868  0.3711692006195975  0.4879634540157411
  0.7433995569983978  0.8747649132181152  0.0054567362115421
  0.7500490605648054  0.8763848154310807  0.5015817977478108
  0.2534648514103210  0.3762911832595890  0.7548807395284456
  0.2525700529493093  0.8760313220291991  0.2489649288581290
  0.2436037417562531  0.8742469742949197  0.7446783763074052
  0.7461121472555021  0.3738266341677274  0.2654418177888829
  0.7542535692360062  0.3734386800185874  0.7588141108750079
  0.7518707085720422  0.8749917643333518  0.2458289281664534
  0.7505369880445798  0.8750711414612198  0.7454876250715401
 
  0.00000000E+00  0.00000000E+00  0.00000000E+00
  0.00000000E+00  0.00000000E+00  0.00000000E+00
  0.00000000E+00  0.00000000E+00  0.00000000E+00
  0.00000000E+00  0.00000000E+00  0.00000000E+00
  0.00000000E+00  0.00000000E+00  0.00000000E+00
  0.00000000E+00  0.00000000E+00  0.00000000E+00
  0.00000000E+00  0.00000000E+00  0.00000000E+00
  0.00000000E+00  0.00000000E+00  0.00000000E+00
  0.00000000E+00  0.00000000E+00  0.00000000E+00
  0.00000000E+00  0.00000000E+00  0.00000000E+00
  0.00000000E+00  0.00000000E+00  0.00000000E+00
  0.00000000E+00  0.00000000E+00  0.00000000E+00
  0.00000000E+00  0.00000000E+00  0.00000000E+00
  0.00000000E+00  0.00000000E+00  0.00000000E+00
  0.00000000E+00  0.00000000E+00  0.00000000E+00
  0.00000000E+00  0.00000000E+00  0.00000000E+00
  0.00000000E+00  0.00000000E+00  0.00000000E+00
  0.00000000E+00  0.00000000E+00  0.00000000E+00
  0.00000000E+00  0.00000000E+00  0.00000000E+00
  0.00000000E+00  0.00000000E+00  0.00000000E+00
  0.00000000E+00  0.00000000E+00  0.00000000E+00
  0.00000000E+00  0.00000000E+00  0.00000000E+00
  0.00000000E+00  0.00000000E+00  0.00000000E+00
  0.00000000E+00  0.00000000E+00  0.00000000E+00
  0.00000000E+00  0.00000000E+00  0.00000000E+00
  0.00000000E+00  0.00000000E+00  0.00000000E+00
  0.00000000E+00  0.00000000E+00  0.00000000E+00
  0.00000000E+00  0.00000000E+00  0.00000000E+00
  0.00000000E+00  0.00000000E+00  0.00000000E+00
  0.00000000E+00  0.00000000E+00  0.00000000E+00
  0.00000000E+00  0.00000000E+00  0.00000000E+00
  0.00000000E+00  0.00000000E+00  0.00000000E+00
  0.00000000E+00  0.00000000E+00  0.00000000E+00
  0.00000000E+00  0.00000000E+00  0.00000000E+00
  0.00000000E+00  0.00000000E+00  0.00000000E+00
  0.00000000E+00  0.00000000E+00  0.00000000E+00
  0.00000000E+00  0.00000000E+00  0.00000000E+00
  0.00000000E+00  0.00000000E+00  0.00000000E+00
  0.00000000E+00  0.00000000E+00  0.00000000E+00
  0.00000000E+00  0.00000000E+00  0.00000000E+00
  0.00000000E+00  0.00000000E+00  0.00000000E+00
  0.00000000E+00  0.00000000E+00  0.00000000E+00
  0.00000000E+00  0.00000000E+00  0.00000000E+00
  0.00000000E+00  0.00000000E+00  0.00000000E+00
  0.00000000E+00  0.00000000E+00  0.00000000E+00
  0.00000000E+00  0.00000000E+00  0.00000000E+00
  0.00000000E+00  0.00000000E+00  0.00000000E+00
  0.00000000E+00  0.00000000E+00  0.00000000E+00
  0.00000000E+00  0.00000000E+00  0.00000000E+00
  0.00000000E+00  0.00000000E+00  0.00000000E+00
  0.00000000E+00  0.00000000E+00  0.00000000E+00
  0.00000000E+00  0.00000000E+00  0.00000000E+00
  0.00000000E+00  0.00000000E+00  0.00000000E+00
  0.00000000E+00  0.00000000E+00  0.00000000E+00
  0.00000000E+00  0.00000000E+00  0.00000000E+00
  0.00000000E+00  0.00000000E+00  0.00000000E+00
  0.00000000E+00  0.00000000E+00  0.00000000E+00
  0.00000000E+00  0.00000000E+00  0.00000000E+00
  0.00000000E+00  0.00000000E+00  0.00000000E+00
  0.00000000E+00  0.00000000E+00  0.00000000E+00
  0.00000000E+00  0.00000000E+00  0.00000000E+00
  0.00000000E+00  0.00000000E+00  0.00000000E+00
  0.00000000E+00  0.00000000E+00  0.00000000E+00
  0.00000000E+00  0.00000000E+00  0.00000000E+00
  0.00000000E+00  0.00000000E+00  0.00000000E+00
  0.00000000E+00  0.00000000E+00  0.00000000E+00
  0.00000000E+00  0.00000000E+00  0.00000000E+00
  0.00000000E+00  0.00000000E+00  0.00000000E+00
  0.00000000E+00  0.00000000E+00  0.00000000E+00
  0.00000000E+00  0.00000000E+00  0.00000000E+00
  0.00000000E+00  0.00000000E+00  0.00000000E+00
  0.00000000E+00  0.00000000E+00  0.00000000E+00
  0.00000000E+00  0.00000000E+00  0.00000000E+00
  0.00000000E+00  0.00000000E+00  0.00000000E+00
  0.00000000E+00  0.00000000E+00  0.00000000E+00
  0.00000000E+00  0.00000000E+00  0.00000000E+00
  0.00000000E+00  0.00000000E+00  0.00000000E+00
  0.00000000E+00  0.00000000E+00  0.00000000E+00
  0.00000000E+00  0.00000000E+00  0.00000000E+00
  0.00000000E+00  0.00000000E+00  0.00000000E+00
  0.00000000E+00  0.00000000E+00  0.00000000E+00
  0.00000000E+00  0.00000000E+00  0.00000000E+00
  0.00000000E+00  0.00000000E+00  0.00000000E+00
  0.00000000E+00  0.00000000E+00  0.00000000E+00
  0.00000000E+00  0.00000000E+00  0.00000000E+00
  0.00000000E+00  0.00000000E+00  0.00000000E+00
  0.00000000E+00  0.00000000E+00  0.00000000E+00
  0.00000000E+00  0.00000000E+00  0.00000000E+00
  0.00000000E+00  0.00000000E+00  0.00000000E+00
  0.00000000E+00  0.00000000E+00  0.00000000E+00
  0.00000000E+00  0.00000000E+00  0.00000000E+00
  0.00000000E+00  0.00000000E+00  0.00000000E+00
  0.00000000E+00  0.00000000E+00  0.00000000E+00
  0.00000000E+00  0.00000000E+00  0.00000000E+00
  0.00000000E+00  0.00000000E+00  0.00000000E+00
  0.00000000E+00  0.00000000E+00  0.00000000E+00
  0.00000000E+00  0.00000000E+00  0.00000000E+00
  0.00000000E+00  0.00000000E+00  0.00000000E+00
  0.00000000E+00  0.00000000E+00  0.00000000E+00
  0.00000000E+00  0.00000000E+00  0.00000000E+00
  0.00000000E+00  0.00000000E+00  0.00000000E+00
  0.00000000E+00  0.00000000E+00  0.00000000E+00
  0.00000000E+00  0.00000000E+00  0.00000000E+00
  0.00000000E+00  0.00000000E+00  0.00000000E+00
  0.00000000E+00  0.00000000E+00  0.00000000E+00
  0.00000000E+00  0.00000000E+00  0.00000000E+00
  0.00000000E+00  0.00000000E+00  0.00000000E+00
  0.00000000E+00  0.00000000E+00  0.00000000E+00
  0.00000000E+00  0.00000000E+00  0.00000000E+00
  0.00000000E+00  0.00000000E+00  0.00000000E+00
  0.00000000E+00  0.00000000E+00  0.00000000E+00
  0.00000000E+00  0.00000000E+00  0.00000000E+00
  0.00000000E+00  0.00000000E+00  0.00000000E+00
  0.00000000E+00  0.00000000E+00  0.00000000E+00
  0.00000000E+00  0.00000000E+00  0.00000000E+00
  0.00000000E+00  0.00000000E+00  0.00000000E+00
  0.00000000E+00  0.00000000E+00  0.00000000E+00
  0.00000000E+00  0.00000000E+00  0.00000000E+00
  0.00000000E+00  0.00000000E+00  0.00000000E+00
  0.00000000E+00  0.00000000E+00  0.00000000E+00
  0.00000000E+00  0.00000000E+00  0.00000000E+00
  0.00000000E+00  0.00000000E+00  0.00000000E+00
  0.00000000E+00  0.00000000E+00  0.00000000E+00
  0.00000000E+00  0.00000000E+00  0.00000000E+00
  0.00000000E+00  0.00000000E+00  0.00000000E+00
  0.00000000E+00  0.00000000E+00  0.00000000E+00
  0.00000000E+00  0.00000000E+00  0.00000000E+00
  0.00000000E+00  0.00000000E+00  0.00000000E+00
  0.00000000E+00  0.00000000E+00  0.00000000E+00
  0.00000000E+00  0.00000000E+00  0.00000000E+00
  0.00000000E+00  0.00000000E+00  0.00000000E+00
  0.00000000E+00  0.00000000E+00  0.00000000E+00
  0.00000000E+00  0.00000000E+00  0.00000000E+00
  0.00000000E+00  0.00000000E+00  0.00000000E+00
  0.00000000E+00  0.00000000E+00  0.00000000E+00
  0.00000000E+00  0.00000000E+00  0.00000000E+00
  0.00000000E+00  0.00000000E+00  0.00000000E+00
  0.00000000E+00  0.00000000E+00  0.00000000E+00
  0.00000000E+00  0.00000000E+00  0.00000000E+00
  0.00000000E+00  0.00000000E+00  0.00000000E+00
  0.00000000E+00  0.00000000E+00  0.00000000E+00
  0.00000000E+00  0.00000000E+00  0.00000000E+00
  0.00000000E+00  0.00000000E+00  0.00000000E+00
  0.00000000E+00  0.00000000E+00  0.00000000E+00
  0.00000000E+00  0.00000000E+00  0.00000000E+00
  0.00000000E+00  0.00000000E+00  0.00000000E+00
  0.00000000E+00  0.00000000E+00  0.00000000E+00
  0.00000000E+00  0.00000000E+00  0.00000000E+00
  0.00000000E+00  0.00000000E+00  0.00000000E+00
  0.00000000E+00  0.00000000E+00  0.00000000E+00
  0.00000000E+00  0.00000000E+00  0.00000000E+00
  0.00000000E+00  0.00000000E+00  0.00000000E+00
  0.00000000E+00  0.00000000E+00  0.00000000E+00
  0.00000000E+00  0.00000000E+00  0.00000000E+00
  0.00000000E+00  0.00000000E+00  0.00000000E+00
  0.00000000E+00  0.00000000E+00  0.00000000E+00
  0.00000000E+00  0.00000000E+00  0.00000000E+00
  0.00000000E+00  0.00000000E+00  0.00000000E+00
  0.00000000E+00  0.00000000E+00  0.00000000E+00
  0.00000000E+00  0.00000000E+00  0.00000000E+00
  0.00000000E+00  0.00000000E+00  0.00000000E+00
  0.00000000E+00  0.00000000E+00  0.00000000E+00
  0.00000000E+00  0.00000000E+00  0.00000000E+00
  0.00000000E+00  0.00000000E+00  0.00000000E+00
  0.00000000E+00  0.00000000E+00  0.00000000E+00
  0.00000000E+00  0.00000000E+00  0.00000000E+00
  0.00000000E+00  0.00000000E+00  0.00000000E+00
  0.00000000E+00  0.00000000E+00  0.00000000E+00
  0.00000000E+00  0.00000000E+00  0.00000000E+00
  0.00000000E+00  0.00000000E+00  0.00000000E+00
  0.00000000E+00  0.00000000E+00  0.00000000E+00
  0.00000000E+00  0.00000000E+00  0.00000000E+00
  0.00000000E+00  0.00000000E+00  0.00000000E+00
  0.00000000E+00  0.00000000E+00  0.00000000E+00
  0.00000000E+00  0.00000000E+00  0.00000000E+00
  0.00000000E+00  0.00000000E+00  0.00000000E+00
  0.00000000E+00  0.00000000E+00  0.00000000E+00
  0.00000000E+00  0.00000000E+00  0.00000000E+00
  0.00000000E+00  0.00000000E+00  0.00000000E+00
  0.00000000E+00  0.00000000E+00  0.00000000E+00
  0.00000000E+00  0.00000000E+00  0.00000000E+00
  0.00000000E+00  0.00000000E+00  0.00000000E+00
  0.00000000E+00  0.00000000E+00  0.00000000E+00
  0.00000000E+00  0.00000000E+00  0.00000000E+00
  0.00000000E+00  0.00000000E+00  0.00000000E+00
  0.00000000E+00  0.00000000E+00  0.00000000E+00
  0.00000000E+00  0.00000000E+00  0.00000000E+00
  0.00000000E+00  0.00000000E+00  0.00000000E+00
  0.00000000E+00  0.00000000E+00  0.00000000E+00
  0.00000000E+00  0.00000000E+00  0.00000000E+00
  0.00000000E+00  0.00000000E+00  0.00000000E+00
  0.00000000E+00  0.00000000E+00  0.00000000E+00
  0.00000000E+00  0.00000000E+00  0.00000000E+00
  0.00000000E+00  0.00000000E+00  0.00000000E+00
  0.00000000E+00  0.00000000E+00  0.00000000E+00
  0.00000000E+00  0.00000000E+00  0.00000000E+00
  0.00000000E+00  0.00000000E+00  0.00000000E+00
  0.00000000E+00  0.00000000E+00  0.00000000E+00
  0.00000000E+00  0.00000000E+00  0.00000000E+00
  0.00000000E+00  0.00000000E+00  0.00000000E+00
  0.00000000E+00  0.00000000E+00  0.00000000E+00
  0.00000000E+00  0.00000000E+00  0.00000000E+00
  0.00000000E+00  0.00000000E+00  0.00000000E+00
  0.00000000E+00  0.00000000E+00  0.00000000E+00
  0.00000000E+00  0.00000000E+00  0.00000000E+00
  0.00000000E+00  0.00000000E+00  0.00000000E+00
  0.00000000E+00  0.00000000E+00  0.00000000E+00
  0.00000000E+00  0.00000000E+00  0.00000000E+00
  0.00000000E+00  0.00000000E+00  0.00000000E+00
  0.00000000E+00  0.00000000E+00  0.00000000E+00
  0.00000000E+00  0.00000000E+00  0.00000000E+00
  0.00000000E+00  0.00000000E+00  0.00000000E+00
  0.00000000E+00  0.00000000E+00  0.00000000E+00
  0.00000000E+00  0.00000000E+00  0.00000000E+00
  0.00000000E+00  0.00000000E+00  0.00000000E+00
  0.00000000E+00  0.00000000E+00  0.00000000E+00
  0.00000000E+00  0.00000000E+00  0.00000000E+00
  0.00000000E+00  0.00000000E+00  0.00000000E+00
  0.00000000E+00  0.00000000E+00  0.00000000E+00
  0.00000000E+00  0.00000000E+00  0.00000000E+00
  0.00000000E+00  0.00000000E+00  0.00000000E+00
  0.00000000E+00  0.00000000E+00  0.00000000E+00
  0.00000000E+00  0.00000000E+00  0.00000000E+00
  0.00000000E+00  0.00000000E+00  0.00000000E+00
  0.00000000E+00  0.00000000E+00  0.00000000E+00
  0.00000000E+00  0.00000000E+00  0.00000000E+00
  0.00000000E+00  0.00000000E+00  0.00000000E+00
  0.00000000E+00  0.00000000E+00  0.00000000E+00
  0.00000000E+00  0.00000000E+00  0.00000000E+00
  0.00000000E+00  0.00000000E+00  0.00000000E+00
  0.00000000E+00  0.00000000E+00  0.00000000E+00
  0.00000000E+00  0.00000000E+00  0.00000000E+00
  0.00000000E+00  0.00000000E+00  0.00000000E+00
  0.00000000E+00  0.00000000E+00  0.00000000E+00
  0.00000000E+00  0.00000000E+00  0.00000000E+00
  0.00000000E+00  0.00000000E+00  0.00000000E+00
  0.00000000E+00  0.00000000E+00  0.00000000E+00
  0.00000000E+00  0.00000000E+00  0.00000000E+00
  0.00000000E+00  0.00000000E+00  0.00000000E+00
  0.00000000E+00  0.00000000E+00  0.00000000E+00
  0.00000000E+00  0.00000000E+00  0.00000000E+00
  0.00000000E+00  0.00000000E+00  0.00000000E+00
  0.00000000E+00  0.00000000E+00  0.00000000E+00
  0.00000000E+00  0.00000000E+00  0.00000000E+00
  0.00000000E+00  0.00000000E+00  0.00000000E+00
  0.00000000E+00  0.00000000E+00  0.00000000E+00
  0.00000000E+00  0.00000000E+00  0.00000000E+00
  0.00000000E+00  0.00000000E+00  0.00000000E+00
  0.00000000E+00  0.00000000E+00  0.00000000E+00
  0.00000000E+00  0.00000000E+00  0.00000000E+00
  0.00000000E+00  0.00000000E+00  0.00000000E+00
  0.00000000E+00  0.00000000E+00  0.00000000E+00
  0.00000000E+00  0.00000000E+00  0.00000000E+00
  0.00000000E+00  0.00000000E+00  0.00000000E+00
  0.00000000E+00  0.00000000E+00  0.00000000E+00
  0.00000000E+00  0.00000000E+00  0.00000000E+00
  0.00000000E+00  0.00000000E+00  0.00000000E+00
