config 52                               
   1.00000000000000     
    15.4263309999999993    0.0000000000000000    0.0000000000000000
     0.0000000000000000   15.4263309999999993    0.0000000000000000
     0.0000000000000000    0.0000000000000000   15.4263309999999993
   Li   Ti   O    F 
     1    64    64   128
Direct
  0.8740959864038940  0.0763417891343795  0.8833105213294509
  0.9946633172370521  0.9950107959004018  0.9960206887063802
  0.9988377344066908  0.9923055921832965  0.4928603883190710
  0.0051400403029399  0.4949204450852198  0.9971109001354702
  0.9939596224574596  0.5030027795594370  0.5071312747369099
  0.4927328887076918  0.9948240442984021  1.0000186792246168
  0.5015372654276183  0.0084591327612718  0.4995901118382034
  0.5035123969473601  0.4950464951312882  0.9958315683661942
  0.4916586980724433  0.4996075312662132  0.4951451638244316
  0.0063121334482493  0.0035650373480209  0.2565738895676709
  0.0015738536034063  0.0081658200465702  0.7545983014611561
  0.9935696995433423  0.4938495258645255  0.2513551693029080
  0.9932090110742021  0.4985060625324296  0.7416129460448138
  0.5058723571130603  0.0087744464283660  0.2508811220068510
  0.4925945861835674  0.0058901681767019  0.7517473297541117
  0.4925712208796755  0.4967143020427945  0.2571207184838448
  0.5002038294569546  0.5050565437318369  0.7583092944287571
  0.9949987066822819  0.2570089386681397  0.0007578710102207
  0.9993177436870742  0.2479369689652879  0.4907097320488814
  0.9972460798947508  0.7574350513589105  0.0062985937433890
  0.9971732036361194  0.7572152039926614  0.5061803949112397
  0.4942189537495745  0.2578509890232455  0.0005887095164172
  0.5084475366925301  0.2459499682758468  0.4993789987713225
  0.5064724550201694  0.7572333014865562  0.9994772060611750
  0.5068911640810844  0.7533144447949255  0.5090270677282032
  0.0002390073755246  0.2584010696641891  0.2550757305517700
  0.0079278775872616  0.2422780856867811  0.7459488013005798
  0.0068855062408688  0.7490683016049930  0.2434952330931920
  0.9933728166153952  0.7523787596001045  0.7437668286434390
  0.5079045111023150  0.2419150102344879  0.2513231385382841
  0.5085274691161212  0.2434129468535695  0.7495835578216405
  0.5067147749720675  0.7515487501199893  0.2520509547389967
  0.5010900669827023  0.7428930045082396  0.7437571747634376
  0.2555925303092015  0.9991915035775544  0.0059602741364664
  0.2501058500092522  0.9939851627235128  0.5066738460571666
  0.2428948010132335  0.5074677418896770  0.9972711332824845
  0.2542877808952331  0.4947480737375275  0.5063967928150974
  0.7554781361225327  0.9999930900852347  0.9957038912682705
  0.7502228238424348  0.0070844819611251  0.4938998857412614
  0.7416402318959394  0.4995372987346445  0.0048505583816020
  0.7552595341405584  0.4983931673010250  0.5055275401560612
  0.2443549725654104  0.0026462911686045  0.2439000328452888
  0.2584322870343657  0.9969771621418598  0.7443811331437754
  0.2548888449423621  0.4922094596644709  0.2515036209368072
  0.2477183917701023  0.5064656988768638  0.7408196766465011
  0.7446655209138960  0.0002672756865454  0.2562499941110710
  0.7502972073803256  0.0085742617534604  0.7531528893064141
  0.7554701746203935  0.4986811483721933  0.2426915155802856
  0.7570618190339327  0.4991740657097268  0.7426219366233073
  0.2572319803960385  0.2511284843096684  0.0051311498634678
  0.2538065767632098  0.2570362275845107  0.5047492344301900
  0.2512055047402313  0.7426646352287530  0.9933715342007853
  0.2520049207904791  0.7556404999423537  0.4927540716546519
  0.7571214884405937  0.2497379944976703  0.0068300284509313
  0.7425223234009561  0.2429515714227396  0.4976835416285841
  0.7418375865475089  0.7495039309931388  0.9945937530230116
  0.7415876139516910  0.7528550101112347  0.4945682504287391
  0.2513107352806719  0.2578636759453972  0.2431573269755537
  0.2461169406614767  0.2507672495027835  0.7429184000039645
  0.2440371017020116  0.7480899172793216  0.2556960123508438
  0.2491150964368913  0.7418563341363996  0.7563774498618047
  0.7428919751533983  0.2507324817958618  0.2421927204206375
  0.7482602078676828  0.2451804159734057  0.7505995258822526
  0.7456590167316075  0.7499659307230859  0.2572792166898187
  0.7574215108171544  0.7529607351169545  0.7573334013344304
  0.0091812094435460  0.4998070427769760  0.6243962210121339
  0.9938530257979740  0.0085810268046756  0.3760219939390436
  0.9867891379691857  0.0106571470183545  0.8723262407157549
  0.4987213801453588  0.4927311319220112  0.3751219483870443
  0.4933051162288783  0.4964794180259304  0.8746812600116242
  0.9988307969187373  0.7496515386720177  0.1253164938302960
  0.0012401140298378  0.7499741694774360  0.6244422607527955
  0.5013056041518331  0.7519423639613639  0.6246759217824596
  0.9986631638119570  0.2444759625259032  0.3759155389955795
  0.2515778761005502  0.0031877829901424  0.1250859032797199
  0.2508983249657949  0.0030867557105079  0.6252655556917281
  0.2384209169413208  0.4957594084326323  0.6255052599427587
  0.7495435087731763  0.4916297714630488  0.1256862183665041
  0.7450805012228304  0.4959184216262159  0.6238708218274162
  0.7527517332355019  0.9975816676782746  0.3757684715500482
  0.7581579467976917  1.0017020092543309  0.8766526952134752
  0.2483181268822438  0.2498151685668203  0.1252342044901401
  0.2549479255752787  0.2495418727108575  0.6245266729596097
  0.7479986010366876  0.2588797773883995  0.1266392120816839
  0.2541942469973485  0.7464693211572029  0.3743850734475352
  0.2516710654062600  0.7525546991766539  0.8750600937762507
  0.7522650351383918  0.7523083124674261  0.3745481061445061
  0.7487324601271776  0.7529835334995482  0.8762564891206867
  0.1238456498368141  0.4991622143764515  0.9937508438891054
  0.6254886439481313  0.5024051517692762  0.9973449087774877
  0.1249032657283259  0.0045486344091735  0.2531616001283650
  0.6248970622945075  0.0029103047841577  0.2515960789221646
  0.6241126012354424  0.2595359032383766  0.4973644831960518
  0.6244057002852121  0.7483795327388447  0.0033178672059683
  0.6245805807836861  0.7644475191837055  0.4964904567609115
  0.1254597453503796  0.2426749068935730  0.7464377038956949
  0.1251658281956191  0.7503317637557144  0.2514285551877071
  0.6253887655766274  0.2431541055460421  0.2571815141427592
  0.6232260123716177  0.2435469783491913  0.7429852490695358
  0.6227966090883668  0.7518447076318796  0.2512789901488944
  0.3749902788513766  0.0039720569458954  0.9943799476718385
  0.3751564516406480  0.5076282516399451  0.5044912647357646
  0.8733727737139441  0.0168356728159945  1.0011337517132108
  0.8753607903788257  0.5048799466493555  0.5002122128218259
  0.3757158096700913  0.9875514341534585  0.7536547332855736
  0.3736453501056608  0.4949702937146208  0.2477986359130485
  0.8756051816708490  0.4958348386302098  0.2514521304402440
  0.8757158652491390  0.4998893189184498  0.7453938022113236
  0.3752807080496098  0.2441681945209760  0.0002464883338913
  0.8746950361623596  0.2386621845542058  0.9997434029977547
  0.8754235575073861  0.7547425173583561  0.7499459287587658
  0.5123686804214995  0.1226578231971382  0.4936410776502276
  0.9864800102618507  0.1254575158916671  0.7415851960732883
  0.4932076237987859  0.1250110272066453  0.2640216264193967
  0.4916710734574123  0.1228207316483509  0.7493675532277604
  0.4941803263665305  0.6261738999252472  0.7512044769126088
  0.9945700945235920  0.3747356731440133  0.0010865410466364
  0.9938567247843089  0.8758226524659461  0.9972822050534098
  0.9921964374064066  0.8754876694756679  0.4958976663601329
  0.4982036378442199  0.3740494514777633  0.0083109541673755
  0.4992420115894536  0.8758297692872778  0.0061475691442027
  0.0085913503046210  0.3740860325780448  0.2494605148187163
  0.2498922639868770  0.6252949517033169  0.0016263613119824
  0.7389642093147062  0.1244700703774851  0.5011732384542404
  0.2560768924000388  0.6248407666076714  0.7493574446578567
  0.7723625883854981  0.1196135400059365  0.7502577898764208
  0.2547728882534645  0.3734109260796418  0.4932750388073820
  0.2553666810232738  0.8758904513116942  0.4991201183944340
  0.2403590114498221  0.3746156662593230  0.2560260806348624
  1.0009913015179117 -0.0000031526977135  0.1262794743142533
  0.0066281022258622  0.9958028086886981  0.6238107561223792
  1.0015768777486851  0.5058675357221354  0.1248440266408201
  0.4966589145457724  0.0091284615263068  0.1264263518472970
  0.5017933652616419  0.9967795224023946  0.6229681861337846
  0.5028662135217887  0.5082886168424713  0.1273075267293805
  0.5078777603457175  0.5020014569776576  0.6243824046169422
  0.0025332265532271  0.4996087247494800  0.3758347618729890
  0.9943153263494647  0.5007979337752909  0.8727318768293888
  0.5004521950602681  0.9875687231517329  0.3768103917178356
  0.5118555136048795 -0.0025283442070082  0.8755016163327671
  0.0035313383137171  0.2477310347706952  0.1268123363467013
  0.9976077663521805  0.2596810583055935  0.6207693574188780
  0.5029369530715883  0.2376103382355327  0.1268246196689778
  0.4907916224620993  0.2461986142229917  0.6222052408833602
  0.4959259907155649  0.7445684706203299  0.1270959556748747
  0.9993046877410117  0.2454373056965769  0.8736777720849639
  0.9947577682863286  0.7482395549759642  0.3750592673678842
  0.0020445933749037  0.7485060529058915  0.8743202396606090
  0.4945414573800291  0.2638000899261647  0.3756839583948274
  0.5034606736206133  0.2531422720257795  0.8749265264541752
  0.4927996128997952  0.7562113380499775  0.3756804306427282
  0.4973446903447530  0.7547615607252725  0.8743648471623647
  0.2434069632587971  0.4945957879616454  0.1244656339417223
  0.7488422807031417  0.0014615595894888  0.1273122960471446
  0.7439578779350233 -0.0041575328079135  0.6225548294474818
  0.2540266327029884  0.0017551408387475  0.3753338513641460
  0.2450852894263494  0.9956257212844092  0.8745391253937054
  0.2480514822125965  0.5114093658329850  0.3749536390425250
  0.2595798537066662  0.4977227354695172  0.8734486945206990
  0.7469991590672519  0.5061962071670265  0.3746703971255927
  0.7535803152666241  0.5070497292957321  0.8745957913789718
  0.2516554063621922  0.7549002210106331  0.1248511282624784
  0.2495163677782194  0.7516024629470694  0.6247928819105913
  0.7563827599450746  0.2579029778550773  0.6191764043280076
  0.7522426611688592  0.7482286607024732  0.1263559490810298
  0.7479548343365857  0.7492338318662835  0.6247035284365000
  0.2499800638047384  0.2433372557571260  0.3740105304154285
  0.2486577256088244  0.2504570674232058  0.8749886307221815
  0.7591733583453386  0.2445403890359295  0.3734478512856007
  0.7484506486376153  0.2400339591547250  0.8808850491074137
  0.1242965042985294  0.9975490018840760  0.9974813041958772
  0.1244848369228039  0.0002821725049722  0.4959880589352272
  0.1233568987246016  0.4969112943822363  0.4911264394302745
  0.6257422264125064  0.9957887142339902  0.0048747419154981
  0.6240284696747205  0.9814010933516506  0.4994883339942928
  0.6250551975233146  0.4917072235879745  0.4967924033873808
  0.1263113379964791  0.0091308423856424  0.7528881970476706
  0.1238954160120416  0.5094090831332198  0.2500364492670047
  0.1236694819321906  0.5020309591109230  0.7634258757578426
  0.6246980975180533  0.0066011797392213  0.7466651186112029
  0.6248615092849419  0.5018994524983429  0.2508166462665877
  0.6260656803204988  0.5025152092568581  0.7558845057185537
  0.1245699997442055  0.2540762906951184  0.9971681171433309
  0.1240045544081023  0.2500627766395006  0.5007228263665324
  0.1244279620026509  0.7515850847706600  0.0005389444392004
  0.1240665282807361  0.7541750421535599  0.4963463958099519
  0.6255484522043804  0.2533260062058192  1.0004067974501314
  0.1246473811266855  0.2354993673926010  0.2526089751290882
  0.1239197865651647  0.7453258753210531  0.7505187803075384
  0.6261675809270615  0.7463795772920703  0.7511594546167648
  0.3776541650713912  0.0104992379699292  0.4989714722546016
  0.3728769079193610  0.4999468792171600  0.0080567955589678
  0.8746523006556070  0.0111757913112407  0.5108976881487373
  0.8747409290733871  0.5032133305379519  1.0004777681555652
  0.3768707568704369  0.9946051573843320  0.2535297936451864
  0.3744631809811800  0.4913915464127607  0.7401436822243372
  0.8741196800738584  0.9974238484071398  0.2457570772169616
  0.8763937701356123  0.9807114186817210  0.7397509481334903
  0.3787357458352171  0.2391513561149822  0.4940555674757051
  0.3760365936062239  0.7524574741330025  0.0024261560127559
  0.3771802565877595  0.7410610457039771  0.5018433968172071
  0.8749103030320908  0.2451124071661439  0.5002947821571266
  0.8724052855541246  0.7469500076309155  0.9994993757543921
  0.8725009769538279  0.7398038204548180  0.5030907082885803
  0.3778318218012900  0.2586802705218468  0.2495625651481741
  0.3749891257848346  0.2564839225458781  0.7546887336097758
  0.3767124353564748  0.7509126650884238  0.2473070747643525
  0.3750622074221415  0.7631884786805714  0.7484878638356043
  0.8746502228858301  0.2567466378407312  0.2484550919806076
  0.8783863717265092  0.2636413752278116  0.7517384543567474
  0.8738649336864293  0.7500001405162162  0.2491989569050052
  0.0096155347611227  0.1269038489220657  0.0018647255080794
  1.0028545047440254  0.1255637929639694  0.5108873790688310
  0.9983673517277435  0.6257961705984026  0.9966676481498710
  0.0058220301333407  0.6270399677625844  0.4953995668968994
  0.5080669332750236  0.1240734045008995  0.9962058021937608
  0.4940303312721619  0.6276351710303076  0.9983943391633211
  0.5104213199182177  0.6270221621943872  0.4950178839584817
  0.9905001167874216  0.1276281879762446  0.2436489314621328
  0.9965054877603651  0.6239314169987074  0.2535621148775625
  0.0021939928338286  0.6252317829832779  0.7525734996654150
  0.4982718556972318  0.6262769126412439  0.2565789555254798
 -0.0022314808960210  0.3737933765421073  0.4956380685356872
  0.4902433289705206  0.3722127373047626  0.5079282538307028
  0.4856391001696060  0.8783098174816852  0.5005999020289021
  0.0062016075497435  0.3742966753572646  0.7532088395265020
  0.9970087748187844  0.8763964577876897  0.2536743701908566
  0.0116011820559664  0.8765587318537483  0.7526226080762534
  0.5055460278823593  0.3717910855014874  0.2396961027480665
  0.5022992659933188  0.3741596089599711  0.7436686054122411
  0.4981605235889982  0.8763109399426409  0.2443475659517728
  0.5105421916448197  0.8754907292362852  0.7509832209088038
  0.2409707202533105  0.1247763673279523  0.9938291351882672
  0.2464160023222438  0.1243808921590824  0.4966750522870699
  0.2426771936689570  0.6268132210142865  0.5044960177261597
  0.7360271479155238  0.1250897275067668  0.0068466667119562
  0.7548008217645931  0.6252410423594662  0.0043352619694071
  0.7402319429707479  0.6260516014637857  0.5009971048721099
  0.2611682635637189  0.1264347400438423  0.2530239215329046
  0.2594322035846454  0.1240353183571686  0.7567125712597990
  0.2529899858417353  0.6239745886446355  0.2409308366484102
  0.7604985369529024  0.1256535906784544  0.2483187571701599
  0.7496218409486255  0.6250682965266934  0.2472628303744497
  0.7481769046944736  0.6265070400768284  0.7477542907442498
  0.2524178960915796  0.3760816505565228  0.9971982066139482
  0.2484510480492311  0.8744134402189055  0.0024080371705848
  0.7547562668843575  0.3744214207061067  0.9885549626298773
  0.7576990340133596  0.3728217864320210  0.4895946528882831
  0.7554595481419804  0.8746768287163917  0.0093810200808998
  0.7645657645016989  0.8764268964071216  0.5040338429073152
  0.2457790914860269  0.3757184892657841  0.7557796737796062
  0.2523891655851052  0.8758705224468393  0.2514224354294410
  0.2377106002766352  0.8736033717665864  0.7467757143551600
  0.7451917678862345  0.3742707169015386  0.2643079663361174
  0.7456489460621726  0.3777291207883037  0.7586592563280203
  0.7520698160289979  0.8750291642256768  0.2435723868636241
  0.7411744135281367  0.8752949722031481  0.7459034999479712
 
  0.00000000E+00  0.00000000E+00  0.00000000E+00
  0.00000000E+00  0.00000000E+00  0.00000000E+00
  0.00000000E+00  0.00000000E+00  0.00000000E+00
  0.00000000E+00  0.00000000E+00  0.00000000E+00
  0.00000000E+00  0.00000000E+00  0.00000000E+00
  0.00000000E+00  0.00000000E+00  0.00000000E+00
  0.00000000E+00  0.00000000E+00  0.00000000E+00
  0.00000000E+00  0.00000000E+00  0.00000000E+00
  0.00000000E+00  0.00000000E+00  0.00000000E+00
  0.00000000E+00  0.00000000E+00  0.00000000E+00
  0.00000000E+00  0.00000000E+00  0.00000000E+00
  0.00000000E+00  0.00000000E+00  0.00000000E+00
  0.00000000E+00  0.00000000E+00  0.00000000E+00
  0.00000000E+00  0.00000000E+00  0.00000000E+00
  0.00000000E+00  0.00000000E+00  0.00000000E+00
  0.00000000E+00  0.00000000E+00  0.00000000E+00
  0.00000000E+00  0.00000000E+00  0.00000000E+00
  0.00000000E+00  0.00000000E+00  0.00000000E+00
  0.00000000E+00  0.00000000E+00  0.00000000E+00
  0.00000000E+00  0.00000000E+00  0.00000000E+00
  0.00000000E+00  0.00000000E+00  0.00000000E+00
  0.00000000E+00  0.00000000E+00  0.00000000E+00
  0.00000000E+00  0.00000000E+00  0.00000000E+00
  0.00000000E+00  0.00000000E+00  0.00000000E+00
  0.00000000E+00  0.00000000E+00  0.00000000E+00
  0.00000000E+00  0.00000000E+00  0.00000000E+00
  0.00000000E+00  0.00000000E+00  0.00000000E+00
  0.00000000E+00  0.00000000E+00  0.00000000E+00
  0.00000000E+00  0.00000000E+00  0.00000000E+00
  0.00000000E+00  0.00000000E+00  0.00000000E+00
  0.00000000E+00  0.00000000E+00  0.00000000E+00
  0.00000000E+00  0.00000000E+00  0.00000000E+00
  0.00000000E+00  0.00000000E+00  0.00000000E+00
  0.00000000E+00  0.00000000E+00  0.00000000E+00
  0.00000000E+00  0.00000000E+00  0.00000000E+00
  0.00000000E+00  0.00000000E+00  0.00000000E+00
  0.00000000E+00  0.00000000E+00  0.00000000E+00
  0.00000000E+00  0.00000000E+00  0.00000000E+00
  0.00000000E+00  0.00000000E+00  0.00000000E+00
  0.00000000E+00  0.00000000E+00  0.00000000E+00
  0.00000000E+00  0.00000000E+00  0.00000000E+00
  0.00000000E+00  0.00000000E+00  0.00000000E+00
  0.00000000E+00  0.00000000E+00  0.00000000E+00
  0.00000000E+00  0.00000000E+00  0.00000000E+00
  0.00000000E+00  0.00000000E+00  0.00000000E+00
  0.00000000E+00  0.00000000E+00  0.00000000E+00
  0.00000000E+00  0.00000000E+00  0.00000000E+00
  0.00000000E+00  0.00000000E+00  0.00000000E+00
  0.00000000E+00  0.00000000E+00  0.00000000E+00
  0.00000000E+00  0.00000000E+00  0.00000000E+00
  0.00000000E+00  0.00000000E+00  0.00000000E+00
  0.00000000E+00  0.00000000E+00  0.00000000E+00
  0.00000000E+00  0.00000000E+00  0.00000000E+00
  0.00000000E+00  0.00000000E+00  0.00000000E+00
  0.00000000E+00  0.00000000E+00  0.00000000E+00
  0.00000000E+00  0.00000000E+00  0.00000000E+00
  0.00000000E+00  0.00000000E+00  0.00000000E+00
  0.00000000E+00  0.00000000E+00  0.00000000E+00
  0.00000000E+00  0.00000000E+00  0.00000000E+00
  0.00000000E+00  0.00000000E+00  0.00000000E+00
  0.00000000E+00  0.00000000E+00  0.00000000E+00
  0.00000000E+00  0.00000000E+00  0.00000000E+00
  0.00000000E+00  0.00000000E+00  0.00000000E+00
  0.00000000E+00  0.00000000E+00  0.00000000E+00
  0.00000000E+00  0.00000000E+00  0.00000000E+00
  0.00000000E+00  0.00000000E+00  0.00000000E+00
  0.00000000E+00  0.00000000E+00  0.00000000E+00
  0.00000000E+00  0.00000000E+00  0.00000000E+00
  0.00000000E+00  0.00000000E+00  0.00000000E+00
  0.00000000E+00  0.00000000E+00  0.00000000E+00
  0.00000000E+00  0.00000000E+00  0.00000000E+00
  0.00000000E+00  0.00000000E+00  0.00000000E+00
  0.00000000E+00  0.00000000E+00  0.00000000E+00
  0.00000000E+00  0.00000000E+00  0.00000000E+00
  0.00000000E+00  0.00000000E+00  0.00000000E+00
  0.00000000E+00  0.00000000E+00  0.00000000E+00
  0.00000000E+00  0.00000000E+00  0.00000000E+00
  0.00000000E+00  0.00000000E+00  0.00000000E+00
  0.00000000E+00  0.00000000E+00  0.00000000E+00
  0.00000000E+00  0.00000000E+00  0.00000000E+00
  0.00000000E+00  0.00000000E+00  0.00000000E+00
  0.00000000E+00  0.00000000E+00  0.00000000E+00
  0.00000000E+00  0.00000000E+00  0.00000000E+00
  0.00000000E+00  0.00000000E+00  0.00000000E+00
  0.00000000E+00  0.00000000E+00  0.00000000E+00
  0.00000000E+00  0.00000000E+00  0.00000000E+00
  0.00000000E+00  0.00000000E+00  0.00000000E+00
  0.00000000E+00  0.00000000E+00  0.00000000E+00
  0.00000000E+00  0.00000000E+00  0.00000000E+00
  0.00000000E+00  0.00000000E+00  0.00000000E+00
  0.00000000E+00  0.00000000E+00  0.00000000E+00
  0.00000000E+00  0.00000000E+00  0.00000000E+00
  0.00000000E+00  0.00000000E+00  0.00000000E+00
  0.00000000E+00  0.00000000E+00  0.00000000E+00
  0.00000000E+00  0.00000000E+00  0.00000000E+00
  0.00000000E+00  0.00000000E+00  0.00000000E+00
  0.00000000E+00  0.00000000E+00  0.00000000E+00
  0.00000000E+00  0.00000000E+00  0.00000000E+00
  0.00000000E+00  0.00000000E+00  0.00000000E+00
  0.00000000E+00  0.00000000E+00  0.00000000E+00
  0.00000000E+00  0.00000000E+00  0.00000000E+00
  0.00000000E+00  0.00000000E+00  0.00000000E+00
  0.00000000E+00  0.00000000E+00  0.00000000E+00
  0.00000000E+00  0.00000000E+00  0.00000000E+00
  0.00000000E+00  0.00000000E+00  0.00000000E+00
  0.00000000E+00  0.00000000E+00  0.00000000E+00
  0.00000000E+00  0.00000000E+00  0.00000000E+00
  0.00000000E+00  0.00000000E+00  0.00000000E+00
  0.00000000E+00  0.00000000E+00  0.00000000E+00
  0.00000000E+00  0.00000000E+00  0.00000000E+00
  0.00000000E+00  0.00000000E+00  0.00000000E+00
  0.00000000E+00  0.00000000E+00  0.00000000E+00
  0.00000000E+00  0.00000000E+00  0.00000000E+00
  0.00000000E+00  0.00000000E+00  0.00000000E+00
  0.00000000E+00  0.00000000E+00  0.00000000E+00
  0.00000000E+00  0.00000000E+00  0.00000000E+00
  0.00000000E+00  0.00000000E+00  0.00000000E+00
  0.00000000E+00  0.00000000E+00  0.00000000E+00
  0.00000000E+00  0.00000000E+00  0.00000000E+00
  0.00000000E+00  0.00000000E+00  0.00000000E+00
  0.00000000E+00  0.00000000E+00  0.00000000E+00
  0.00000000E+00  0.00000000E+00  0.00000000E+00
  0.00000000E+00  0.00000000E+00  0.00000000E+00
  0.00000000E+00  0.00000000E+00  0.00000000E+00
  0.00000000E+00  0.00000000E+00  0.00000000E+00
  0.00000000E+00  0.00000000E+00  0.00000000E+00
  0.00000000E+00  0.00000000E+00  0.00000000E+00
  0.00000000E+00  0.00000000E+00  0.00000000E+00
  0.00000000E+00  0.00000000E+00  0.00000000E+00
  0.00000000E+00  0.00000000E+00  0.00000000E+00
  0.00000000E+00  0.00000000E+00  0.00000000E+00
  0.00000000E+00  0.00000000E+00  0.00000000E+00
  0.00000000E+00  0.00000000E+00  0.00000000E+00
  0.00000000E+00  0.00000000E+00  0.00000000E+00
  0.00000000E+00  0.00000000E+00  0.00000000E+00
  0.00000000E+00  0.00000000E+00  0.00000000E+00
  0.00000000E+00  0.00000000E+00  0.00000000E+00
  0.00000000E+00  0.00000000E+00  0.00000000E+00
  0.00000000E+00  0.00000000E+00  0.00000000E+00
  0.00000000E+00  0.00000000E+00  0.00000000E+00
  0.00000000E+00  0.00000000E+00  0.00000000E+00
  0.00000000E+00  0.00000000E+00  0.00000000E+00
  0.00000000E+00  0.00000000E+00  0.00000000E+00
  0.00000000E+00  0.00000000E+00  0.00000000E+00
  0.00000000E+00  0.00000000E+00  0.00000000E+00
  0.00000000E+00  0.00000000E+00  0.00000000E+00
  0.00000000E+00  0.00000000E+00  0.00000000E+00
  0.00000000E+00  0.00000000E+00  0.00000000E+00
  0.00000000E+00  0.00000000E+00  0.00000000E+00
  0.00000000E+00  0.00000000E+00  0.00000000E+00
  0.00000000E+00  0.00000000E+00  0.00000000E+00
  0.00000000E+00  0.00000000E+00  0.00000000E+00
  0.00000000E+00  0.00000000E+00  0.00000000E+00
  0.00000000E+00  0.00000000E+00  0.00000000E+00
  0.00000000E+00  0.00000000E+00  0.00000000E+00
  0.00000000E+00  0.00000000E+00  0.00000000E+00
  0.00000000E+00  0.00000000E+00  0.00000000E+00
  0.00000000E+00  0.00000000E+00  0.00000000E+00
  0.00000000E+00  0.00000000E+00  0.00000000E+00
  0.00000000E+00  0.00000000E+00  0.00000000E+00
  0.00000000E+00  0.00000000E+00  0.00000000E+00
  0.00000000E+00  0.00000000E+00  0.00000000E+00
  0.00000000E+00  0.00000000E+00  0.00000000E+00
  0.00000000E+00  0.00000000E+00  0.00000000E+00
  0.00000000E+00  0.00000000E+00  0.00000000E+00
  0.00000000E+00  0.00000000E+00  0.00000000E+00
  0.00000000E+00  0.00000000E+00  0.00000000E+00
  0.00000000E+00  0.00000000E+00  0.00000000E+00
  0.00000000E+00  0.00000000E+00  0.00000000E+00
  0.00000000E+00  0.00000000E+00  0.00000000E+00
  0.00000000E+00  0.00000000E+00  0.00000000E+00
  0.00000000E+00  0.00000000E+00  0.00000000E+00
  0.00000000E+00  0.00000000E+00  0.00000000E+00
  0.00000000E+00  0.00000000E+00  0.00000000E+00
  0.00000000E+00  0.00000000E+00  0.00000000E+00
  0.00000000E+00  0.00000000E+00  0.00000000E+00
  0.00000000E+00  0.00000000E+00  0.00000000E+00
  0.00000000E+00  0.00000000E+00  0.00000000E+00
  0.00000000E+00  0.00000000E+00  0.00000000E+00
  0.00000000E+00  0.00000000E+00  0.00000000E+00
  0.00000000E+00  0.00000000E+00  0.00000000E+00
  0.00000000E+00  0.00000000E+00  0.00000000E+00
  0.00000000E+00  0.00000000E+00  0.00000000E+00
  0.00000000E+00  0.00000000E+00  0.00000000E+00
  0.00000000E+00  0.00000000E+00  0.00000000E+00
  0.00000000E+00  0.00000000E+00  0.00000000E+00
  0.00000000E+00  0.00000000E+00  0.00000000E+00
  0.00000000E+00  0.00000000E+00  0.00000000E+00
  0.00000000E+00  0.00000000E+00  0.00000000E+00
  0.00000000E+00  0.00000000E+00  0.00000000E+00
  0.00000000E+00  0.00000000E+00  0.00000000E+00
  0.00000000E+00  0.00000000E+00  0.00000000E+00
  0.00000000E+00  0.00000000E+00  0.00000000E+00
  0.00000000E+00  0.00000000E+00  0.00000000E+00
  0.00000000E+00  0.00000000E+00  0.00000000E+00
  0.00000000E+00  0.00000000E+00  0.00000000E+00
  0.00000000E+00  0.00000000E+00  0.00000000E+00
  0.00000000E+00  0.00000000E+00  0.00000000E+00
  0.00000000E+00  0.00000000E+00  0.00000000E+00
  0.00000000E+00  0.00000000E+00  0.00000000E+00
  0.00000000E+00  0.00000000E+00  0.00000000E+00
  0.00000000E+00  0.00000000E+00  0.00000000E+00
  0.00000000E+00  0.00000000E+00  0.00000000E+00
  0.00000000E+00  0.00000000E+00  0.00000000E+00
  0.00000000E+00  0.00000000E+00  0.00000000E+00
  0.00000000E+00  0.00000000E+00  0.00000000E+00
  0.00000000E+00  0.00000000E+00  0.00000000E+00
  0.00000000E+00  0.00000000E+00  0.00000000E+00
  0.00000000E+00  0.00000000E+00  0.00000000E+00
  0.00000000E+00  0.00000000E+00  0.00000000E+00
  0.00000000E+00  0.00000000E+00  0.00000000E+00
  0.00000000E+00  0.00000000E+00  0.00000000E+00
  0.00000000E+00  0.00000000E+00  0.00000000E+00
  0.00000000E+00  0.00000000E+00  0.00000000E+00
  0.00000000E+00  0.00000000E+00  0.00000000E+00
  0.00000000E+00  0.00000000E+00  0.00000000E+00
  0.00000000E+00  0.00000000E+00  0.00000000E+00
  0.00000000E+00  0.00000000E+00  0.00000000E+00
  0.00000000E+00  0.00000000E+00  0.00000000E+00
  0.00000000E+00  0.00000000E+00  0.00000000E+00
  0.00000000E+00  0.00000000E+00  0.00000000E+00
  0.00000000E+00  0.00000000E+00  0.00000000E+00
  0.00000000E+00  0.00000000E+00  0.00000000E+00
  0.00000000E+00  0.00000000E+00  0.00000000E+00
  0.00000000E+00  0.00000000E+00  0.00000000E+00
  0.00000000E+00  0.00000000E+00  0.00000000E+00
  0.00000000E+00  0.00000000E+00  0.00000000E+00
  0.00000000E+00  0.00000000E+00  0.00000000E+00
  0.00000000E+00  0.00000000E+00  0.00000000E+00
  0.00000000E+00  0.00000000E+00  0.00000000E+00
  0.00000000E+00  0.00000000E+00  0.00000000E+00
  0.00000000E+00  0.00000000E+00  0.00000000E+00
  0.00000000E+00  0.00000000E+00  0.00000000E+00
  0.00000000E+00  0.00000000E+00  0.00000000E+00
  0.00000000E+00  0.00000000E+00  0.00000000E+00
  0.00000000E+00  0.00000000E+00  0.00000000E+00
  0.00000000E+00  0.00000000E+00  0.00000000E+00
  0.00000000E+00  0.00000000E+00  0.00000000E+00
  0.00000000E+00  0.00000000E+00  0.00000000E+00
  0.00000000E+00  0.00000000E+00  0.00000000E+00
  0.00000000E+00  0.00000000E+00  0.00000000E+00
  0.00000000E+00  0.00000000E+00  0.00000000E+00
  0.00000000E+00  0.00000000E+00  0.00000000E+00
  0.00000000E+00  0.00000000E+00  0.00000000E+00
  0.00000000E+00  0.00000000E+00  0.00000000E+00
  0.00000000E+00  0.00000000E+00  0.00000000E+00
  0.00000000E+00  0.00000000E+00  0.00000000E+00
  0.00000000E+00  0.00000000E+00  0.00000000E+00
  0.00000000E+00  0.00000000E+00  0.00000000E+00
  0.00000000E+00  0.00000000E+00  0.00000000E+00
  0.00000000E+00  0.00000000E+00  0.00000000E+00
  0.00000000E+00  0.00000000E+00  0.00000000E+00
  0.00000000E+00  0.00000000E+00  0.00000000E+00
  0.00000000E+00  0.00000000E+00  0.00000000E+00
  0.00000000E+00  0.00000000E+00  0.00000000E+00
  0.00000000E+00  0.00000000E+00  0.00000000E+00
  0.00000000E+00  0.00000000E+00  0.00000000E+00
