TiOF2 2x2x2 config 0007                 
   1.00000000000000     
     7.9079620779781425    0.0000002742403727   -0.0000000352131151
     0.0000002041446864    7.7972445558645127   -0.0000003402521558
    -0.0000000341292704   -0.0000003273870851    7.5164738632537196
   Ti   O    F 
     8     8    16
Direct
 -0.0000000257001004  0.0003809196014430  0.9891037749139515
  0.0000000319455322  0.0003809115073409  0.5108961714238803
  0.9999999803032358  0.5000394302242021  0.0003865402772881
  0.9999999863994600  0.5000393815996034  0.4996127186728563
  0.5000000059653728  0.9830905839593385  0.0108907619963554
  0.5000000223714116  0.9830904581663285  0.4891096921488854
  0.4999999848818447  0.5071684557397586  0.9996304588179684
  0.4999999811074636  0.5071685049670041  0.5003696309095681
  0.4999999416454642  0.7554469955096024  0.9957863349926263
  0.4999999686523012  0.7554466907918318  0.5042133221990509
  1.0000000126843953  0.9999537147806964  0.7500000339828319
  0.9999999745318383  0.5009046044060546  0.2500000961128306
  0.9999999834632680  0.5008569096842520  0.7500001708452542
  0.5000000382077657  0.0107115535982377  0.2499995874212905
  0.4999999966287404  0.4949639919546308  0.2499998983339945
  0.4999999876156936  0.4958916887500551  0.7500001438327411
  0.2415522710363983  0.0011490005226310  0.0016067318988593
  0.2415522678547303  0.0011488771547190  0.4983931929917549
  0.2444687302685146  0.4984579102903439  0.9999475866597176
  0.2444687043200091  0.4984578936625729  0.5000525850476942
  0.7584477329562529  0.0011489044909702  0.0016067198517627
  0.7584477775736802  0.0011488170149405  0.4983931847637535
  0.7555312438703382  0.4984578348862986  0.9999476040077541
  0.7555312666189860  0.4984577783148724  0.5000526239171788
  1.0000000199566184  0.2444154368902044  0.0054962337015444
  0.0000000572260835  0.2444153950253559  0.4945038725699697
 -0.0000000068800256  0.7560871769749404  0.0053736235651851
 -0.0000000018514080  0.7560871420695304  0.4946266097265215
  0.5000000307459426  0.2450894411055456  0.9947527182993592
  0.4999999744989723  0.2450895934811367  0.5052473279503285
  0.0000000099998701  0.9997333329354996  0.2499999699323933
  0.5000000511013852  0.0151206699400592  0.7500000782348275
 
  0.00000000E+00  0.00000000E+00  0.00000000E+00
  0.00000000E+00  0.00000000E+00  0.00000000E+00
  0.00000000E+00  0.00000000E+00  0.00000000E+00
  0.00000000E+00  0.00000000E+00  0.00000000E+00
  0.00000000E+00  0.00000000E+00  0.00000000E+00
  0.00000000E+00  0.00000000E+00  0.00000000E+00
  0.00000000E+00  0.00000000E+00  0.00000000E+00
  0.00000000E+00  0.00000000E+00  0.00000000E+00
  0.00000000E+00  0.00000000E+00  0.00000000E+00
  0.00000000E+00  0.00000000E+00  0.00000000E+00
  0.00000000E+00  0.00000000E+00  0.00000000E+00
  0.00000000E+00  0.00000000E+00  0.00000000E+00
  0.00000000E+00  0.00000000E+00  0.00000000E+00
  0.00000000E+00  0.00000000E+00  0.00000000E+00
  0.00000000E+00  0.00000000E+00  0.00000000E+00
  0.00000000E+00  0.00000000E+00  0.00000000E+00
  0.00000000E+00  0.00000000E+00  0.00000000E+00
  0.00000000E+00  0.00000000E+00  0.00000000E+00
  0.00000000E+00  0.00000000E+00  0.00000000E+00
  0.00000000E+00  0.00000000E+00  0.00000000E+00
  0.00000000E+00  0.00000000E+00  0.00000000E+00
  0.00000000E+00  0.00000000E+00  0.00000000E+00
  0.00000000E+00  0.00000000E+00  0.00000000E+00
  0.00000000E+00  0.00000000E+00  0.00000000E+00
  0.00000000E+00  0.00000000E+00  0.00000000E+00
  0.00000000E+00  0.00000000E+00  0.00000000E+00
  0.00000000E+00  0.00000000E+00  0.00000000E+00
  0.00000000E+00  0.00000000E+00  0.00000000E+00
  0.00000000E+00  0.00000000E+00  0.00000000E+00
  0.00000000E+00  0.00000000E+00  0.00000000E+00
  0.00000000E+00  0.00000000E+00  0.00000000E+00
  0.00000000E+00  0.00000000E+00  0.00000000E+00
