Ti27 O27 F54                            
   1.00000000000000     
    11.5878808171220289    0.0001679848084813    0.0098284252271901
     0.0001522076030288   11.5907015786126877    0.0002113513153207
     0.0098463946132919    0.0002175098601833   11.6032143132621357
   Ti   O    F 
    27    27    54
Direct
 -0.0121751082134065 -0.0001625643858327  0.0092613249878058
 -0.0006970464229528  0.0113142680134182  0.3238695783882736
 -0.0100982521733753  0.0068415733553086  0.6664518348512835
 -0.0000530956856029  0.3419417108969912  0.0121499657340131
 -0.0096361649525674  0.3245779911239240  0.3254702041237075
  0.0018381022517382  0.3194211253681913  0.6668262313952830
  0.0010484389754959  0.6563733957058174  0.0109289210491860
  0.0106676445162219  0.6675379686624696  0.3229662100479109
  0.0007214494247767  0.6656790863271609  0.6668184395060724
  0.3330704164869597  0.0003358922167450 -0.0007458805534591
  0.3378219793931898  0.0094877119311537  0.3430476690789591
  0.3326580921298761 -0.0104538120636690  0.6544677163895181
  0.3373315314917964  0.3460233176192815  0.0082253352928821
  0.3314926520274319  0.3234670087498761  0.3215948378620006
  0.3466860262265457  0.3332409027203350  0.6676399373548042
  0.3412198281881439  0.6551457247478122  0.0070090236667228
  0.3241636124253038  0.6663134422707132  0.3217160661068255
  0.3466242792220476  0.6760316320112356  0.6669622712746855
  0.6761270255121569 -0.0091219028409121 -0.0080101092287352
  0.6530707371811030 -0.0003669214924820  0.3336632440046474
  0.6747412554078864  0.0004366416290310  0.6798464004492627
  0.6533067882685285  0.3336090447763770 -0.0009343816433433
  0.6759797271254867  0.3427431591984126  0.3434544482128966
  0.6612879439010412  0.3442248908814864  0.6562972466074621
  0.6556755361042310  0.6776345511390515 -0.0001453379651981
  0.6670372404606311  0.6555514111863980  0.3446363557180658
  0.6583441769070824  0.6563292308731518  0.6584058750782465
  0.0081634282046063  0.1649235914316937  0.3421806329571564
  0.0037983106906061  0.1666864666595634  0.6620309591701917
  0.0043936428684226  0.5003779373977538 -0.0045047594429712
  0.3239778830058707  0.1660627710628307  0.3296163518756992
  0.3211485293154230  0.4998198671714453 -0.0074896525329610
  0.3322889359656739  0.8337721287963423  0.6694297738073757
  0.6626046658312634  0.5011451871387103  0.3306385087970147
  0.6764316172044844  0.5001933228591829  0.6721348851530624
  0.6625479385704387  0.8343979351210870  0.0034328764778489
  0.1660481916493776  0.6663872119032561  0.3414410679616982
  0.5001687862367660 -0.0009251003254105  0.3293320202960999
  0.5005987269904060  0.3374549498298407 -0.0060705658810312
  0.4975425827035744  0.3345744520792463  0.6742042501051455
  0.5003099323943913  0.6607798316672894 -0.0054975775344279
  0.4992187444761055  0.6620075183501394  0.6742221691487305
  0.8342266457380232  0.0025092008477317 -0.0046035925353058
  0.8356915673286244 -0.0043922248548107  0.6686064083364612
  0.8342650098113715  0.3308685251001626  0.3324209161018035
  0.0004931914930855  0.0004752454386859  0.1657028605882039
  0.0066109071419877  0.3317451895543252  0.1656127883515501
  0.0031006378276921  0.6689531501386542  0.1665001466669072
  0.3298430108465206  0.0009347364665530  0.5006016502633188
  0.3279932948420879  0.3367507208674230  0.1661130237740520
  0.3296773274899138  0.6665692715315672  0.1662880137466121
  0.6583994779629505  0.0031419526201757  0.8332813556737665
  0.6642475105500357  0.3312423571160466  0.5011069283344152
  0.6687388282089795  0.6709861728052263  0.5006583113764684
  0.0039252972367191  0.1664069490860353 -0.0102845810309740
 -0.0030161543871029  0.5014420690338540  0.3386995628631075
 -0.0059315432784202  0.5022332307304541  0.6711207269767534
  0.0005604057441155  0.8327826282420815 -0.0076011467864984
 -0.0062350595203262  0.8334679376351574  0.3404787719408199
  0.0103960787172430  0.8301386229534486  0.6663501300053805
  0.3320447552908276  0.1631944099365777  0.0021886738300464
  0.3266054650626339  0.1668132210997490  0.6685727008011290
  0.3423181835253226  0.4997073968544746  0.3402391305452163
  0.3253150116538720  0.4996193559990940  0.6695910049306997
  0.3367005343514632  0.8374606521781185 -0.0074886193918307
  0.3341130524042437  0.8337657792209435  0.3332410182016680
  0.6623682729536320  0.1666771615822825  0.0047671108479733
  0.6661215491155033  0.1650191822309172  0.3312898180849181
  0.6705297869219217  0.1667767492196704  0.6653525404393401
  0.6774190885487894  0.4991050875927764 -0.0022824908106261
  0.6718225208302797  0.8346198622890314  0.3266788239514869
  0.6630906341002344  0.8342392457766442  0.6687282683614276
  0.1697175038012133 -0.0016785017732930 -0.0064530216880845
  0.1664602389453397 -0.0140872396158809  0.3308333166217025
  0.1660466230337309 -0.0001706461987870  0.6736219422241847
  0.1661416262375530  0.3214804767833018 -0.0095483540338983
  0.1664121140115468  0.3463923418607288  0.3433970604826233
  0.1659712294636613  0.3396661941818919  0.6661697378221410
  0.1662551160794192  0.6798327229382205 -0.0065072134543788
  0.1633198547794093  0.6599249216631641  0.6598024945122687
  0.4960425096569288  0.0049040545363199  0.0098129945712918
  0.5001699280764971  0.0067169033740565  0.6627678865165525
  0.4990837173481779  0.3267256353039744  0.3312347140729822
  0.4993449339584846  0.6751563517981756  0.3325204542277158
  0.8315476933381405  0.0020079260460113  0.3387921859103461
  0.8329424426055085  0.3274078855403978  0.0009255643701868
  0.8367073444897566  0.3299911210183449  0.6678529020595719
  0.8348958995226005  0.6684825764608708 -0.0028763962844090
  0.8355931989482019  0.6674372901937866  0.3335580147445238
  0.8384334887577591  0.6776713042152559  0.6710626304379808
  0.0062484695368828 -0.0096495177731519  0.5013702806233356
  0.0074961671204284 -0.0036433271132465  0.8323394488958312
  0.0010976004912090  0.3441018308910555  0.5037873896466152
 -0.0011618684555750  0.3332915528564992  0.8309770769286241
 -0.0074882501523384  0.6649130757313264  0.5043559852223743
  0.0032503738139184  0.6699055043424368  0.8294905061661449
  0.3254019843162594 -0.0063953711272066  0.1622862589683208
  0.3404202130365860  0.0063025805453753  0.8356512841989557
  0.3344034323978061  0.3331202359162729  0.5018303868506504
  0.3248784495805082  0.3249847452728664  0.8326811920037331
  0.3372787085186052  0.6651971616036042  0.5003920059715162
  0.3211695907556700  0.6686099697686286  0.8324194146777281
  0.6706247425185746  0.0047171902004747  0.1674255229618179
  0.6648817401784093 -0.0019887965173746  0.5002639611433874
  0.6644284036971401  0.3314349219026203  0.1646684579513574
  0.6756990694023297  0.3252784971923775  0.8344117639231305
  0.6700629788404060  0.6658851415404955  0.1665900838815173
  0.6772907105498523  0.6710048953829421  0.8331874442849623
 
  0.00000000E+00  0.00000000E+00  0.00000000E+00
  0.00000000E+00  0.00000000E+00  0.00000000E+00
  0.00000000E+00  0.00000000E+00  0.00000000E+00
  0.00000000E+00  0.00000000E+00  0.00000000E+00
  0.00000000E+00  0.00000000E+00  0.00000000E+00
  0.00000000E+00  0.00000000E+00  0.00000000E+00
  0.00000000E+00  0.00000000E+00  0.00000000E+00
  0.00000000E+00  0.00000000E+00  0.00000000E+00
  0.00000000E+00  0.00000000E+00  0.00000000E+00
  0.00000000E+00  0.00000000E+00  0.00000000E+00
  0.00000000E+00  0.00000000E+00  0.00000000E+00
  0.00000000E+00  0.00000000E+00  0.00000000E+00
  0.00000000E+00  0.00000000E+00  0.00000000E+00
  0.00000000E+00  0.00000000E+00  0.00000000E+00
  0.00000000E+00  0.00000000E+00  0.00000000E+00
  0.00000000E+00  0.00000000E+00  0.00000000E+00
  0.00000000E+00  0.00000000E+00  0.00000000E+00
  0.00000000E+00  0.00000000E+00  0.00000000E+00
  0.00000000E+00  0.00000000E+00  0.00000000E+00
  0.00000000E+00  0.00000000E+00  0.00000000E+00
  0.00000000E+00  0.00000000E+00  0.00000000E+00
  0.00000000E+00  0.00000000E+00  0.00000000E+00
  0.00000000E+00  0.00000000E+00  0.00000000E+00
  0.00000000E+00  0.00000000E+00  0.00000000E+00
  0.00000000E+00  0.00000000E+00  0.00000000E+00
  0.00000000E+00  0.00000000E+00  0.00000000E+00
  0.00000000E+00  0.00000000E+00  0.00000000E+00
  0.00000000E+00  0.00000000E+00  0.00000000E+00
  0.00000000E+00  0.00000000E+00  0.00000000E+00
  0.00000000E+00  0.00000000E+00  0.00000000E+00
  0.00000000E+00  0.00000000E+00  0.00000000E+00
  0.00000000E+00  0.00000000E+00  0.00000000E+00
  0.00000000E+00  0.00000000E+00  0.00000000E+00
  0.00000000E+00  0.00000000E+00  0.00000000E+00
  0.00000000E+00  0.00000000E+00  0.00000000E+00
  0.00000000E+00  0.00000000E+00  0.00000000E+00
  0.00000000E+00  0.00000000E+00  0.00000000E+00
  0.00000000E+00  0.00000000E+00  0.00000000E+00
  0.00000000E+00  0.00000000E+00  0.00000000E+00
  0.00000000E+00  0.00000000E+00  0.00000000E+00
  0.00000000E+00  0.00000000E+00  0.00000000E+00
  0.00000000E+00  0.00000000E+00  0.00000000E+00
  0.00000000E+00  0.00000000E+00  0.00000000E+00
  0.00000000E+00  0.00000000E+00  0.00000000E+00
  0.00000000E+00  0.00000000E+00  0.00000000E+00
  0.00000000E+00  0.00000000E+00  0.00000000E+00
  0.00000000E+00  0.00000000E+00  0.00000000E+00
  0.00000000E+00  0.00000000E+00  0.00000000E+00
  0.00000000E+00  0.00000000E+00  0.00000000E+00
  0.00000000E+00  0.00000000E+00  0.00000000E+00
  0.00000000E+00  0.00000000E+00  0.00000000E+00
  0.00000000E+00  0.00000000E+00  0.00000000E+00
  0.00000000E+00  0.00000000E+00  0.00000000E+00
  0.00000000E+00  0.00000000E+00  0.00000000E+00
  0.00000000E+00  0.00000000E+00  0.00000000E+00
  0.00000000E+00  0.00000000E+00  0.00000000E+00
  0.00000000E+00  0.00000000E+00  0.00000000E+00
  0.00000000E+00  0.00000000E+00  0.00000000E+00
  0.00000000E+00  0.00000000E+00  0.00000000E+00
  0.00000000E+00  0.00000000E+00  0.00000000E+00
  0.00000000E+00  0.00000000E+00  0.00000000E+00
  0.00000000E+00  0.00000000E+00  0.00000000E+00
  0.00000000E+00  0.00000000E+00  0.00000000E+00
  0.00000000E+00  0.00000000E+00  0.00000000E+00
  0.00000000E+00  0.00000000E+00  0.00000000E+00
  0.00000000E+00  0.00000000E+00  0.00000000E+00
  0.00000000E+00  0.00000000E+00  0.00000000E+00
  0.00000000E+00  0.00000000E+00  0.00000000E+00
  0.00000000E+00  0.00000000E+00  0.00000000E+00
  0.00000000E+00  0.00000000E+00  0.00000000E+00
  0.00000000E+00  0.00000000E+00  0.00000000E+00
  0.00000000E+00  0.00000000E+00  0.00000000E+00
  0.00000000E+00  0.00000000E+00  0.00000000E+00
  0.00000000E+00  0.00000000E+00  0.00000000E+00
  0.00000000E+00  0.00000000E+00  0.00000000E+00
  0.00000000E+00  0.00000000E+00  0.00000000E+00
  0.00000000E+00  0.00000000E+00  0.00000000E+00
  0.00000000E+00  0.00000000E+00  0.00000000E+00
  0.00000000E+00  0.00000000E+00  0.00000000E+00
  0.00000000E+00  0.00000000E+00  0.00000000E+00
  0.00000000E+00  0.00000000E+00  0.00000000E+00
  0.00000000E+00  0.00000000E+00  0.00000000E+00
  0.00000000E+00  0.00000000E+00  0.00000000E+00
  0.00000000E+00  0.00000000E+00  0.00000000E+00
  0.00000000E+00  0.00000000E+00  0.00000000E+00
  0.00000000E+00  0.00000000E+00  0.00000000E+00
  0.00000000E+00  0.00000000E+00  0.00000000E+00
  0.00000000E+00  0.00000000E+00  0.00000000E+00
  0.00000000E+00  0.00000000E+00  0.00000000E+00
  0.00000000E+00  0.00000000E+00  0.00000000E+00
  0.00000000E+00  0.00000000E+00  0.00000000E+00
  0.00000000E+00  0.00000000E+00  0.00000000E+00
  0.00000000E+00  0.00000000E+00  0.00000000E+00
  0.00000000E+00  0.00000000E+00  0.00000000E+00
  0.00000000E+00  0.00000000E+00  0.00000000E+00
  0.00000000E+00  0.00000000E+00  0.00000000E+00
  0.00000000E+00  0.00000000E+00  0.00000000E+00
  0.00000000E+00  0.00000000E+00  0.00000000E+00
  0.00000000E+00  0.00000000E+00  0.00000000E+00
  0.00000000E+00  0.00000000E+00  0.00000000E+00
  0.00000000E+00  0.00000000E+00  0.00000000E+00
  0.00000000E+00  0.00000000E+00  0.00000000E+00
  0.00000000E+00  0.00000000E+00  0.00000000E+00
  0.00000000E+00  0.00000000E+00  0.00000000E+00
  0.00000000E+00  0.00000000E+00  0.00000000E+00
  0.00000000E+00  0.00000000E+00  0.00000000E+00
  0.00000000E+00  0.00000000E+00  0.00000000E+00
  0.00000000E+00  0.00000000E+00  0.00000000E+00
