TiOF2 2x2x2 config 1440                 
   1.00000000000000     
     7.7872072468129980    0.0005583003056395   -0.0016808939551302
     0.0005792880400212    7.7007002679885046   -0.0013205105584866
    -0.0016557982886529   -0.0013108500042250    7.7369340692962254
   Ti   O    F 
     8     8    16
Direct
  0.0021886907126172  0.0012775639201597  0.0004880687602700
  0.0009750052050581  0.9797803312507078  0.5003306427606251
  0.9818585009778259  0.5006078683924048  0.9865513997159536
  0.9850936126143707  0.4993089041472077  0.5123861988343194
  0.5015182413543724  0.0007897104906373  0.0024211882283649
  0.5004751966683164  0.0010518171995382  0.4816729996523343
  0.5054444330107090  0.5009356322355017  0.0070979645998957
  0.5108055306327135  0.5003156341601854  0.4830726923845500
  0.7548012951192592  0.5012748492613910  0.0005834456735646
  0.7510458431558357  0.4977502843173648  0.4984416872332480
  0.0006511231876037  0.7568692791237959  0.4983119251617606
  0.5002342799802556  0.2433107295644585  0.9976170588826165
  0.5002737206710846  0.7582049836762443  0.9977187415466473
  0.0033555185231427  0.4975631693065055  0.7500801584989431
  0.5023351836716963  0.0004971608511765  0.2574332566147352
  0.4960029353803032  0.5010042625608725  0.2540446957244034
  0.2404619807839416  0.0003575120405229  0.9968824566404265
  0.2480580055614546  0.0043492134824538  0.5037291970513832
  0.2430580120520702  0.5014726065327625  0.0020778872366258
  0.2484046374041866  0.4974070897400023  0.4986812596143828
  0.7634516183671769  0.0004000883780640  0.9968219540225377
  0.7532450598979520  0.0055007603390375  0.5043027073964738
  0.0047728630038559  0.2423482732284350  0.0053631270730764
  0.0028805170860583  0.2394686493886560  0.4957729550971546
  0.0045888622289079  0.7596190170350776  0.0053658379571754
  0.4955204649289888  0.2469040192822570  0.5129972708044944
  0.4956043826512057  0.7545942709970559  0.5123843441378828
  0.0005376283814243  0.0037642060849795  0.2463637563094021
  0.0007772502420973  0.0045720874761829  0.7545313202557077
  0.0076715813277401  0.4972812171929729  0.2487486799810072
  0.5024697117220704  0.0001950116917597  0.7421657348508180
  0.4914383134956773  0.5012237966516203  0.7455593872991971
 
  0.00000000E+00  0.00000000E+00  0.00000000E+00
  0.00000000E+00  0.00000000E+00  0.00000000E+00
  0.00000000E+00  0.00000000E+00  0.00000000E+00
  0.00000000E+00  0.00000000E+00  0.00000000E+00
  0.00000000E+00  0.00000000E+00  0.00000000E+00
  0.00000000E+00  0.00000000E+00  0.00000000E+00
  0.00000000E+00  0.00000000E+00  0.00000000E+00
  0.00000000E+00  0.00000000E+00  0.00000000E+00
  0.00000000E+00  0.00000000E+00  0.00000000E+00
  0.00000000E+00  0.00000000E+00  0.00000000E+00
  0.00000000E+00  0.00000000E+00  0.00000000E+00
  0.00000000E+00  0.00000000E+00  0.00000000E+00
  0.00000000E+00  0.00000000E+00  0.00000000E+00
  0.00000000E+00  0.00000000E+00  0.00000000E+00
  0.00000000E+00  0.00000000E+00  0.00000000E+00
  0.00000000E+00  0.00000000E+00  0.00000000E+00
  0.00000000E+00  0.00000000E+00  0.00000000E+00
  0.00000000E+00  0.00000000E+00  0.00000000E+00
  0.00000000E+00  0.00000000E+00  0.00000000E+00
  0.00000000E+00  0.00000000E+00  0.00000000E+00
  0.00000000E+00  0.00000000E+00  0.00000000E+00
  0.00000000E+00  0.00000000E+00  0.00000000E+00
  0.00000000E+00  0.00000000E+00  0.00000000E+00
  0.00000000E+00  0.00000000E+00  0.00000000E+00
  0.00000000E+00  0.00000000E+00  0.00000000E+00
  0.00000000E+00  0.00000000E+00  0.00000000E+00
  0.00000000E+00  0.00000000E+00  0.00000000E+00
  0.00000000E+00  0.00000000E+00  0.00000000E+00
  0.00000000E+00  0.00000000E+00  0.00000000E+00
  0.00000000E+00  0.00000000E+00  0.00000000E+00
  0.00000000E+00  0.00000000E+00  0.00000000E+00
  0.00000000E+00  0.00000000E+00  0.00000000E+00
