TiOF2 2x2x2 config 0010                 
   1.00000000000000     
     7.8951517623112455    0.0000000025987075    0.0000000055026597
    -0.0000000025042485    7.8161180295648736   -0.0000000030777397
     0.0000000080496059   -0.0000000139938387    7.4844144487346673
   Ti   O    F 
     8     8    16
Direct
  0.9999999999923119  0.0004645761380218  0.9999997412928039
  0.0000000000038369  0.0004647666843809  0.4999987991569199
  0.9999999999964828  0.5000432661339858  0.0000000566529721
  0.9999999999969091  0.5000430845317396  0.4999994868638424
  0.4999999999886313  0.9789276463657401  0.0000002863570288
  0.4999999999859597  0.9789394925522501  0.4999999278589655
  0.4999999999948130  0.5005390193305530  0.0000001261838634
  0.4999999999988702  0.5005390997809087  0.4999996972214547
  0.5000000000012577  0.7571151212906031  0.9999999625567924
  0.4999999999952962  0.7570941056849207  0.5000000294994322
  0.9999999999875868  0.9998174584027737  0.2499997213274341
  0.0000000000005542  0.9998175302562444  0.7500005556785823
  0.0000000000072191  0.5006287448739073  0.2500003793378482
  0.9999999999982947  0.5006287711900654  0.7499998051752570
  0.4999999999984084  0.4986218058437615  0.2500040662870120
  0.5000000000018119  0.4986217164159470  0.7499959646070025
  0.2523832451472927  0.0018507958716327  0.0000000374234972
  0.2523822977586789  0.0018527358640625  0.5000000427107452
  0.2482060099066743  0.4981430215748404  0.0000000885124578
  0.2482072668121162  0.4981448122048349  0.5000000854813607
  0.7476167548371961  0.0018507958905332  0.0000000868959305
  0.7476177022354733  0.0018527358390017  0.5000000922199845
  0.7517939900882737  0.4981430215699376  0.0000000289547586
  0.7517927331869316  0.4981448122203389  0.5000000259081432
  0.0000000000172804  0.2486590381072347  0.0000001824092450
  0.9999999999973568  0.2486593280939147  0.5000001657910289
  0.0000000000040856  0.7517893878304633  0.0000001141261592
  0.0000000000056275  0.7517892503003836  0.5000001153348137
  0.4999999999769500  0.2434543050979556  0.0000000594787153
  0.5000000000127613  0.2434572396520522  0.4999999686029071
  0.5000000000456382  0.0199511085911652  0.2499986726917527
  0.5000000000194333  0.0199514058158670  0.7500016274012822
 
  0.00000000E+00  0.00000000E+00  0.00000000E+00
  0.00000000E+00  0.00000000E+00  0.00000000E+00
  0.00000000E+00  0.00000000E+00  0.00000000E+00
  0.00000000E+00  0.00000000E+00  0.00000000E+00
  0.00000000E+00  0.00000000E+00  0.00000000E+00
  0.00000000E+00  0.00000000E+00  0.00000000E+00
  0.00000000E+00  0.00000000E+00  0.00000000E+00
  0.00000000E+00  0.00000000E+00  0.00000000E+00
  0.00000000E+00  0.00000000E+00  0.00000000E+00
  0.00000000E+00  0.00000000E+00  0.00000000E+00
  0.00000000E+00  0.00000000E+00  0.00000000E+00
  0.00000000E+00  0.00000000E+00  0.00000000E+00
  0.00000000E+00  0.00000000E+00  0.00000000E+00
  0.00000000E+00  0.00000000E+00  0.00000000E+00
  0.00000000E+00  0.00000000E+00  0.00000000E+00
  0.00000000E+00  0.00000000E+00  0.00000000E+00
  0.00000000E+00  0.00000000E+00  0.00000000E+00
  0.00000000E+00  0.00000000E+00  0.00000000E+00
  0.00000000E+00  0.00000000E+00  0.00000000E+00
  0.00000000E+00  0.00000000E+00  0.00000000E+00
  0.00000000E+00  0.00000000E+00  0.00000000E+00
  0.00000000E+00  0.00000000E+00  0.00000000E+00
  0.00000000E+00  0.00000000E+00  0.00000000E+00
  0.00000000E+00  0.00000000E+00  0.00000000E+00
  0.00000000E+00  0.00000000E+00  0.00000000E+00
  0.00000000E+00  0.00000000E+00  0.00000000E+00
  0.00000000E+00  0.00000000E+00  0.00000000E+00
  0.00000000E+00  0.00000000E+00  0.00000000E+00
  0.00000000E+00  0.00000000E+00  0.00000000E+00
  0.00000000E+00  0.00000000E+00  0.00000000E+00
  0.00000000E+00  0.00000000E+00  0.00000000E+00
  0.00000000E+00  0.00000000E+00  0.00000000E+00
