TiOF2 2x2x2 config 0010                 
   1.00000000000000     
     7.8951517623112455    0.0000000025987075    0.0000000055026597
    -0.0000000025042485    7.8161180295648736   -0.0000000030777397
     0.0000000080496059   -0.0000000139938387    7.4844144487346673
   Ti   O    F 
     8     8    16
Direct
 -0.0000000000076855  0.0004645761380198 -0.0000002587071984
  0.0000000000038338  0.0004647666843843  0.4999987991569196
 -0.0000000000035172  0.5000432661339838  0.0000000566529690
 -0.0000000000030935  0.5000430845317390  0.4999994868638425
  0.4999999999886294 -0.0210723536342624  0.0000002863570263
  0.4999999999859629 -0.0210605074477476  0.4999999278589673
  0.4999999999948107  0.5005390193305502  0.0000001261838636
  0.4999999999988686  0.5005390997809083  0.4999996972214570
  0.5000000000012573  0.7571151212906018 -0.0000000374432086
  0.4999999999952954  0.7570941056849175  0.5000000294994354
 -0.0000000000124105 -0.0001825415972267  0.2499997213274352
  0.0000000000005514 -0.0001824697437547  0.7500005556785787
  0.0000000000072190  0.5006287448739094  0.2500003793378506
 -0.0000000000017081  0.5006287711900620  0.7499998051752594
  0.4999999999984094  0.4986218058437584  0.2500040662870129
  0.5000000000018106  0.4986217164159437  0.7499959646070038
  0.2523832451472952  0.0018507958716317  0.0000000374234969
  0.2523822977586783  0.0018527358640632  0.5000000427107434
  0.2482060099066765  0.4981430215748384  0.0000000885124561
  0.2482072668121183  0.4981448122048317  0.5000000854813627
  0.7476167548371969  0.0018507958905297  0.0000000868959292
  0.7476177022354726  0.0018527358390040  0.5000000922199815
  0.7517939900882711  0.4981430215699396  0.0000000289547592
  0.7517927331869318  0.4981448122203385  0.5000000259081459
  0.0000000000172807  0.2486590381072361  0.0000001824092472
 -0.0000000000026465  0.2486593280939157  0.5000001657910321
  0.0000000000040877  0.7517893878304607  0.0000001141261602
  0.0000000000056287  0.7517892503003850  0.5000001153348154
  0.4999999999769494  0.2434543050979549  0.0000000594787162
  0.5000000000127598  0.2434572396520523  0.4999999686029035
  0.5000000000456355  0.0199511085911654  0.2499986726917549
  0.5000000000194300  0.0199514058158665  0.7500016274012814
 
  0.00000000E+00  0.00000000E+00  0.00000000E+00
  0.00000000E+00  0.00000000E+00  0.00000000E+00
  0.00000000E+00  0.00000000E+00  0.00000000E+00
  0.00000000E+00  0.00000000E+00  0.00000000E+00
  0.00000000E+00  0.00000000E+00  0.00000000E+00
  0.00000000E+00  0.00000000E+00  0.00000000E+00
  0.00000000E+00  0.00000000E+00  0.00000000E+00
  0.00000000E+00  0.00000000E+00  0.00000000E+00
  0.00000000E+00  0.00000000E+00  0.00000000E+00
  0.00000000E+00  0.00000000E+00  0.00000000E+00
  0.00000000E+00  0.00000000E+00  0.00000000E+00
  0.00000000E+00  0.00000000E+00  0.00000000E+00
  0.00000000E+00  0.00000000E+00  0.00000000E+00
  0.00000000E+00  0.00000000E+00  0.00000000E+00
  0.00000000E+00  0.00000000E+00  0.00000000E+00
  0.00000000E+00  0.00000000E+00  0.00000000E+00
  0.00000000E+00  0.00000000E+00  0.00000000E+00
  0.00000000E+00  0.00000000E+00  0.00000000E+00
  0.00000000E+00  0.00000000E+00  0.00000000E+00
  0.00000000E+00  0.00000000E+00  0.00000000E+00
  0.00000000E+00  0.00000000E+00  0.00000000E+00
  0.00000000E+00  0.00000000E+00  0.00000000E+00
  0.00000000E+00  0.00000000E+00  0.00000000E+00
  0.00000000E+00  0.00000000E+00  0.00000000E+00
  0.00000000E+00  0.00000000E+00  0.00000000E+00
  0.00000000E+00  0.00000000E+00  0.00000000E+00
  0.00000000E+00  0.00000000E+00  0.00000000E+00
  0.00000000E+00  0.00000000E+00  0.00000000E+00
  0.00000000E+00  0.00000000E+00  0.00000000E+00
  0.00000000E+00  0.00000000E+00  0.00000000E+00
  0.00000000E+00  0.00000000E+00  0.00000000E+00
  0.00000000E+00  0.00000000E+00  0.00000000E+00
