TiOF2 2x2x2 config 0016                 
   1.00000000000000     
     7.9137604037601950   -0.0000016177337414    0.0000056307119348
    -0.0000019772262192    7.7662233866119834   -0.0000688251403690
     0.0000050803322243   -0.0000671009234061    7.5428908887200761
   Ti   O    F 
     8     8    16
Direct
  0.9999994850066471  0.0000040006363520  0.9874142988214984
  0.9999985072376347  0.0000033280313687  0.5087085681531676
  0.0000005399518130  0.5000039880022484  0.0015252723547903
  0.0000006642671764  0.5000042164981551  0.5007493160165097
  0.4999999829455533  0.9999993335604245  0.9836879186606708
  0.4999987152731862  0.0000261521311486  0.5016600204927713
  0.5000005790430322  0.4999981627372918  0.9997873757104685
  0.5000004814853298  0.5000553992427612  0.4981702073397329
  0.5000000741334105  0.2421253050992718  0.4989350881202412
  0.4999994850627942  0.7578267528617531  0.4989334064800417
  0.9999960896715976  0.0000036452167436  0.7508920834018298
  0.0000009275488466  0.5000033172884528  0.2497059980878973
  0.9999999004459852  0.5000051780231232  0.7520567462026122
  0.5000016343854412  0.9999822473785542  0.7565578497846275
  0.5000000600506311  0.4999884431210759  0.2452704098091232
  0.5000010827872643  0.4999847426094206  0.7580750956570483
  0.2444297852215129  0.0000036887492172  0.0060203472150206
  0.2386262021362882  0.9999866339774997  0.4916918531604821
  0.2454594963259353  0.5000032301628181  0.0009196753051697
  0.2427955148194059  0.4999982254550872  0.5012403887916577
  0.7555696481978416  0.0000052003214037  0.0060258386598022
  0.7613710888500975  0.9999860244873702  0.4916885874275394
  0.7545416173376509  0.5000037619514401  0.0009214601547995
  0.7572056851825550  0.5000012566116894  0.5012384288074188
  0.0000003023316069  0.2438719148255686  0.0059170156836927
  0.9999996166129250  0.2445589351242461  0.4954584292285205
  0.9999998377994288  0.7561364098754382  0.0059184501149190
  0.0000020439310831  0.7554466994611602  0.4954545647868187
  0.4999997701571104  0.2445786303172000  0.0081113935750849
  0.5000009740376115  0.7554200305964400  0.0081070420227149
  0.0000020675263883  0.0000061687525843  0.2480811765868722
  0.4999981402362010  0.9999789768927343  0.2410756933864633
 
  0.00000000E+00  0.00000000E+00  0.00000000E+00
  0.00000000E+00  0.00000000E+00  0.00000000E+00
  0.00000000E+00  0.00000000E+00  0.00000000E+00
  0.00000000E+00  0.00000000E+00  0.00000000E+00
  0.00000000E+00  0.00000000E+00  0.00000000E+00
  0.00000000E+00  0.00000000E+00  0.00000000E+00
  0.00000000E+00  0.00000000E+00  0.00000000E+00
  0.00000000E+00  0.00000000E+00  0.00000000E+00
  0.00000000E+00  0.00000000E+00  0.00000000E+00
  0.00000000E+00  0.00000000E+00  0.00000000E+00
  0.00000000E+00  0.00000000E+00  0.00000000E+00
  0.00000000E+00  0.00000000E+00  0.00000000E+00
  0.00000000E+00  0.00000000E+00  0.00000000E+00
  0.00000000E+00  0.00000000E+00  0.00000000E+00
  0.00000000E+00  0.00000000E+00  0.00000000E+00
  0.00000000E+00  0.00000000E+00  0.00000000E+00
  0.00000000E+00  0.00000000E+00  0.00000000E+00
  0.00000000E+00  0.00000000E+00  0.00000000E+00
  0.00000000E+00  0.00000000E+00  0.00000000E+00
  0.00000000E+00  0.00000000E+00  0.00000000E+00
  0.00000000E+00  0.00000000E+00  0.00000000E+00
  0.00000000E+00  0.00000000E+00  0.00000000E+00
  0.00000000E+00  0.00000000E+00  0.00000000E+00
  0.00000000E+00  0.00000000E+00  0.00000000E+00
  0.00000000E+00  0.00000000E+00  0.00000000E+00
  0.00000000E+00  0.00000000E+00  0.00000000E+00
  0.00000000E+00  0.00000000E+00  0.00000000E+00
  0.00000000E+00  0.00000000E+00  0.00000000E+00
  0.00000000E+00  0.00000000E+00  0.00000000E+00
  0.00000000E+00  0.00000000E+00  0.00000000E+00
  0.00000000E+00  0.00000000E+00  0.00000000E+00
  0.00000000E+00  0.00000000E+00  0.00000000E+00
