config 54                               
   1.00000000000000     
    15.4263309999999993    0.0000000000000000    0.0000000000000000
     0.0000000000000000   15.4263309999999993    0.0000000000000000
     0.0000000000000000    0.0000000000000000   15.4263309999999993
   Li   Ti   O    F 
     1    64    64   128
Direct
  0.8715143451961752  0.4481877641856614  0.3768725285807761
  0.9951135946270230  0.9951184492371892  0.9944846733017038
  1.0002869808674926  0.9930361201246641  0.4935243509839190
  0.0053888704679913  0.4951338349357639  0.9978003509765460
  0.9959699701216838  0.5032604668699622  0.5098844649056358
  0.4940471297379003  0.9939438845098584  0.9994002401115586
  0.5004939500076984  0.0078121554768669  0.4995295926884478
  0.5039157811937437  0.4947684129257985  0.9963322288317488
  0.4918080223450202  0.4986470855261470  0.4948866134283563
  0.0066939754540387  0.0025656298424926  0.2558364390620885
  0.0013181529515603  0.0071350566348794  0.7568555459338332
  0.9969599680867323  0.4914825125312997  0.2468572466644779
  0.9924406128130288  0.4997786013945263  0.7443131774825246
  0.5056879293889683  0.0085378317647881  0.2501960586948605
  0.4926034794005306  0.0048831918997185  0.7517469539398179
  0.4936391609668174  0.4959679522992941  0.2577632359423581
  0.5014133440398196  0.5040023944659230  0.7583609751337209
  0.9948772337993044  0.2572284784726355  0.0036165648256774
  0.9990144737361225  0.2484880693935218  0.4943699432960454
  0.9978041446676645  0.7576859330623299  0.0061024203890464
  0.9982933638647185  0.7573672109942198  0.5058617735571005
  0.4943976448392174  0.2574123255324202  0.0015030786913726
  0.5088603101977049  0.2452033696836512  0.4981395585396754
  0.5073130245446184  0.7560964707500317  0.9993496521272306
  0.5065857662011399  0.7520434026578421  0.5092058053737319
  0.9989318220367208  0.2578030167210809  0.2574325474983460
  0.0063576412215505  0.2422070252397783  0.7496052492402532
  0.0065656667168158  0.7470045913582718  0.2427537178240331
  0.9928735526655819  0.7504688849397757  0.7431023450492835
  0.5077916601229369  0.2412341618378626  0.2517546661873699
  0.5066360799149259  0.2427115490197250  0.7506670155406712
  0.5069571593787214  0.7506482110955438  0.2515373847271567
  0.5016262120419339  0.7418678553507786  0.7435504484679701
  0.2562855902806515  0.9985534328686727  0.0060656383540554
  0.2497693350767169  0.9935024296533483  0.5065461909731181
  0.2431598401990753  0.5077347648362016  0.9982929568858052
  0.2544097357187173  0.4934445700173321  0.5058200322853433
  0.7569455561288361  0.0004128589474854  0.9939342020474967
  0.7507983985616382  0.0065785528357643  0.4943709226485341
  0.7416899458920241  0.5001176417822207  0.0036185303414122
  0.7544716337376042  0.4976835984257762  0.5098074168578379
  0.2447039475281543  0.0024833375856281  0.2437813855274197
  0.2574846410963113  0.9977247746469642  0.7443840385836303
  0.2561317750693400  0.4914945666388624  0.2522918351795718
  0.2475897980138715  0.5058826333521498  0.7408217360916185
  0.7445241919908295  0.0008570368736557  0.2555808680059144
  0.7480481252600276  0.0063957444131265  0.7557122101442517
  0.7556985136248540  0.4980415330285137  0.2390984722696356
  0.7577794273790655  0.4978202711812971  0.7459211894767264
  0.2565772178065214  0.2512726712521757  0.0064937921739017
  0.2521713640787769  0.2561582225694978  0.5052571006708446
  0.2516931666830884  0.7424354471025584  0.9935582601193848
  0.2512965390250548  0.7549890250432486  0.4927206082925119
  0.7563451629506770  0.2507604386205207  0.0072772357826097
  0.7441280494455547  0.2418671892635677  0.4975738479265260
  0.7415683727308375  0.7490575296506342  0.9941087833335714
  0.7419088284362825  0.7515352904901617  0.4940990000198346
  0.2505911283785611  0.2575049502824370  0.2438282883722758
  0.2434630328459674  0.2514515197957440  0.7439233447120412
  0.2437960864507087  0.7473723457963843  0.2555048535003686
  0.2480023458989149  0.7415953280660316  0.7565994048007794
  0.7412351005031155  0.2498681104215499  0.2415972365912565
  0.7439247288456665  0.2415459226203250  0.7510319920015066
  0.7456484747965924  0.7494748942250016  0.2564636938213106
  0.7574133209568975  0.7504206440351369  0.7568736382289302
  0.0012102501611722  0.5093741072739882  0.6263933807772358
  0.9960600430544018  0.0018432665320924  0.3754831189723996
  1.0002509334951031 -0.0006409594383572  0.8730896434269508
  0.5046500889637239  0.4933021017730839  0.3752192391191414
  0.4985582140714155  0.4966577062985117  0.8748902857166050
  0.9963935658067783  0.7426142974473358  0.1255137389229197
 -0.0009382246922103  0.7425629763015642  0.6245001972669468
  0.4979610113730694  0.7524557001678341  0.6247989627203455
  0.9859856101610356  0.2593240385409155  0.3718523426486224
  0.2554549892794981  0.0028323187935932  0.1253038961026244
  0.2545985223559690  0.0027617300130641  0.6253984281202576
  0.2427359692033653  0.4951052125397428  0.6253485245549055
  0.7560201946698155  0.4890304951169049  0.1239050498595170
  0.7518588801527045  0.4920069335598241  0.6263141090412585
  0.7502887635670756  1.0010833201404987  0.3756126542377360
  0.7455356462595031  1.0003690483085506  0.8733179158571331
  0.2420673099262450  0.2494533421656361  0.1258830219502280
  0.2477828695389939  0.2498629327388329  0.6253605074508726
  0.7361412270285057  0.2598395793272522  0.1256814247266087
  0.2523368678120267  0.7461156872612512  0.3743986951063197
  0.2488306388329698  0.7519645517506289  0.8752102920948260
  0.7498557200789857  0.7488479412887412  0.3739596902751989
  0.7454013100818556  0.7495078306496680  0.8754091856319879
  0.1239454313724285  0.5037167143092954  1.0003808313242677
  0.6260713425660061  0.5072291581403596  0.0025682814478294
  0.1254482398721819  0.0064863357608132  0.2511451277068075
  0.6247885758697934  0.0060035614810236  0.2494288632015831
  0.6244031115502306  0.2520695056634516  0.4878156570068987
  0.6245805139636104  0.7412651001501400  0.0061105937787477
  0.6247731484608119  0.7552301942139770  0.4992358788503204
  0.1243680949757303  0.2514772069335862  0.7552043200604742
  0.1254528036633478  0.7457281167701800  0.2491559059286386
  0.6251993027208310  0.2394137456561273  0.2654887117785260
  0.6252568109540252  0.2523389947262208  0.7546370102349275
  0.6232033339928825  0.7474380339908510  0.2481155250643457
  0.3759581633942254 -0.0002538384185833  0.9918963449801463
  0.3756266617761042  0.5011209131514278  0.4998468384643388
  0.8727058420006709  0.0019648414230865 -0.0001189628737623
  0.8752360934586766  0.4937209738059310  0.4926380043529531
  0.3760163599144085  0.9962546882361075  0.7572360959160142
  0.3748958820442629  0.4912736581468978  0.2529687965611668
  0.8753451838646437  0.4877178726759129  0.2584658820885372
  0.8749246229539470  0.5074878467401072  0.7541887361621223
  0.3755284599410366  0.2481835034577057  0.0081456709175701
  0.8733077758570473  0.2488535236702631  0.0098571920492259
  0.8746887265565330  0.7442448797489770  0.7520370660687795
  0.5048028556175913  0.1221865490875080  0.4950332549434353
  0.9959909617096566  0.1257160655878658  0.7474464436723720
  0.4898756852278685  0.1248053012599024  0.2613419326130318
  0.5011397780582711  0.1234197084204386  0.7475897808273407
  0.5015473515664092  0.6248741013795723  0.7501181303331119
  0.9995418657852625  0.3756939350501136  0.0078639281469132
  0.0014948830083956  0.8746594679781193  1.0036732460247686
  0.0030647196641481  0.8744367392907201  0.5011760498040059
  0.5029989763556378  0.3739122786978809  0.0074865592711225
  0.5043007542207745  0.8748135423394690  0.0038237745138932
  0.0124070856527554  0.3759362498202677  0.2379212782177984
  0.2553628817769892  0.6249312545766534  0.0021616549103224
  0.7463329179379270  0.1244124682257658  0.5054499790071764
  0.2484818049417691  0.6242400780477925  0.7498296833147002
  0.7510857043976862  0.1244523995109371  0.7419062162037818
  0.2479239285596634  0.3735428351240096  0.4929905642492801
  0.2481392000040968  0.8751315693609644  0.4996080172203982
  0.2383144094501571  0.3747610438624162  0.2564756940773383
 -0.0008090356072266  0.0045897219871026  0.1266147725345031
  0.0034761513246783  0.9974205589601208  0.6246605722704160
  0.9921989185398055  0.5153189848071990  0.1236847328289642
  0.4938379391426937  0.0061112328386073  0.1261799621063249
  0.4964696362438573  0.9948269986133522  0.6229196070513764
  0.5000719378144716  0.5065656537947602  0.1279941672373685
  0.5049957389357616  0.5005634529065095  0.6242251490255883
 -0.0016178172061020  0.4871689861909951  0.3748615428848264
  1.0016501768998203  0.4945362597621984  0.8730435528238436
  0.5039807981666810  0.9892260775191398  0.3764476515144120
  0.5152982442636695 -0.0005886983370501  0.8748186091052170
  0.0111740735841670  0.2415234036532371  0.1266619276915375
  0.0043190258282914  0.2546749071000673  0.6241619222609217
  0.5136330530907658  0.2392846068316911  0.1268267298344755
  0.5044534036647744  0.2477350944599646  0.6229400237666529
  0.4931850500033723  0.7454381020764944  0.1268480283553490
  0.9905010287554177  0.2540498113849805  0.8756010544701158
  0.9967125363322223  0.7523836973893337  0.3748163711351545
  0.0038183328668278  0.7527733163790251  0.8740938821046456
  0.4858196057440707  0.2618722280022228  0.3752939351925426
  0.4935997852818128  0.2516055846009537  0.8748341792901710
  0.4963578159579550  0.7541063103461126  0.3754250225750431
  0.5017933739335061  0.7519796584505718  0.8740302140487499
  0.2487016586009669  0.4943930729800052  0.1254268646138513
  0.7492776770253912  0.0006232229354869  0.1263565168482710
  0.7469656836842377  0.9934374082569100  0.6229577556221176
  0.2522401169923280  0.0010242422202297  0.3753595969898359
  0.2428171408221798  0.9950073314423685  0.8745325945877237
  0.2438501094619344  0.5117491557457867  0.3749711538770031
  0.2539383349816484  0.4977048714296092  0.8739147408135397
  0.7525670474443610  0.5005907543144582  0.3748871727944265
  0.7463335438625435  0.5080308337318898  0.8741466237541656
  0.2546263146424459  0.7543522623741501  0.1249126059613164
  0.2519912682404480  0.7509327201113667  0.6251674826565897
  0.7424424919129853  0.2625078715911125  0.6234981250937948
  0.7546397733673785  0.7492459358972081  0.1259506592900873
  0.7505198073554360  0.7487386261399682  0.6241739549480854
  0.2617524666563849  0.2440154512890181  0.3736543562475534
  0.2561282693708320  0.2508895274330890  0.8756625047916965
  0.7660497929963987  0.2441470960741002  0.3733061006986482
  0.7570836708516934  0.2421330932698652  0.8761047185641094
  0.1259438466375104  0.0020024433492836  0.0027911180213344
  0.1254628262881805  0.0091775828074573  0.4986640924236341
  0.1229589381236575  0.5077844466464785  0.4940682057078580
  0.6248951719095005  0.0017213106981797  0.0076381270952962
  0.6238876755627986  0.9881335212422101  0.5027910153083375
  0.6268996206379117  0.4988713509318673  0.5003160519285884
  0.1268946993787605  0.0002556206711213  0.7470965375704109
  0.1239267803286994  0.5127832985819352  0.2469811452493578
  0.1229459870941848  0.4931623908630525  0.7571461962730085
  0.6235142957246921  0.9946584443590993  0.7404857826749333
  0.6272119688182339  0.5049564864884173  0.2478434976521443
  0.6269138233605739  0.4928390497390573  0.7505888013424588
  0.1245376571952241  0.2505108582116839  0.9912641350375634
  0.1292302782188514  0.2378091508468638  0.4899807761315672
  0.1250850867809996  0.7451237246418391  0.0033371860677494
  0.1244519055386500  0.7435160087013808  0.4987432332254670
  0.6255229110356891  0.2483950939525577  0.9890326375207137
  0.1250482707870144  0.2348021223263403  0.2613991543204927
  0.1235870253127582  0.7531732999333887  0.7479975843710169
  0.6263494623057722  0.7534631101134098  0.7467317414421560
  0.3775790448121286 -0.0003777699868417  0.4949839393044513
  0.3734999484558472  0.4954503785730791  0.0044254021997921
  0.8741060690449821  0.9972794579794519  0.5077315058266181
  0.8739926540445929  0.4976631289346745  0.9922232553536137
  0.3773144644038288  0.9914171154093316  0.2562673290781669
  0.3749197743746613  0.4977422864510456  0.7450440069446062
  0.8736065504338745  0.9945445414834817  0.2469810527327724
  0.8740249590738791  0.9931668082693276  0.7434865139855867
  0.3796815683305566  0.2479496335607806  0.5049131630650280
  0.3766423073494073  0.7561458812797053  0.9988196814263411
  0.3773272030361980  0.7471484256173855  0.4989746965610977
  0.8686571695578965  0.2564034251128282  0.5107112159097000
  0.8719801969611124  0.7541488742026748  0.9965068510484159
  0.8725157668721999  0.7481312574593321  0.5005630913846713
  0.3783423388614192  0.2615279626900698  0.2403643958971716
  0.3762551732299802  0.2495744495937911  0.7472396295011753
  0.3773887407695705  0.7524715330952942  0.2497859825300678
  0.3752535361565916  0.7545360733313715  0.7521021058279903
  0.8725387285188313  0.2619129601586943  0.2371779359864547
  0.8735497857894324  0.2543389773698073  0.7433174401298202
  0.8736244504212531  0.7527586507206649  0.2510115087125037
  0.0028785778232767  0.1269532355740413 -0.0017626707210870
  0.9915799123700837  0.1199390431210819  0.5069988859501675
  0.9933646811765875  0.6252098450512672  0.9909069633043788
  0.9959386366528711  0.6261153570420589  0.4878404416638291
  0.5039788831093911  0.1243047372779037  0.9974376690972909
  0.4899712509322879  0.6266845117576003 -0.0005458577114724
  0.5042432933195545  0.6260307994804942  0.4965207779583984
  0.9880588587972640  0.1276378936451751  0.2494057187193063
  0.9925239975010779  0.6222875161750354  0.2603589509368405
  0.0102391644284165  0.6245068288460727  0.7600315652412827
  0.4964277368235762  0.6253260975284285  0.2554215439409070
  0.0096529311882498  0.3795397947111492  0.5053391801930833
  0.4992378521245671  0.3723842262255125  0.5070439761267113
  0.4938231253293511  0.8772160230254292  0.4983590156573484
  0.9952208872192237  0.3752367211018294  0.7477652272618928
  1.0004408013732609  0.8751793680462469  0.2480693622019876
  0.0003305336052659  0.8750865124258458  0.7461105951622433
  0.5105700107968056  0.3716103504747386  0.2413306998893297
  0.4968380817325222  0.3732707354824373  0.7443601432136649
  0.5020069184640310  0.8755729802320282  0.2456953695414812
  0.5026858488057119  0.8747738194495602  0.7526254214811006
  0.2460251403095691  0.1248009702846383  0.9936881454298508
  0.2580808020043246  0.1233303248223873  0.4970346524999767
  0.2505704808877529  0.6261438117714936  0.5051009157308026
  0.7434586921913623  0.1258368846318823  0.0053907103801388
  0.7612655177754688  0.6248906157298811  0.0053619950914088
  0.7493176790587694  0.6242694070497411  0.5024990487815636
  0.2633030613119653  0.1263683741457094  0.2529657925946641
  0.2513001469596917  0.1243580763613563  0.7572136365609933
  0.2569550394390100  0.6231525947077241  0.2411715771777187
  0.7637395309823504  0.1259735691509735  0.2452280749479486
  0.7552308630970153  0.6238160665471595  0.2457066974528268
  0.7396604791831214  0.6241993792046389  0.7455641512385828
  0.2485713687441306  0.3761176620887470  0.9979134601148937
  0.2454779478182239  0.8737798853287460  0.0027934098234153
  0.7469659166171767  0.3748224728840073  0.9850014794022226
  0.7486327742488743  0.3734537374895445  0.4876090053013355
  0.7450819729669786  0.8745315268774840  0.0055318453538431
  0.7552275781891099  0.8756254468220589  0.5009899344353977
  0.2538799463006711  0.3759261601148067  0.7565084490222210
  0.2497869769976949  0.8752168466869056  0.2511072674012897
  0.2468283775036814  0.8732037595610522  0.7466975586333712
  0.7410507304814642  0.3739858712711554  0.2648222279215646
  0.7544004439348667  0.3739685171712900  0.7609058012526981
  0.7479557499895074  0.8749288211031505  0.2460453822799037
  0.7502991502178407  0.8747275744917760  0.7460085240117678
 
  0.00000000E+00  0.00000000E+00  0.00000000E+00
  0.00000000E+00  0.00000000E+00  0.00000000E+00
  0.00000000E+00  0.00000000E+00  0.00000000E+00
  0.00000000E+00  0.00000000E+00  0.00000000E+00
  0.00000000E+00  0.00000000E+00  0.00000000E+00
  0.00000000E+00  0.00000000E+00  0.00000000E+00
  0.00000000E+00  0.00000000E+00  0.00000000E+00
  0.00000000E+00  0.00000000E+00  0.00000000E+00
  0.00000000E+00  0.00000000E+00  0.00000000E+00
  0.00000000E+00  0.00000000E+00  0.00000000E+00
  0.00000000E+00  0.00000000E+00  0.00000000E+00
  0.00000000E+00  0.00000000E+00  0.00000000E+00
  0.00000000E+00  0.00000000E+00  0.00000000E+00
  0.00000000E+00  0.00000000E+00  0.00000000E+00
  0.00000000E+00  0.00000000E+00  0.00000000E+00
  0.00000000E+00  0.00000000E+00  0.00000000E+00
  0.00000000E+00  0.00000000E+00  0.00000000E+00
  0.00000000E+00  0.00000000E+00  0.00000000E+00
  0.00000000E+00  0.00000000E+00  0.00000000E+00
  0.00000000E+00  0.00000000E+00  0.00000000E+00
  0.00000000E+00  0.00000000E+00  0.00000000E+00
  0.00000000E+00  0.00000000E+00  0.00000000E+00
  0.00000000E+00  0.00000000E+00  0.00000000E+00
  0.00000000E+00  0.00000000E+00  0.00000000E+00
  0.00000000E+00  0.00000000E+00  0.00000000E+00
  0.00000000E+00  0.00000000E+00  0.00000000E+00
  0.00000000E+00  0.00000000E+00  0.00000000E+00
  0.00000000E+00  0.00000000E+00  0.00000000E+00
  0.00000000E+00  0.00000000E+00  0.00000000E+00
  0.00000000E+00  0.00000000E+00  0.00000000E+00
  0.00000000E+00  0.00000000E+00  0.00000000E+00
  0.00000000E+00  0.00000000E+00  0.00000000E+00
  0.00000000E+00  0.00000000E+00  0.00000000E+00
  0.00000000E+00  0.00000000E+00  0.00000000E+00
  0.00000000E+00  0.00000000E+00  0.00000000E+00
  0.00000000E+00  0.00000000E+00  0.00000000E+00
  0.00000000E+00  0.00000000E+00  0.00000000E+00
  0.00000000E+00  0.00000000E+00  0.00000000E+00
  0.00000000E+00  0.00000000E+00  0.00000000E+00
  0.00000000E+00  0.00000000E+00  0.00000000E+00
  0.00000000E+00  0.00000000E+00  0.00000000E+00
  0.00000000E+00  0.00000000E+00  0.00000000E+00
  0.00000000E+00  0.00000000E+00  0.00000000E+00
  0.00000000E+00  0.00000000E+00  0.00000000E+00
  0.00000000E+00  0.00000000E+00  0.00000000E+00
  0.00000000E+00  0.00000000E+00  0.00000000E+00
  0.00000000E+00  0.00000000E+00  0.00000000E+00
  0.00000000E+00  0.00000000E+00  0.00000000E+00
  0.00000000E+00  0.00000000E+00  0.00000000E+00
  0.00000000E+00  0.00000000E+00  0.00000000E+00
  0.00000000E+00  0.00000000E+00  0.00000000E+00
  0.00000000E+00  0.00000000E+00  0.00000000E+00
  0.00000000E+00  0.00000000E+00  0.00000000E+00
  0.00000000E+00  0.00000000E+00  0.00000000E+00
  0.00000000E+00  0.00000000E+00  0.00000000E+00
  0.00000000E+00  0.00000000E+00  0.00000000E+00
  0.00000000E+00  0.00000000E+00  0.00000000E+00
  0.00000000E+00  0.00000000E+00  0.00000000E+00
  0.00000000E+00  0.00000000E+00  0.00000000E+00
  0.00000000E+00  0.00000000E+00  0.00000000E+00
  0.00000000E+00  0.00000000E+00  0.00000000E+00
  0.00000000E+00  0.00000000E+00  0.00000000E+00
  0.00000000E+00  0.00000000E+00  0.00000000E+00
  0.00000000E+00  0.00000000E+00  0.00000000E+00
  0.00000000E+00  0.00000000E+00  0.00000000E+00
  0.00000000E+00  0.00000000E+00  0.00000000E+00
  0.00000000E+00  0.00000000E+00  0.00000000E+00
  0.00000000E+00  0.00000000E+00  0.00000000E+00
  0.00000000E+00  0.00000000E+00  0.00000000E+00
  0.00000000E+00  0.00000000E+00  0.00000000E+00
  0.00000000E+00  0.00000000E+00  0.00000000E+00
  0.00000000E+00  0.00000000E+00  0.00000000E+00
  0.00000000E+00  0.00000000E+00  0.00000000E+00
  0.00000000E+00  0.00000000E+00  0.00000000E+00
  0.00000000E+00  0.00000000E+00  0.00000000E+00
  0.00000000E+00  0.00000000E+00  0.00000000E+00
  0.00000000E+00  0.00000000E+00  0.00000000E+00
  0.00000000E+00  0.00000000E+00  0.00000000E+00
  0.00000000E+00  0.00000000E+00  0.00000000E+00
  0.00000000E+00  0.00000000E+00  0.00000000E+00
  0.00000000E+00  0.00000000E+00  0.00000000E+00
  0.00000000E+00  0.00000000E+00  0.00000000E+00
  0.00000000E+00  0.00000000E+00  0.00000000E+00
  0.00000000E+00  0.00000000E+00  0.00000000E+00
  0.00000000E+00  0.00000000E+00  0.00000000E+00
  0.00000000E+00  0.00000000E+00  0.00000000E+00
  0.00000000E+00  0.00000000E+00  0.00000000E+00
  0.00000000E+00  0.00000000E+00  0.00000000E+00
  0.00000000E+00  0.00000000E+00  0.00000000E+00
  0.00000000E+00  0.00000000E+00  0.00000000E+00
  0.00000000E+00  0.00000000E+00  0.00000000E+00
  0.00000000E+00  0.00000000E+00  0.00000000E+00
  0.00000000E+00  0.00000000E+00  0.00000000E+00
  0.00000000E+00  0.00000000E+00  0.00000000E+00
  0.00000000E+00  0.00000000E+00  0.00000000E+00
  0.00000000E+00  0.00000000E+00  0.00000000E+00
  0.00000000E+00  0.00000000E+00  0.00000000E+00
  0.00000000E+00  0.00000000E+00  0.00000000E+00
  0.00000000E+00  0.00000000E+00  0.00000000E+00
  0.00000000E+00  0.00000000E+00  0.00000000E+00
  0.00000000E+00  0.00000000E+00  0.00000000E+00
  0.00000000E+00  0.00000000E+00  0.00000000E+00
  0.00000000E+00  0.00000000E+00  0.00000000E+00
  0.00000000E+00  0.00000000E+00  0.00000000E+00
  0.00000000E+00  0.00000000E+00  0.00000000E+00
  0.00000000E+00  0.00000000E+00  0.00000000E+00
  0.00000000E+00  0.00000000E+00  0.00000000E+00
  0.00000000E+00  0.00000000E+00  0.00000000E+00
  0.00000000E+00  0.00000000E+00  0.00000000E+00
  0.00000000E+00  0.00000000E+00  0.00000000E+00
  0.00000000E+00  0.00000000E+00  0.00000000E+00
  0.00000000E+00  0.00000000E+00  0.00000000E+00
  0.00000000E+00  0.00000000E+00  0.00000000E+00
  0.00000000E+00  0.00000000E+00  0.00000000E+00
  0.00000000E+00  0.00000000E+00  0.00000000E+00
  0.00000000E+00  0.00000000E+00  0.00000000E+00
  0.00000000E+00  0.00000000E+00  0.00000000E+00
  0.00000000E+00  0.00000000E+00  0.00000000E+00
  0.00000000E+00  0.00000000E+00  0.00000000E+00
  0.00000000E+00  0.00000000E+00  0.00000000E+00
  0.00000000E+00  0.00000000E+00  0.00000000E+00
  0.00000000E+00  0.00000000E+00  0.00000000E+00
  0.00000000E+00  0.00000000E+00  0.00000000E+00
  0.00000000E+00  0.00000000E+00  0.00000000E+00
  0.00000000E+00  0.00000000E+00  0.00000000E+00
  0.00000000E+00  0.00000000E+00  0.00000000E+00
  0.00000000E+00  0.00000000E+00  0.00000000E+00
  0.00000000E+00  0.00000000E+00  0.00000000E+00
  0.00000000E+00  0.00000000E+00  0.00000000E+00
  0.00000000E+00  0.00000000E+00  0.00000000E+00
  0.00000000E+00  0.00000000E+00  0.00000000E+00
  0.00000000E+00  0.00000000E+00  0.00000000E+00
  0.00000000E+00  0.00000000E+00  0.00000000E+00
  0.00000000E+00  0.00000000E+00  0.00000000E+00
  0.00000000E+00  0.00000000E+00  0.00000000E+00
  0.00000000E+00  0.00000000E+00  0.00000000E+00
  0.00000000E+00  0.00000000E+00  0.00000000E+00
  0.00000000E+00  0.00000000E+00  0.00000000E+00
  0.00000000E+00  0.00000000E+00  0.00000000E+00
  0.00000000E+00  0.00000000E+00  0.00000000E+00
  0.00000000E+00  0.00000000E+00  0.00000000E+00
  0.00000000E+00  0.00000000E+00  0.00000000E+00
  0.00000000E+00  0.00000000E+00  0.00000000E+00
  0.00000000E+00  0.00000000E+00  0.00000000E+00
  0.00000000E+00  0.00000000E+00  0.00000000E+00
  0.00000000E+00  0.00000000E+00  0.00000000E+00
  0.00000000E+00  0.00000000E+00  0.00000000E+00
  0.00000000E+00  0.00000000E+00  0.00000000E+00
  0.00000000E+00  0.00000000E+00  0.00000000E+00
  0.00000000E+00  0.00000000E+00  0.00000000E+00
  0.00000000E+00  0.00000000E+00  0.00000000E+00
  0.00000000E+00  0.00000000E+00  0.00000000E+00
  0.00000000E+00  0.00000000E+00  0.00000000E+00
  0.00000000E+00  0.00000000E+00  0.00000000E+00
  0.00000000E+00  0.00000000E+00  0.00000000E+00
  0.00000000E+00  0.00000000E+00  0.00000000E+00
  0.00000000E+00  0.00000000E+00  0.00000000E+00
  0.00000000E+00  0.00000000E+00  0.00000000E+00
  0.00000000E+00  0.00000000E+00  0.00000000E+00
  0.00000000E+00  0.00000000E+00  0.00000000E+00
  0.00000000E+00  0.00000000E+00  0.00000000E+00
  0.00000000E+00  0.00000000E+00  0.00000000E+00
  0.00000000E+00  0.00000000E+00  0.00000000E+00
  0.00000000E+00  0.00000000E+00  0.00000000E+00
  0.00000000E+00  0.00000000E+00  0.00000000E+00
  0.00000000E+00  0.00000000E+00  0.00000000E+00
  0.00000000E+00  0.00000000E+00  0.00000000E+00
  0.00000000E+00  0.00000000E+00  0.00000000E+00
  0.00000000E+00  0.00000000E+00  0.00000000E+00
  0.00000000E+00  0.00000000E+00  0.00000000E+00
  0.00000000E+00  0.00000000E+00  0.00000000E+00
  0.00000000E+00  0.00000000E+00  0.00000000E+00
  0.00000000E+00  0.00000000E+00  0.00000000E+00
  0.00000000E+00  0.00000000E+00  0.00000000E+00
  0.00000000E+00  0.00000000E+00  0.00000000E+00
  0.00000000E+00  0.00000000E+00  0.00000000E+00
  0.00000000E+00  0.00000000E+00  0.00000000E+00
  0.00000000E+00  0.00000000E+00  0.00000000E+00
  0.00000000E+00  0.00000000E+00  0.00000000E+00
  0.00000000E+00  0.00000000E+00  0.00000000E+00
  0.00000000E+00  0.00000000E+00  0.00000000E+00
  0.00000000E+00  0.00000000E+00  0.00000000E+00
  0.00000000E+00  0.00000000E+00  0.00000000E+00
  0.00000000E+00  0.00000000E+00  0.00000000E+00
  0.00000000E+00  0.00000000E+00  0.00000000E+00
  0.00000000E+00  0.00000000E+00  0.00000000E+00
  0.00000000E+00  0.00000000E+00  0.00000000E+00
  0.00000000E+00  0.00000000E+00  0.00000000E+00
  0.00000000E+00  0.00000000E+00  0.00000000E+00
  0.00000000E+00  0.00000000E+00  0.00000000E+00
  0.00000000E+00  0.00000000E+00  0.00000000E+00
  0.00000000E+00  0.00000000E+00  0.00000000E+00
  0.00000000E+00  0.00000000E+00  0.00000000E+00
  0.00000000E+00  0.00000000E+00  0.00000000E+00
  0.00000000E+00  0.00000000E+00  0.00000000E+00
  0.00000000E+00  0.00000000E+00  0.00000000E+00
  0.00000000E+00  0.00000000E+00  0.00000000E+00
  0.00000000E+00  0.00000000E+00  0.00000000E+00
  0.00000000E+00  0.00000000E+00  0.00000000E+00
  0.00000000E+00  0.00000000E+00  0.00000000E+00
  0.00000000E+00  0.00000000E+00  0.00000000E+00
  0.00000000E+00  0.00000000E+00  0.00000000E+00
  0.00000000E+00  0.00000000E+00  0.00000000E+00
  0.00000000E+00  0.00000000E+00  0.00000000E+00
  0.00000000E+00  0.00000000E+00  0.00000000E+00
  0.00000000E+00  0.00000000E+00  0.00000000E+00
  0.00000000E+00  0.00000000E+00  0.00000000E+00
  0.00000000E+00  0.00000000E+00  0.00000000E+00
  0.00000000E+00  0.00000000E+00  0.00000000E+00
  0.00000000E+00  0.00000000E+00  0.00000000E+00
  0.00000000E+00  0.00000000E+00  0.00000000E+00
  0.00000000E+00  0.00000000E+00  0.00000000E+00
  0.00000000E+00  0.00000000E+00  0.00000000E+00
  0.00000000E+00  0.00000000E+00  0.00000000E+00
  0.00000000E+00  0.00000000E+00  0.00000000E+00
  0.00000000E+00  0.00000000E+00  0.00000000E+00
  0.00000000E+00  0.00000000E+00  0.00000000E+00
  0.00000000E+00  0.00000000E+00  0.00000000E+00
  0.00000000E+00  0.00000000E+00  0.00000000E+00
  0.00000000E+00  0.00000000E+00  0.00000000E+00
  0.00000000E+00  0.00000000E+00  0.00000000E+00
  0.00000000E+00  0.00000000E+00  0.00000000E+00
  0.00000000E+00  0.00000000E+00  0.00000000E+00
  0.00000000E+00  0.00000000E+00  0.00000000E+00
  0.00000000E+00  0.00000000E+00  0.00000000E+00
  0.00000000E+00  0.00000000E+00  0.00000000E+00
  0.00000000E+00  0.00000000E+00  0.00000000E+00
  0.00000000E+00  0.00000000E+00  0.00000000E+00
  0.00000000E+00  0.00000000E+00  0.00000000E+00
  0.00000000E+00  0.00000000E+00  0.00000000E+00
  0.00000000E+00  0.00000000E+00  0.00000000E+00
  0.00000000E+00  0.00000000E+00  0.00000000E+00
  0.00000000E+00  0.00000000E+00  0.00000000E+00
  0.00000000E+00  0.00000000E+00  0.00000000E+00
  0.00000000E+00  0.00000000E+00  0.00000000E+00
  0.00000000E+00  0.00000000E+00  0.00000000E+00
  0.00000000E+00  0.00000000E+00  0.00000000E+00
  0.00000000E+00  0.00000000E+00  0.00000000E+00
  0.00000000E+00  0.00000000E+00  0.00000000E+00
  0.00000000E+00  0.00000000E+00  0.00000000E+00
  0.00000000E+00  0.00000000E+00  0.00000000E+00
  0.00000000E+00  0.00000000E+00  0.00000000E+00
  0.00000000E+00  0.00000000E+00  0.00000000E+00
  0.00000000E+00  0.00000000E+00  0.00000000E+00
  0.00000000E+00  0.00000000E+00  0.00000000E+00
  0.00000000E+00  0.00000000E+00  0.00000000E+00
  0.00000000E+00  0.00000000E+00  0.00000000E+00
  0.00000000E+00  0.00000000E+00  0.00000000E+00
  0.00000000E+00  0.00000000E+00  0.00000000E+00
  0.00000000E+00  0.00000000E+00  0.00000000E+00
  0.00000000E+00  0.00000000E+00  0.00000000E+00
  0.00000000E+00  0.00000000E+00  0.00000000E+00
  0.00000000E+00  0.00000000E+00  0.00000000E+00
  0.00000000E+00  0.00000000E+00  0.00000000E+00
  0.00000000E+00  0.00000000E+00  0.00000000E+00
  0.00000000E+00  0.00000000E+00  0.00000000E+00
  0.00000000E+00  0.00000000E+00  0.00000000E+00
