config 42                               
   1.00000000000000     
    15.4263309999999993    0.0000000000000000    0.0000000000000000
     0.0000000000000000   15.4263309999999993    0.0000000000000000
     0.0000000000000000    0.0000000000000000   15.4263309999999993
   Li   Ti   O    F 
     1    64    64   128
Direct
  0.6226754612611440  0.5403994027066999  0.3762300785639049
  0.9959386749302541  0.9949172061175436  0.9944626482937476
  0.9989537117878500  0.9923072354744276  0.4936197579589977
  0.0057906063402609  0.4959860823767656  0.9980358479696880
  0.9955116213248076  0.5042525173257431  0.5073685020909544
  0.4950087141588302  0.9934788855037731  0.9996334975006479
  0.5020445934817702  0.0088983291529326  0.4983036504986305
  0.5038319319978435  0.4947384869703286  0.9957309096546407
  0.4879007279981498  0.4987794063645435  0.4968299128007744
  0.0071716983269150  0.0038649430880810  0.2557832372007762
  0.0022542205008790  0.0080195554551640  0.7566644730013730
  0.9942679138653927  0.4921918750215295  0.2516072696534997
  0.9930389386731364  0.5004036604963839  0.7425479070055829
  0.5061258067665635  0.0085924322277290  0.2494963415063922
  0.4933944601051993  0.0062436405155286  0.7526758115930881
  0.4872210007108477  0.4946750010470452  0.2556020934343591
  0.5015445147033563  0.5044738027820826  0.7587922122702547
  0.9951971381315332  0.2579672993278324  0.0018455598487695
  0.9982231638121354  0.2487653787372599  0.4912887997615257
  0.9989002280310625  0.7577638415448417  0.0063240018840026
  0.9982897534413667  0.7576170948540930  0.5061996880119135
  0.4950418060137463  0.2579648583994275  0.0020261509093583
  0.5093213309075881  0.2454293875946517  0.4973853626846730
  0.5075947449546622  0.7555927953556901  0.9983170106759326
  0.5090011647912048  0.7540752326183611  0.5066657301668183
  0.9994320863879838  0.2582444836430526  0.2551915492242754
  0.0067773727021419  0.2434775017029554  0.7476954036567658
  0.0051614759062893  0.7475935550508769  0.2436966216168243
  0.9936254288090389  0.7509837737129339  0.7421878699953839
  0.5068082279665601  0.2400029298875235  0.2522227272938309
  0.5073202865757229  0.2443160258677686  0.7509922395453233
  0.5021846830925856  0.7513335499442249  0.2522781564015156
  0.5031435221410013  0.7423585868690046  0.7425487690574112
  0.2570503826926758  0.9979167287962074  0.0051969767211516
  0.2518973634161790  0.9933215758434430  0.5059186555094745
  0.2438810604411077  0.5085707127416562  0.9983666036473656
  0.2523373226736675  0.4938847228885569  0.5068292327674754
  0.7567982259350615  0.0010015020112514  0.9937968372531060
  0.7497347512661097  0.0088415782495937  0.4947879537163088
  0.7413207060941588  0.5004702736062554  0.0041054922707789
  0.7592822751011662  0.4980872877551213  0.5094176653949947
  0.2453467532846958  0.0024446319789943  0.2431239418711972
  0.2586936833353171  0.9986665310861607  0.7440597120349564
  0.2507839516734784  0.4901988927646132  0.2525797474730750
  0.2471537424644323  0.5065698928151180  0.7413797920409315
  0.7444796654142428  0.0025674996307512  0.2554140923944968
  0.7476959623554582  0.0082054204996772  0.7554490913158000
  0.7584938144337674  0.4967929572610195  0.2395885077346432
  0.7578895328597578  0.4984503586884613  0.7447761049544329
  0.2567521895577041  0.2520064283825797  0.0060225863770613
  0.2537867146965825  0.2564662629966235  0.5050898543454019
  0.2530210632125285  0.7425834539306786  0.9940224627900578
  0.2537415355464364  0.7548263204927149  0.4933347910121521
  0.7564148427004864  0.2525659343775114  0.0084764273419744
  0.7419750844598797  0.2434663028516139  0.4981660694651698
  0.7423363268501999  0.7483041114900049  0.9923197060161235
  0.7437681504067689  0.7530656931353309  0.4919101987373858
  0.2497810116917814  0.2571778482080853  0.2435325301315219
  0.2440250422871039  0.2526371439337372  0.7439387559766062
  0.2423845237526350  0.7464705312795857  0.2569173758470693
  0.2485775892767370  0.7423835437450265  0.7567323640374399
  0.7406000664293185  0.2515637380824143  0.2427369253602267
  0.7444275869424549  0.2429401813940027  0.7510848196319668
  0.7425661890304157  0.7486363072542820  0.2565147496692899
  0.7585723177544604  0.7502041792164856  0.7553123859449068
  0.0074424526364514  0.5041223356951253  0.6247052704692935
  0.9981410899514028  0.0064461039046911  0.3762565700373416
  0.0034268179177151  0.0021111027932781  0.8726891297166982
  0.5055271016100834  0.4903269652484975  0.3762150229951398
  0.4945742175725442  0.4907770392873824  0.8747462319317766
  0.0075449432360300  0.7441968730935984  0.1256529370608142
  0.0120937648716970  0.7460427405547920  0.6240513251695893
  0.5134476481099817  0.7473737150143192  0.6244628502408436
  0.9895944698675124  0.2479715399364623  0.3764684055544645
  0.2577002979566174  0.0012230197862260  0.1250249971928622
  0.2599784554735921  0.0037255844371035  0.6249309619445459
  0.2393995983635410  0.4925611393486845  0.6255788190624335
  0.7501416007972268  0.4823315557576726  0.1246345298396114
  0.7476481814956208  0.4854351115006758  0.6256259427382890
  0.7481421718112862  0.0092185215163153  0.3764358123808162
  0.7429171757796630  0.0085512633741618  0.8732643538916148
  0.2408571333664555  0.2516198401336794  0.1258642999204306
  0.2485734430743457  0.2519693394563657  0.6246089061469370
  0.7376253602095454  0.2673285363624945  0.1268325326190956
  0.2622367415326293  0.7439447811113210  0.3755364636713208
  0.2610582978288511  0.7504497359168262  0.8750536484785548
  0.7625395812331315  0.7414300444111073  0.3763498722318996
  0.7602916875523565  0.7430147980143704  0.8744446177629244
  0.1242163720935535  0.5091728918771429  0.9963396177156474
  0.6256469293264074  0.5109891668259258  0.9991177247523996
  0.1254797674520996  0.0108687493842984  0.2491777997686532
  0.6253768820575142  0.0135445675887220  0.2470895066146250
  0.6245431436098500  0.2646682053968534  0.4888666453870674
  0.6250124702022144  0.7373346612137432  0.9893729136701425
  0.6251133777651422  0.7658346157590212  0.4861294091538444
  0.1248944176676796  0.2550808782153315  0.7534476636910610
  0.1240125732351521  0.7429626797738118  0.2610689522011086
  0.6252393017487431  0.2366662583187394  0.2647910439425654
  0.6260383858724590  0.2565188107370558  0.7529048731929860
  0.6271474420973558  0.7414168348552569  0.2621315366187062
  0.3760685071149550  0.9950509593882116  0.9892425281647540
  0.3737309420229465  0.5113619693461680  0.5020022425934453
  0.8728748976493365  0.9973476584656090  0.9968521496046464
  0.8766323055945623  0.5094573440516034  0.4986623401560725
  0.3766749929197372  0.9998412003645825  0.7614956136229361
  0.3709914788686751  0.4841039210618833  0.2524381993075379
  0.8759997170098949  0.4856382812454884  0.2545740795312110
  0.8752997187303995  0.5119410593078509  0.7470950301281253
  0.3753831106103743  0.2529647292721168  0.0087468971637858
  0.8737693305614519  0.2544299885073810  0.0098736141229287
  0.8754822130023721  0.7415729165407726  0.7380057055661164
  0.5169542893980894  0.1232633948784175  0.4884530451293160
  0.9992520900985518  0.1270022633283952  0.7443202593131893
  0.4864081059836508  0.1257726090139773  0.2685303759398343
  0.5042473154921286  0.1250498488901805  0.7545669708016886
  0.5044740220873201  0.6246658321462624  0.7544659032189049
  0.0046656766301738  0.3757755275884085  0.0055757984977499
  0.0069162956896541  0.8748358665103743  0.0019782349323345
  0.9875100005631763  0.8756278537842633  0.4992688154023077
  0.5073925395752612  0.3738649065553227  0.0127515819152840
  0.5090052265629088  0.8755952474652353  0.0075054988562296
  0.0156236969911491  0.3737402930269616  0.2471170635215686
  0.2609230096670698  0.6250281284774297  0.0047511563701526
  0.7343686656589192  0.1268069517006197  0.5110180135650145
  0.2442331810578310  0.6246460975999490  0.7478794457482978
  0.7485960677557517  0.1260607513059384  0.7365041921487491
  0.2584225212821040  0.3734373529302062  0.4916467329699865
  0.2608881261970976  0.8758041223993827  0.4989888910371735
  0.2316276147300549  0.3739455703020868  0.2592468026547385
  0.9972864328642814  0.0034131403476193  0.1266067210961606
  0.0009129795507922  0.9986458956575303  0.6235961822473779
  0.9967586823916809  0.5094027108092338  0.1256037014394875
  0.4899370247989049  0.0176314970325170  0.1253242616062450
  0.4924319555738437  0.0058668507523513  0.6225630355883763
  0.5012933507542053  0.5100813958100344  0.1287716247643685
  0.5096498568741933  0.5047386303556364  0.6229129600103424
  0.0055865953755372  0.4954092394344101  0.3760658455151307
  0.9959405234233009  0.4963507440403569  0.8729813426868143
  0.5082062543121237  0.9838649700147073  0.3765334399678345
  0.5197987759246084  0.9939052510466951  0.8747050743881878
  0.0113790625646441  0.2447623492625839  0.1275496963450355
  0.0046580924282744  0.2590224697946114  0.6211859828004460
  0.5119519173481325  0.2322206185831405  0.1269264776216455
  0.5039046667908366  0.2413702063895600  0.6221827290118597
  0.5074281595716730  0.7377231227563964  0.1216115475894535
  0.9905640886236219  0.2523610445252967  0.8742769540478610
  0.9865339885317068  0.7505697267084709  0.3761416936300705
  0.9912390306674561  0.7519280158011152  0.8736267625049539
  0.4870942994599612  0.2687435578989400  0.3754445824533030
  0.4946052863064765  0.2612707642081839  0.8746325383229070
  0.4803067575961650  0.7610442266462405  0.3818665166431731
  0.4864659112909237  0.7574233360821265  0.8731637827010978
  0.2452759665432676  0.4908413349263600  0.1254823050588643
  0.7518378739092899  0.9936561786349345  0.1265101854230096
  0.7507799065586140  0.9897439992769425  0.6228135305836598
  0.2494537949009980  0.0031048576936207  0.3754718829188233
  0.2398127742175778  0.9955393192599387  0.8740145216906200
  0.2441585956656120  0.5132470564293934  0.3752260722584785
  0.2593143579416464  0.5007007887973577  0.8739259633474495
  0.7426968832878197  0.5166905423870130  0.3751027110014307
  0.7516201100849120  0.5142328174737804  0.8743012855273206
  0.2403924493582673  0.7546469906946336  0.1249408780494743
  0.2384312938037720  0.7526345667884636  0.6252723441872043
  0.7463637343742050  0.2691732460270992  0.6229543145015694
  0.7436047753601064  0.7564587352282272  0.1247903127412086
  0.7379817682327535  0.7568918324598573  0.6249499735991638
  0.2585310192418597  0.2423319970622836  0.3739466375540283
  0.2564140874163484  0.2504961018037712  0.8752115716230027
  0.7653758012152820  0.2375668998250425  0.3745222321844998
  0.7572518474648100  0.2365335383506105  0.8764689296461394
  0.1261152565698924  0.0068836990223566  0.0050115388885314
  0.1253166243502072  0.9944067662143671  0.5020647010886642
  0.1231441914255876  0.4920105268235234  0.4928959189790593
  0.6250420811037772  0.0078480653215933  0.0111713083231713
  0.6241449164852960  0.9797378931284175  0.5060153751588244
  0.6274925618952180  0.4935624400872513  0.4921533974560049
  0.1274493273013083  0.9986590448742417  0.7427901572512744
  0.1228590459283454  0.5151448795314700  0.2467863352264269
  0.1234270820494475  0.4900101251995731  0.7621004059035510
  0.6238211307553477  0.9937660272069824  0.7364297469485249
  0.6267383133007596  0.5119004680901423  0.2562636054170357
  0.6271504145689206  0.4896546239589378  0.7552891013023789
  0.1245059616857459  0.2461989772201120  0.9904909766938080
  0.1236582471490172  0.2550850748510675  0.4921636969505280
  0.1249766837181703  0.7387804170075939  0.9895390436110503
  0.1246759387669956  0.7596291864131604  0.4867766249677205
  0.6261288531958915  0.2448613734698576  0.9903635480107215
  0.1238883928424407  0.2302755643279053  0.2613819614224740
  0.1236928211728040  0.7573665778374093  0.7622199966949837
  0.6264369885056081  0.7565755576371361  0.7630983203971194
  0.3784487624502048  0.0159374438985439  0.4894957291103682
  0.3733703273282026  0.4900198807494123  0.0083216476384752
  0.8745318859864940  0.0179437150929162  0.5058194155549602
  0.8737568376315483  0.4931594717131849  0.9977072597317063
  0.3768198174296905  0.9905753481198238  0.2588868367993880
  0.3751226901852234  0.5021940507984497  0.7394122212639025
  0.8737602607637115  0.9936217022167728  0.2497204006467102
  0.8743357360549657  0.9973945787301731  0.7463939872432996
  0.3794628122265722  0.2352347014161901  0.5023815320225316
  0.3759326095814813  0.7622167091188803  0.0113832790538843
  0.3768725702484881  0.7367363145406184  0.5155595055963872
  0.8739183454057459  0.2429112896174381  0.5102768735752099
  0.8723919558336756  0.7601188670352708  0.0086236711325200
  0.8734962219274199  0.7370264916733229  0.5152368758024297
  0.3773272311151628  0.2660215051357983  0.2408961193015697
  0.3765534956661522  0.2476930208660009  0.7468729062173066
  0.3730091806163425  0.7559133454360352  0.2377401792392208
  0.3750714064776102  0.7511165881534102  0.7370255726016619
  0.8737593450517562  0.2661569295456537  0.2412534666324700
  0.8743411372890691  0.2528074895527171  0.7420305086537878
  0.8749830273696758  0.7568098360178463  0.2415474748495301
  0.9985604944411932  0.1274861495520393  0.0004074923847806
  0.0072822839543713  0.1266583907460776  0.5089389621486364
  0.9878988496541274  0.6251188568550516  0.9935361061736845
  0.0107035214870102  0.6269110032533670  0.4913690704595622
  0.4996017414777005  0.1254057915942036  0.9888115513375396
  0.4851030675576672  0.6257043384977167  0.9927334568771226
  0.5150151537812062  0.6255170363230864  0.4900503909331944
  0.9840094835894655  0.1283754916728309  0.2466716258193727
  0.9886826579606882  0.6222604794487591  0.2580818693965748
  0.0140800433674807  0.6248885014586052  0.7570393073946304
  0.4894232637929085  0.6197576958272223  0.2633471618236941
  0.9933335874093764  0.3748733207080850  0.4990115424931369
  0.4863810808694040  0.3720437923548195  0.5124496492364471
  0.4834964324409826  0.8798289264970914  0.5082693294593761
  0.9921299091943165  0.3756893359349252  0.7491738120495431
  0.0042367266242001  0.8763380389868006  0.2507946054976238
  0.9974667348477420  0.8762057875489827  0.7463961185632763
  0.5138528347780723  0.3717600019957797  0.2370021620310641
  0.4942920506430160  0.3740734718860544  0.7375133088423420
  0.5067631924166935  0.8823213603509086  0.2367895092887445
  0.5002446181792991  0.8760646512320258  0.7463440676181615
  0.2510920474214284  0.1250201924348076  0.9944326144369591
  0.2420370866604689  0.1250033682952583  0.4979344159534299
  0.2380837845870993  0.6259579826700088  0.5068239287155392
  0.7497615816453649  0.1267518330666888  0.0142141180217927
  0.7645462181263721  0.6248822206639548  0.0134118692304363
  0.7372073506324355  0.6249406363150877  0.5103079454640455
  0.2662721561208631  0.1268566223232371  0.2507548286530116
  0.2489174904591618  0.1253616827602385  0.7563861539066852
  0.2580513651795711  0.6221036214253924  0.2397544061576675
  0.7669405166199299  0.1276848538070108  0.2378876006225289
  0.7611628082321986  0.6230300871029301  0.2368979490780677
  0.7363804061710800  0.6244888086435489  0.7389344987659718
  0.2432263988227516  0.3763245897486657  0.9952192068877671
  0.2394255515526192  0.8735800815719436  0.0013184052561620
  0.7425280696825703  0.3752572287714349  0.9792815333370035
  0.7617214923642115  0.3742230003976917  0.4827770668452733
  0.7386202000737443  0.8751092692276276  0.9959943002966505
  0.7673321831953233  0.8778744736611500  0.4949285660451996
  0.2577425477058258  0.3765464073859331  0.7581031264049171
  0.2448604652323541  0.8753216179020067  0.2535127628917235
  0.2498934768928764  0.8738816822309816  0.7465742371363974
  0.7362019673417031  0.3751736869603408  0.2723237319304376
  0.7590369622718782  0.3749702365956608  0.7670003146633868
  0.7444596367633646  0.8765091534000837  0.2558617306756025
  0.7534708922509024  0.8757891480045428  0.7532946892914978
 
  0.00000000E+00  0.00000000E+00  0.00000000E+00
  0.00000000E+00  0.00000000E+00  0.00000000E+00
  0.00000000E+00  0.00000000E+00  0.00000000E+00
  0.00000000E+00  0.00000000E+00  0.00000000E+00
  0.00000000E+00  0.00000000E+00  0.00000000E+00
  0.00000000E+00  0.00000000E+00  0.00000000E+00
  0.00000000E+00  0.00000000E+00  0.00000000E+00
  0.00000000E+00  0.00000000E+00  0.00000000E+00
  0.00000000E+00  0.00000000E+00  0.00000000E+00
  0.00000000E+00  0.00000000E+00  0.00000000E+00
  0.00000000E+00  0.00000000E+00  0.00000000E+00
  0.00000000E+00  0.00000000E+00  0.00000000E+00
  0.00000000E+00  0.00000000E+00  0.00000000E+00
  0.00000000E+00  0.00000000E+00  0.00000000E+00
  0.00000000E+00  0.00000000E+00  0.00000000E+00
  0.00000000E+00  0.00000000E+00  0.00000000E+00
  0.00000000E+00  0.00000000E+00  0.00000000E+00
  0.00000000E+00  0.00000000E+00  0.00000000E+00
  0.00000000E+00  0.00000000E+00  0.00000000E+00
  0.00000000E+00  0.00000000E+00  0.00000000E+00
  0.00000000E+00  0.00000000E+00  0.00000000E+00
  0.00000000E+00  0.00000000E+00  0.00000000E+00
  0.00000000E+00  0.00000000E+00  0.00000000E+00
  0.00000000E+00  0.00000000E+00  0.00000000E+00
  0.00000000E+00  0.00000000E+00  0.00000000E+00
  0.00000000E+00  0.00000000E+00  0.00000000E+00
  0.00000000E+00  0.00000000E+00  0.00000000E+00
  0.00000000E+00  0.00000000E+00  0.00000000E+00
  0.00000000E+00  0.00000000E+00  0.00000000E+00
  0.00000000E+00  0.00000000E+00  0.00000000E+00
  0.00000000E+00  0.00000000E+00  0.00000000E+00
  0.00000000E+00  0.00000000E+00  0.00000000E+00
  0.00000000E+00  0.00000000E+00  0.00000000E+00
  0.00000000E+00  0.00000000E+00  0.00000000E+00
  0.00000000E+00  0.00000000E+00  0.00000000E+00
  0.00000000E+00  0.00000000E+00  0.00000000E+00
  0.00000000E+00  0.00000000E+00  0.00000000E+00
  0.00000000E+00  0.00000000E+00  0.00000000E+00
  0.00000000E+00  0.00000000E+00  0.00000000E+00
  0.00000000E+00  0.00000000E+00  0.00000000E+00
  0.00000000E+00  0.00000000E+00  0.00000000E+00
  0.00000000E+00  0.00000000E+00  0.00000000E+00
  0.00000000E+00  0.00000000E+00  0.00000000E+00
  0.00000000E+00  0.00000000E+00  0.00000000E+00
  0.00000000E+00  0.00000000E+00  0.00000000E+00
  0.00000000E+00  0.00000000E+00  0.00000000E+00
  0.00000000E+00  0.00000000E+00  0.00000000E+00
  0.00000000E+00  0.00000000E+00  0.00000000E+00
  0.00000000E+00  0.00000000E+00  0.00000000E+00
  0.00000000E+00  0.00000000E+00  0.00000000E+00
  0.00000000E+00  0.00000000E+00  0.00000000E+00
  0.00000000E+00  0.00000000E+00  0.00000000E+00
  0.00000000E+00  0.00000000E+00  0.00000000E+00
  0.00000000E+00  0.00000000E+00  0.00000000E+00
  0.00000000E+00  0.00000000E+00  0.00000000E+00
  0.00000000E+00  0.00000000E+00  0.00000000E+00
  0.00000000E+00  0.00000000E+00  0.00000000E+00
  0.00000000E+00  0.00000000E+00  0.00000000E+00
  0.00000000E+00  0.00000000E+00  0.00000000E+00
  0.00000000E+00  0.00000000E+00  0.00000000E+00
  0.00000000E+00  0.00000000E+00  0.00000000E+00
  0.00000000E+00  0.00000000E+00  0.00000000E+00
  0.00000000E+00  0.00000000E+00  0.00000000E+00
  0.00000000E+00  0.00000000E+00  0.00000000E+00
  0.00000000E+00  0.00000000E+00  0.00000000E+00
  0.00000000E+00  0.00000000E+00  0.00000000E+00
  0.00000000E+00  0.00000000E+00  0.00000000E+00
  0.00000000E+00  0.00000000E+00  0.00000000E+00
  0.00000000E+00  0.00000000E+00  0.00000000E+00
  0.00000000E+00  0.00000000E+00  0.00000000E+00
  0.00000000E+00  0.00000000E+00  0.00000000E+00
  0.00000000E+00  0.00000000E+00  0.00000000E+00
  0.00000000E+00  0.00000000E+00  0.00000000E+00
  0.00000000E+00  0.00000000E+00  0.00000000E+00
  0.00000000E+00  0.00000000E+00  0.00000000E+00
  0.00000000E+00  0.00000000E+00  0.00000000E+00
  0.00000000E+00  0.00000000E+00  0.00000000E+00
  0.00000000E+00  0.00000000E+00  0.00000000E+00
  0.00000000E+00  0.00000000E+00  0.00000000E+00
  0.00000000E+00  0.00000000E+00  0.00000000E+00
  0.00000000E+00  0.00000000E+00  0.00000000E+00
  0.00000000E+00  0.00000000E+00  0.00000000E+00
  0.00000000E+00  0.00000000E+00  0.00000000E+00
  0.00000000E+00  0.00000000E+00  0.00000000E+00
  0.00000000E+00  0.00000000E+00  0.00000000E+00
  0.00000000E+00  0.00000000E+00  0.00000000E+00
  0.00000000E+00  0.00000000E+00  0.00000000E+00
  0.00000000E+00  0.00000000E+00  0.00000000E+00
  0.00000000E+00  0.00000000E+00  0.00000000E+00
  0.00000000E+00  0.00000000E+00  0.00000000E+00
  0.00000000E+00  0.00000000E+00  0.00000000E+00
  0.00000000E+00  0.00000000E+00  0.00000000E+00
  0.00000000E+00  0.00000000E+00  0.00000000E+00
  0.00000000E+00  0.00000000E+00  0.00000000E+00
  0.00000000E+00  0.00000000E+00  0.00000000E+00
  0.00000000E+00  0.00000000E+00  0.00000000E+00
  0.00000000E+00  0.00000000E+00  0.00000000E+00
  0.00000000E+00  0.00000000E+00  0.00000000E+00
  0.00000000E+00  0.00000000E+00  0.00000000E+00
  0.00000000E+00  0.00000000E+00  0.00000000E+00
  0.00000000E+00  0.00000000E+00  0.00000000E+00
  0.00000000E+00  0.00000000E+00  0.00000000E+00
  0.00000000E+00  0.00000000E+00  0.00000000E+00
  0.00000000E+00  0.00000000E+00  0.00000000E+00
  0.00000000E+00  0.00000000E+00  0.00000000E+00
  0.00000000E+00  0.00000000E+00  0.00000000E+00
  0.00000000E+00  0.00000000E+00  0.00000000E+00
  0.00000000E+00  0.00000000E+00  0.00000000E+00
  0.00000000E+00  0.00000000E+00  0.00000000E+00
  0.00000000E+00  0.00000000E+00  0.00000000E+00
  0.00000000E+00  0.00000000E+00  0.00000000E+00
  0.00000000E+00  0.00000000E+00  0.00000000E+00
  0.00000000E+00  0.00000000E+00  0.00000000E+00
  0.00000000E+00  0.00000000E+00  0.00000000E+00
  0.00000000E+00  0.00000000E+00  0.00000000E+00
  0.00000000E+00  0.00000000E+00  0.00000000E+00
  0.00000000E+00  0.00000000E+00  0.00000000E+00
  0.00000000E+00  0.00000000E+00  0.00000000E+00
  0.00000000E+00  0.00000000E+00  0.00000000E+00
  0.00000000E+00  0.00000000E+00  0.00000000E+00
  0.00000000E+00  0.00000000E+00  0.00000000E+00
  0.00000000E+00  0.00000000E+00  0.00000000E+00
  0.00000000E+00  0.00000000E+00  0.00000000E+00
  0.00000000E+00  0.00000000E+00  0.00000000E+00
  0.00000000E+00  0.00000000E+00  0.00000000E+00
  0.00000000E+00  0.00000000E+00  0.00000000E+00
  0.00000000E+00  0.00000000E+00  0.00000000E+00
  0.00000000E+00  0.00000000E+00  0.00000000E+00
  0.00000000E+00  0.00000000E+00  0.00000000E+00
  0.00000000E+00  0.00000000E+00  0.00000000E+00
  0.00000000E+00  0.00000000E+00  0.00000000E+00
  0.00000000E+00  0.00000000E+00  0.00000000E+00
  0.00000000E+00  0.00000000E+00  0.00000000E+00
  0.00000000E+00  0.00000000E+00  0.00000000E+00
  0.00000000E+00  0.00000000E+00  0.00000000E+00
  0.00000000E+00  0.00000000E+00  0.00000000E+00
  0.00000000E+00  0.00000000E+00  0.00000000E+00
  0.00000000E+00  0.00000000E+00  0.00000000E+00
  0.00000000E+00  0.00000000E+00  0.00000000E+00
  0.00000000E+00  0.00000000E+00  0.00000000E+00
  0.00000000E+00  0.00000000E+00  0.00000000E+00
  0.00000000E+00  0.00000000E+00  0.00000000E+00
  0.00000000E+00  0.00000000E+00  0.00000000E+00
  0.00000000E+00  0.00000000E+00  0.00000000E+00
  0.00000000E+00  0.00000000E+00  0.00000000E+00
  0.00000000E+00  0.00000000E+00  0.00000000E+00
  0.00000000E+00  0.00000000E+00  0.00000000E+00
  0.00000000E+00  0.00000000E+00  0.00000000E+00
  0.00000000E+00  0.00000000E+00  0.00000000E+00
  0.00000000E+00  0.00000000E+00  0.00000000E+00
  0.00000000E+00  0.00000000E+00  0.00000000E+00
  0.00000000E+00  0.00000000E+00  0.00000000E+00
  0.00000000E+00  0.00000000E+00  0.00000000E+00
  0.00000000E+00  0.00000000E+00  0.00000000E+00
  0.00000000E+00  0.00000000E+00  0.00000000E+00
  0.00000000E+00  0.00000000E+00  0.00000000E+00
  0.00000000E+00  0.00000000E+00  0.00000000E+00
  0.00000000E+00  0.00000000E+00  0.00000000E+00
  0.00000000E+00  0.00000000E+00  0.00000000E+00
  0.00000000E+00  0.00000000E+00  0.00000000E+00
  0.00000000E+00  0.00000000E+00  0.00000000E+00
  0.00000000E+00  0.00000000E+00  0.00000000E+00
  0.00000000E+00  0.00000000E+00  0.00000000E+00
  0.00000000E+00  0.00000000E+00  0.00000000E+00
  0.00000000E+00  0.00000000E+00  0.00000000E+00
  0.00000000E+00  0.00000000E+00  0.00000000E+00
  0.00000000E+00  0.00000000E+00  0.00000000E+00
  0.00000000E+00  0.00000000E+00  0.00000000E+00
  0.00000000E+00  0.00000000E+00  0.00000000E+00
  0.00000000E+00  0.00000000E+00  0.00000000E+00
  0.00000000E+00  0.00000000E+00  0.00000000E+00
  0.00000000E+00  0.00000000E+00  0.00000000E+00
  0.00000000E+00  0.00000000E+00  0.00000000E+00
  0.00000000E+00  0.00000000E+00  0.00000000E+00
  0.00000000E+00  0.00000000E+00  0.00000000E+00
  0.00000000E+00  0.00000000E+00  0.00000000E+00
  0.00000000E+00  0.00000000E+00  0.00000000E+00
  0.00000000E+00  0.00000000E+00  0.00000000E+00
  0.00000000E+00  0.00000000E+00  0.00000000E+00
  0.00000000E+00  0.00000000E+00  0.00000000E+00
  0.00000000E+00  0.00000000E+00  0.00000000E+00
  0.00000000E+00  0.00000000E+00  0.00000000E+00
  0.00000000E+00  0.00000000E+00  0.00000000E+00
  0.00000000E+00  0.00000000E+00  0.00000000E+00
  0.00000000E+00  0.00000000E+00  0.00000000E+00
  0.00000000E+00  0.00000000E+00  0.00000000E+00
  0.00000000E+00  0.00000000E+00  0.00000000E+00
  0.00000000E+00  0.00000000E+00  0.00000000E+00
  0.00000000E+00  0.00000000E+00  0.00000000E+00
  0.00000000E+00  0.00000000E+00  0.00000000E+00
  0.00000000E+00  0.00000000E+00  0.00000000E+00
  0.00000000E+00  0.00000000E+00  0.00000000E+00
  0.00000000E+00  0.00000000E+00  0.00000000E+00
  0.00000000E+00  0.00000000E+00  0.00000000E+00
  0.00000000E+00  0.00000000E+00  0.00000000E+00
  0.00000000E+00  0.00000000E+00  0.00000000E+00
  0.00000000E+00  0.00000000E+00  0.00000000E+00
  0.00000000E+00  0.00000000E+00  0.00000000E+00
  0.00000000E+00  0.00000000E+00  0.00000000E+00
  0.00000000E+00  0.00000000E+00  0.00000000E+00
  0.00000000E+00  0.00000000E+00  0.00000000E+00
  0.00000000E+00  0.00000000E+00  0.00000000E+00
  0.00000000E+00  0.00000000E+00  0.00000000E+00
  0.00000000E+00  0.00000000E+00  0.00000000E+00
  0.00000000E+00  0.00000000E+00  0.00000000E+00
  0.00000000E+00  0.00000000E+00  0.00000000E+00
  0.00000000E+00  0.00000000E+00  0.00000000E+00
  0.00000000E+00  0.00000000E+00  0.00000000E+00
  0.00000000E+00  0.00000000E+00  0.00000000E+00
  0.00000000E+00  0.00000000E+00  0.00000000E+00
  0.00000000E+00  0.00000000E+00  0.00000000E+00
  0.00000000E+00  0.00000000E+00  0.00000000E+00
  0.00000000E+00  0.00000000E+00  0.00000000E+00
  0.00000000E+00  0.00000000E+00  0.00000000E+00
  0.00000000E+00  0.00000000E+00  0.00000000E+00
  0.00000000E+00  0.00000000E+00  0.00000000E+00
  0.00000000E+00  0.00000000E+00  0.00000000E+00
  0.00000000E+00  0.00000000E+00  0.00000000E+00
  0.00000000E+00  0.00000000E+00  0.00000000E+00
  0.00000000E+00  0.00000000E+00  0.00000000E+00
  0.00000000E+00  0.00000000E+00  0.00000000E+00
  0.00000000E+00  0.00000000E+00  0.00000000E+00
  0.00000000E+00  0.00000000E+00  0.00000000E+00
  0.00000000E+00  0.00000000E+00  0.00000000E+00
  0.00000000E+00  0.00000000E+00  0.00000000E+00
  0.00000000E+00  0.00000000E+00  0.00000000E+00
  0.00000000E+00  0.00000000E+00  0.00000000E+00
  0.00000000E+00  0.00000000E+00  0.00000000E+00
  0.00000000E+00  0.00000000E+00  0.00000000E+00
  0.00000000E+00  0.00000000E+00  0.00000000E+00
  0.00000000E+00  0.00000000E+00  0.00000000E+00
  0.00000000E+00  0.00000000E+00  0.00000000E+00
  0.00000000E+00  0.00000000E+00  0.00000000E+00
  0.00000000E+00  0.00000000E+00  0.00000000E+00
  0.00000000E+00  0.00000000E+00  0.00000000E+00
  0.00000000E+00  0.00000000E+00  0.00000000E+00
  0.00000000E+00  0.00000000E+00  0.00000000E+00
  0.00000000E+00  0.00000000E+00  0.00000000E+00
  0.00000000E+00  0.00000000E+00  0.00000000E+00
  0.00000000E+00  0.00000000E+00  0.00000000E+00
  0.00000000E+00  0.00000000E+00  0.00000000E+00
  0.00000000E+00  0.00000000E+00  0.00000000E+00
  0.00000000E+00  0.00000000E+00  0.00000000E+00
  0.00000000E+00  0.00000000E+00  0.00000000E+00
  0.00000000E+00  0.00000000E+00  0.00000000E+00
  0.00000000E+00  0.00000000E+00  0.00000000E+00
  0.00000000E+00  0.00000000E+00  0.00000000E+00
  0.00000000E+00  0.00000000E+00  0.00000000E+00
  0.00000000E+00  0.00000000E+00  0.00000000E+00
  0.00000000E+00  0.00000000E+00  0.00000000E+00
  0.00000000E+00  0.00000000E+00  0.00000000E+00
  0.00000000E+00  0.00000000E+00  0.00000000E+00
  0.00000000E+00  0.00000000E+00  0.00000000E+00
  0.00000000E+00  0.00000000E+00  0.00000000E+00
  0.00000000E+00  0.00000000E+00  0.00000000E+00
  0.00000000E+00  0.00000000E+00  0.00000000E+00
  0.00000000E+00  0.00000000E+00  0.00000000E+00
