Ti64 O64 F128                           
   1.00000000000000     
    15.4260648158550104    0.0000000000000000    0.0000000000000000
     0.0000000000000000   15.4260648158550104    0.0000000000000000
     0.0000000000000000    0.0000000000000000   15.4260648158550104
   Ti   O    F 
    64    64   128
Direct
  0.9995098935431489  0.0078880370973562  0.0067587809729767
  0.9929680846749309  0.9918980312226384  0.4989043516513657
  0.9932552744668931  0.4984765586165107  0.9934443748271504
  0.9944598817148936  0.4930228922212515  0.5015807292110765
  0.4988519529655965  0.9916429490435448  0.0059297061732593
  0.5019439182101813  0.9928573001016828  0.5055950911448326
  0.4939021454238722  0.5019184233933746  0.9916569745444185
  0.4942997488884482  0.4935745325956669  0.5008446746082825
  0.9997017314354517  0.0067686166458840  0.2428550899040773
  0.9919552485467195  0.0072060997313934  0.7518527050488927
  0.9939902432911865  0.5066379385582213  0.2481294355379535
  0.0070252547438129  0.4988261784750828  0.7581889782483799
  0.4994091464604188  0.9950232560977371  0.2440186246602568
  0.5016102146421652  0.0066768959439581  0.7435429483072100
  0.4940290195380674  0.4961568235248557  0.2478028431285807
  0.4978949684873347  0.5066758392136587  0.7565934241723986
  0.9995201773019787  0.2429996377672717  0.0058262622505082
  0.9989167799203595  0.2555888723511706  0.5064932209551917
  0.0074409790497494  0.7518547574000709  0.9937196703247098
  0.0055173295813175  0.7545388285832343  0.4945340456114825
  0.5003857637691506  0.2475728848740679  0.0087056729327851
  0.5071022890795569  0.2560740215935623  0.4993713621180677
  0.4979123180185848  0.7568578480325961  0.0079538846878863
  0.5062338369117478  0.7558638083641871  0.4976142620328731
  0.9996320163161138  0.2443636165612853  0.2443362955264811
  0.9981319001176931  0.2415501050300719  0.7444259686115362
  0.0000948512292065  0.7439694792148547  0.2562510029370491
  0.9927534007203793  0.7516808809859061  0.7554473379239023
  0.4998950453588641  0.2571771030066290  0.2450305031787484
  0.5070694611041987  0.2438200199296930  0.7521860821287993
  0.4999222361108557  0.7571357279843426  0.2433224439148463
  0.4937647087670312  0.7439916425817913  0.7520575779343753
  0.2508107869046609  0.9938639035771325  0.0072382844775244
  0.2491592945887954  0.0023668070401636  0.5080283797998991
  0.2566103968209993  0.4943798648944182  0.0002705734102294
  0.2569584052970190  0.4929518868012263  0.4994753000743877
  0.7502243635690021  0.0057672383914889  0.0070973852578490
  0.7582081534123168  0.0071223617304440  0.4982930532642292
  0.7559511523087752  0.5058361842148397  0.9987782135539706
  0.7573198098488990  0.4988474346000329  0.5065445607617932
  0.2505751061157784  0.9936791853681781  0.2446184516060977
  0.2479510542900848  0.9927364115349615  0.7465591065126456
  0.2559754830207133  0.4941000806416152  0.2500868431346093
  0.2420046709294827  0.4928909644850298  0.7498759962773367
  0.7505916556195209  0.0054909741200200  0.2428037757766974
  0.7564401740350096  0.9916167571775655  0.7511178423982954
  0.7565526009793965  0.5052396067743782  0.2514614967142232
  0.7515812928462898  0.4939677547555526  0.7416542042980316
  0.2492648657780226  0.2562219432216579  0.0059793264529259
  0.2512809383159208  0.2575832572244204  0.5062407192590567
  0.2422898600729058  0.7560498104154547  0.0026947095062597
  0.2426487415592248  0.7476273102757404  0.4934813658808510
  0.7507354200802187  0.2440926004136380  0.0073214121728332
  0.7422898751776297  0.2419974648163424  0.4980803224858239
  0.7509796723728800  0.7435534839441262  0.0068613101534311
  0.7434918711705256  0.7507566646600330  0.5071300846029013
  0.2500660700561922  0.2558626726663714  0.2442114125064232
  0.2517026829506013  0.2557860411466307  0.7440546200523118
  0.2502029387479136  0.7557961342468527  0.2579107087710367
  0.2561401520530395  0.7553253761871250  0.7488255600117114
  0.7504146972906796  0.2438830178133158  0.2428246431194327
  0.7426608727889602  0.2565861157806305  0.7511491032269870
  0.7500983905269425  0.7435007080821195  0.2443929411939525
  0.7548938698441567  0.7544935661642260  0.7447441358347475
  0.9991705605125865  0.0009469526384117  0.1241744506616779
  0.4993370663020363  0.0047497010880259  0.1246043419562111
  0.4996999226120542  0.9993548509750101  0.6252194598269690
  0.9995371903794155  0.5033580185615936  0.8757678474981951
  0.4975785496371458  0.4957992094265051  0.8750689338767268
  0.0000927156932327  0.2503846206975841  0.1244058188074076
  0.0001246607782235  0.2463755825505878  0.6257542052473917
  0.5017408192606243  0.2442834283350989  0.1233262347244464
  0.5028635293506992  0.7478688791734578  0.1254244459572212
  0.0024210792938060  0.7480703794637675  0.3728008348279124
  0.0036709062348676  0.7481859118513596  0.8764124373193916
  0.2505006298646240  0.0041426534561823  0.1255137952594104
  0.2504583207597327  0.0029208271546597  0.6236302946319147
  0.7512150380149537  0.9965022039508662  0.1249286006386881
  0.7502415843370361  0.5046031476075711  0.6243184402594028
  0.2500824464883191  0.2479590563720529  0.1250134118156325
  0.2500357228863553  0.2479612760382064  0.6248869249909343
  0.7478493348436001  0.2532263945380702  0.1249569759470913
  0.7454159884483839  0.7545964488297238  0.1256154735331642
  0.7475933382037937  0.7450982727712189  0.6240354043564064
  0.2499093312253820  0.7481470474692764  0.3738637116974608
  0.1246996614743965  0.4974405861165521  0.7492839145584387
  0.1259552189378584  0.7522364695818474  0.0069816966499717
  0.1270016817578306  0.7503998180677708  0.5018888124235310
  0.6245973485007537  0.2500189016080963  0.5026105214734794
  0.6236939172111787  0.7507216187706591  0.4945773946872423
  0.6246173695129227  0.2522826712407871  0.7481736321387678
  0.3752619597482700  0.5012094858375069  0.0045615771983272
  0.3748642596739610  0.5008311587138941  0.4969244199552791
  0.8746434237788400  0.0005498397270388  0.5031184802620197
  0.8748098078566312  0.4952513035783570  0.0029310143195450
  0.8754404078749659  0.4980258114417900  0.4962704724176105
  0.3754239330503829  0.5040583722058077  0.2490937058834755
  0.8757782960856075  0.9983395140103865  0.7470379620989949
  0.8748832908523904  0.4946884994821648  0.2499335970189314
  0.3748883341785093  0.7516209099139669  0.7524838303724530
  0.8761061928492528  0.7516604726314633  0.7518798492976456
  0.9937337669408325  0.1251678533064272  0.9935627122949551
  0.9941342719023125  0.1251316221844754  0.2515418815683363
  0.0010846487432029  0.1249195240163913  0.7586738169745636
  0.9981101831592731  0.6246956271154942  0.2439554882371653
  0.4987034738599522  0.1259725807880608  0.7538209459056623
  0.5002418778028024  0.6242366365217853  0.7496558290718229
  0.0044486492416404  0.3740674293271042  0.5003620787579706
  0.0006642858680556  0.8759847083858791  0.5018231181044991
  0.4984524134686788  0.3743701243248481  0.4969105196985679
  0.4923047422905540  0.8752301719066312  0.0003584037867060
  0.4964940128475991  0.8756167599147426  0.4947124443375013
  0.4978371429492032  0.3735677244796495  0.2482997993784064
  0.4951243180564694  0.8760287647373862  0.2519008387886963
  0.7536522410743446  0.1253255157251708  0.0011089735785756
  0.7496030432462187  0.1252049569667148  0.4943748071793432
  0.7497278961648474  0.6242094252005240  0.0032694027080725
  0.7554598638815258  0.1249271146976812  0.2517484484989199
  0.7515455388538955  0.6247486013738002  0.2492842456047894
  0.2499553164334204  0.3748026022038525  0.9986108934661796
  0.2481990575229818  0.3749371579410106  0.4975815913478400
  0.2562090322028871  0.8757399599158040  0.0004343194493239
  0.2530089101841139  0.3747473374914930  0.2515726109324036
  0.2521991233091377  0.3749597183167663  0.7520330478892034
  0.2552577818656290  0.8755196238705689  0.2487832544028900
  0.2467753789336772  0.8756795357905246  0.7510332937306153
  0.7541551121002664  0.3748733842391957  0.7486319123776870
  0.7465649345855757  0.8760692196824206  0.7496143849911027
  0.0080789288737543  0.0058655981591019  0.6253215074976711
  0.0059880821573398  0.4917751204746391  0.1236165449298269
  0.9972446812307688  0.4987222194186989  0.6274349191875054
  0.5050795645672929  0.5028223947493347  0.1234409710413331
  0.5014608897935536  0.4971816837699474  0.6259425020525048
  0.0010908577741736  0.9983120588535280  0.3731288694647025
  0.0009990626611196  0.9907266154617550  0.8765880672866594
  0.0068351742739079  0.5024603517115522  0.3747738008862297
  0.5013087157507417  0.0057778257003653  0.3739857938291612
  0.5008198585347917  0.9991730493913993  0.8762398778572421
  0.5043406731446787  0.5045256961960494  0.3739021170606464
  0.9946198605238655  0.7561687645134738  0.1244301688050816
  0.9996638701710664  0.7486232757628490  0.6257113553093986
  0.4923634171555429  0.2493807736141619  0.6252905471453556
  0.5009603799415722  0.7538704254498879  0.6255248421115268
  0.9984551093227328  0.2501960337232548  0.3743466571599731
  0.9986539048051161  0.2575103400458844  0.8759521587522676
  0.4987044527593284  0.2461642917275273  0.3731863803064800
  0.4993676017846094  0.2581842688009455  0.8783539257362535
  0.4922544923422265  0.7423051149932149  0.3724919025257564
  0.5004130850604289  0.7484949703409870  0.8778814584054874
  0.2436910855740979  0.5030892686998117  0.1252997195338336
  0.2517233305702072  0.5023387878444731  0.6247478845733956
  0.7424034538059475  0.0033994280344505  0.6243642269572039
  0.7444280786503206  0.4909207666118000  0.1252116307078874
  0.2489358411802502  0.9985073246699780  0.3760757538348910
  0.2492100174818077  0.0025457684886258  0.8756602837387264
  0.2442237811547027  0.5080343382097956  0.3747281432842781
  0.2526732672675255  0.5071741896638955  0.8748959674008376
  0.7494714873952868  0.9953846168417674  0.3733800388902046
  0.7493256005019570  0.0025695712430781  0.8766260441460897
  0.7443535353277645  0.4946220620284422  0.3757323048764601
  0.7484575862123748  0.4993827960382640  0.8737832767041568
  0.2588668205542168  0.7460342837979000  0.1262912810633730
  0.2536119449198683  0.7505683284584648  0.6238131130498238
  0.7566789747017478  0.2473413072345838  0.6244028422325940
  0.2520271139184981  0.2484333887731248  0.3745324409694355
  0.2514134730739002  0.2474934628200876  0.8758093470256423
  0.2474159014273212  0.7449117457726542  0.8758794993244013
  0.7503967791841920  0.2556320480449150  0.3733479519785899
  0.7501554146105713  0.2488830107124568  0.8766049629978573
  0.7546787995407579  0.7535993231728666  0.3738139845885639
  0.7489176388903473  0.7493405397760786  0.8772523329173095
  0.1246566152827414  0.0007022023247664  0.9965051905760471
  0.1256375717474653  0.0023987616887157  0.4968242481151859
  0.1258041928779080  0.5031764190446233  0.9987839504918337
  0.1260900331561157  0.5038981887687886  0.5038311364737273
  0.6246461496100755 -0.0000376310419052  0.9973193697560856
  0.6265116922393921  0.9989158549240351  0.4965099704242562
  0.6240223851057343  0.4964352213780334  0.9997383024850458
  0.6249517527376175  0.5002348166471946  0.4994741473770238
  0.1249114486697011  0.0014801865974099  0.2534616439262206
  0.1241394583247905  0.0029582468212344  0.7529556974119189
  0.1258431635383244  0.4988678484964301  0.2498475624005862
  0.6251628240043251  0.0015663813846789  0.2526083932258290
  0.6262095075242283  0.0044377792170068  0.7536529786597737
  0.6242439247911559  0.4988433784370623  0.2495387550101275
  0.6242725518386077  0.4953964404749951  0.7501460545753676
  0.1245226531718452  0.2459603282316696  0.9951505092581673
  0.1257287907594696  0.2430427391234510  0.4949444567881419
  0.6242445824176154  0.2498297220365533  0.9942170997138182
  0.6237337039117907  0.7540702642446432  0.9957522214072724
  0.1249178375790675  0.2474640582510293  0.2544743025423847
  0.1247951717497478  0.2527683855948670  0.7553777301088327
  0.1259685945757317  0.7526739523574913  0.2386942946254508
  0.1265288904176957  0.7458088307793779  0.7471201154470065
  0.6248121242433344  0.2469498387366253  0.2552394397002222
  0.6241051727277340  0.7526223970444211  0.2598127046491459
  0.6231494180776110  0.7494688397011938  0.7535797166847820
  0.3754293640055062  0.0124897800206752  0.9953490383237344
  0.3741323699880398  0.0051442317081684  0.4947907341080645
  0.8748010366583919  0.9932598610655089  0.9944681597418320
  0.3751148317433781  0.0104111560125825  0.2553713668951364
  0.3746026588774600  0.9984440431752651  0.7546830436304850
  0.3729168950238764  0.5016107822005953  0.7464171906275257
  0.8751079368911034  0.9907915678043546  0.2549122713551869
  0.8763759864213581  0.5049651611616573  0.7505927515135342
  0.3765373641994689  0.2452494531556645  0.9969426832781340
  0.3757304606189882  0.2447171178573007  0.4968854784295845
  0.3746528625982570  0.7409682817668563  0.9973917629804777
  0.3746830777363900  0.7466073014487529  0.5021791081589460
  0.8747834603439305  0.2606541601796101  0.9971292626237703
  0.8735219447842859  0.2516156244174308  0.4970002047027002
  0.8757775903046339  0.7534714335010364  0.0006927964125076
  0.8742802273998694  0.7485120039745645  0.4992168785609012
  0.3757159807897653  0.2406659588898666  0.2517131551229088
  0.3761168522207745  0.2492853323031119  0.7544132615185650
  0.3755943411247505  0.7402429964009544  0.2481824033742904
  0.8745643429064013  0.2602072817342264  0.2524189006896871
  0.8734208605524266  0.2470768385770592  0.7537827451008300
  0.8746865905475388  0.7599908226223895  0.2481919473505919
  0.0004818147786731  0.1247481382041287  0.4952279601971465
  0.9977819571307663  0.6250106159256159  0.0093252909327082
  0.0001151481285573  0.6233411861822395  0.5031146231135794
  0.5046518264067981  0.1253402070183682  0.9909518372553821
  0.4997307580229974  0.1252224388361609  0.4997090307996562
  0.5059335070511142  0.6263109663955051  0.9976535236197882
  0.5006455525129497  0.6242545681439954  0.5040380302831742
  0.0009913927778186  0.6244380663659750  0.7454349005050931
  0.5038864504068343  0.1259481584341346  0.2522168555142283
  0.5060400729129888  0.6250317972611957  0.2493400065037877
  0.0077976627306282  0.3734625763505446  0.9983559052274233
  0.9998542803260968  0.8775440514620638  0.9996367669851047
  0.4996917093109060  0.3730188633638505  0.0060131108076228
  0.0057050816526379  0.3737753608147489  0.2534526657773932
  0.9942824810263868  0.3740470097561570  0.7502812663005941
  0.0045342563197783  0.8768871557685332  0.2500501761145830
  0.0086419326526499  0.8768380735107865  0.7459739910088978
  0.4948819061323178  0.3747564520274608  0.7463549033672521
  0.5031438395990324  0.8758138378836057  0.7543803416040773
  0.2477081927934886  0.1256738541407292  0.9963262080643738
  0.2499786534016664  0.1255948217739765  0.4939373583251528
  0.2489792190071400  0.6249274722596522  0.0013660543691102
  0.2498943090934584  0.6231279880007533  0.5037235538393593
  0.7495770881705434  0.6241786748557298  0.4894717300451495
  0.2466340848840659  0.1250857198081216  0.2555576711546121
  0.2501617132939296  0.1250026278386069  0.7532111935307482
  0.2449226034285259  0.6251018970297734  0.2472262463620203
  0.2504807335988880  0.6243118553758122  0.7477797636615351
  0.7504445805848134  0.1258475039433233  0.7501260897271211
  0.7465406558693406  0.6232442636323871  0.7564483716521054
  0.2545406783155154  0.8766396767715467  0.5000595460238048
  0.7445951450412778  0.3733539783186795  0.9949373641595914
  0.7496234093858422  0.3730700887984116  0.5022074493532320
  0.7481418365465370  0.8765255189316817  0.9944587837514878
  0.7493153415036150  0.8770393039977130  0.5016375065224362
  0.7435360533785761  0.3733567175399821  0.2523658940335254
  0.7451882407119025  0.8764994760288144  0.2536533396171198
 
  0.00000000E+00  0.00000000E+00  0.00000000E+00
  0.00000000E+00  0.00000000E+00  0.00000000E+00
  0.00000000E+00  0.00000000E+00  0.00000000E+00
  0.00000000E+00  0.00000000E+00  0.00000000E+00
  0.00000000E+00  0.00000000E+00  0.00000000E+00
  0.00000000E+00  0.00000000E+00  0.00000000E+00
  0.00000000E+00  0.00000000E+00  0.00000000E+00
  0.00000000E+00  0.00000000E+00  0.00000000E+00
  0.00000000E+00  0.00000000E+00  0.00000000E+00
  0.00000000E+00  0.00000000E+00  0.00000000E+00
  0.00000000E+00  0.00000000E+00  0.00000000E+00
  0.00000000E+00  0.00000000E+00  0.00000000E+00
  0.00000000E+00  0.00000000E+00  0.00000000E+00
  0.00000000E+00  0.00000000E+00  0.00000000E+00
  0.00000000E+00  0.00000000E+00  0.00000000E+00
  0.00000000E+00  0.00000000E+00  0.00000000E+00
  0.00000000E+00  0.00000000E+00  0.00000000E+00
  0.00000000E+00  0.00000000E+00  0.00000000E+00
  0.00000000E+00  0.00000000E+00  0.00000000E+00
  0.00000000E+00  0.00000000E+00  0.00000000E+00
  0.00000000E+00  0.00000000E+00  0.00000000E+00
  0.00000000E+00  0.00000000E+00  0.00000000E+00
  0.00000000E+00  0.00000000E+00  0.00000000E+00
  0.00000000E+00  0.00000000E+00  0.00000000E+00
  0.00000000E+00  0.00000000E+00  0.00000000E+00
  0.00000000E+00  0.00000000E+00  0.00000000E+00
  0.00000000E+00  0.00000000E+00  0.00000000E+00
  0.00000000E+00  0.00000000E+00  0.00000000E+00
  0.00000000E+00  0.00000000E+00  0.00000000E+00
  0.00000000E+00  0.00000000E+00  0.00000000E+00
  0.00000000E+00  0.00000000E+00  0.00000000E+00
  0.00000000E+00  0.00000000E+00  0.00000000E+00
  0.00000000E+00  0.00000000E+00  0.00000000E+00
  0.00000000E+00  0.00000000E+00  0.00000000E+00
  0.00000000E+00  0.00000000E+00  0.00000000E+00
  0.00000000E+00  0.00000000E+00  0.00000000E+00
  0.00000000E+00  0.00000000E+00  0.00000000E+00
  0.00000000E+00  0.00000000E+00  0.00000000E+00
  0.00000000E+00  0.00000000E+00  0.00000000E+00
  0.00000000E+00  0.00000000E+00  0.00000000E+00
  0.00000000E+00  0.00000000E+00  0.00000000E+00
  0.00000000E+00  0.00000000E+00  0.00000000E+00
  0.00000000E+00  0.00000000E+00  0.00000000E+00
  0.00000000E+00  0.00000000E+00  0.00000000E+00
  0.00000000E+00  0.00000000E+00  0.00000000E+00
  0.00000000E+00  0.00000000E+00  0.00000000E+00
  0.00000000E+00  0.00000000E+00  0.00000000E+00
  0.00000000E+00  0.00000000E+00  0.00000000E+00
  0.00000000E+00  0.00000000E+00  0.00000000E+00
  0.00000000E+00  0.00000000E+00  0.00000000E+00
  0.00000000E+00  0.00000000E+00  0.00000000E+00
  0.00000000E+00  0.00000000E+00  0.00000000E+00
  0.00000000E+00  0.00000000E+00  0.00000000E+00
  0.00000000E+00  0.00000000E+00  0.00000000E+00
  0.00000000E+00  0.00000000E+00  0.00000000E+00
  0.00000000E+00  0.00000000E+00  0.00000000E+00
  0.00000000E+00  0.00000000E+00  0.00000000E+00
  0.00000000E+00  0.00000000E+00  0.00000000E+00
  0.00000000E+00  0.00000000E+00  0.00000000E+00
  0.00000000E+00  0.00000000E+00  0.00000000E+00
  0.00000000E+00  0.00000000E+00  0.00000000E+00
  0.00000000E+00  0.00000000E+00  0.00000000E+00
  0.00000000E+00  0.00000000E+00  0.00000000E+00
  0.00000000E+00  0.00000000E+00  0.00000000E+00
  0.00000000E+00  0.00000000E+00  0.00000000E+00
  0.00000000E+00  0.00000000E+00  0.00000000E+00
  0.00000000E+00  0.00000000E+00  0.00000000E+00
  0.00000000E+00  0.00000000E+00  0.00000000E+00
  0.00000000E+00  0.00000000E+00  0.00000000E+00
  0.00000000E+00  0.00000000E+00  0.00000000E+00
  0.00000000E+00  0.00000000E+00  0.00000000E+00
  0.00000000E+00  0.00000000E+00  0.00000000E+00
  0.00000000E+00  0.00000000E+00  0.00000000E+00
  0.00000000E+00  0.00000000E+00  0.00000000E+00
  0.00000000E+00  0.00000000E+00  0.00000000E+00
  0.00000000E+00  0.00000000E+00  0.00000000E+00
  0.00000000E+00  0.00000000E+00  0.00000000E+00
  0.00000000E+00  0.00000000E+00  0.00000000E+00
  0.00000000E+00  0.00000000E+00  0.00000000E+00
  0.00000000E+00  0.00000000E+00  0.00000000E+00
  0.00000000E+00  0.00000000E+00  0.00000000E+00
  0.00000000E+00  0.00000000E+00  0.00000000E+00
  0.00000000E+00  0.00000000E+00  0.00000000E+00
  0.00000000E+00  0.00000000E+00  0.00000000E+00
  0.00000000E+00  0.00000000E+00  0.00000000E+00
  0.00000000E+00  0.00000000E+00  0.00000000E+00
  0.00000000E+00  0.00000000E+00  0.00000000E+00
  0.00000000E+00  0.00000000E+00  0.00000000E+00
  0.00000000E+00  0.00000000E+00  0.00000000E+00
  0.00000000E+00  0.00000000E+00  0.00000000E+00
  0.00000000E+00  0.00000000E+00  0.00000000E+00
  0.00000000E+00  0.00000000E+00  0.00000000E+00
  0.00000000E+00  0.00000000E+00  0.00000000E+00
  0.00000000E+00  0.00000000E+00  0.00000000E+00
  0.00000000E+00  0.00000000E+00  0.00000000E+00
  0.00000000E+00  0.00000000E+00  0.00000000E+00
  0.00000000E+00  0.00000000E+00  0.00000000E+00
  0.00000000E+00  0.00000000E+00  0.00000000E+00
  0.00000000E+00  0.00000000E+00  0.00000000E+00
  0.00000000E+00  0.00000000E+00  0.00000000E+00
  0.00000000E+00  0.00000000E+00  0.00000000E+00
  0.00000000E+00  0.00000000E+00  0.00000000E+00
  0.00000000E+00  0.00000000E+00  0.00000000E+00
  0.00000000E+00  0.00000000E+00  0.00000000E+00
  0.00000000E+00  0.00000000E+00  0.00000000E+00
  0.00000000E+00  0.00000000E+00  0.00000000E+00
  0.00000000E+00  0.00000000E+00  0.00000000E+00
  0.00000000E+00  0.00000000E+00  0.00000000E+00
  0.00000000E+00  0.00000000E+00  0.00000000E+00
  0.00000000E+00  0.00000000E+00  0.00000000E+00
  0.00000000E+00  0.00000000E+00  0.00000000E+00
  0.00000000E+00  0.00000000E+00  0.00000000E+00
  0.00000000E+00  0.00000000E+00  0.00000000E+00
  0.00000000E+00  0.00000000E+00  0.00000000E+00
  0.00000000E+00  0.00000000E+00  0.00000000E+00
  0.00000000E+00  0.00000000E+00  0.00000000E+00
  0.00000000E+00  0.00000000E+00  0.00000000E+00
  0.00000000E+00  0.00000000E+00  0.00000000E+00
  0.00000000E+00  0.00000000E+00  0.00000000E+00
  0.00000000E+00  0.00000000E+00  0.00000000E+00
  0.00000000E+00  0.00000000E+00  0.00000000E+00
  0.00000000E+00  0.00000000E+00  0.00000000E+00
  0.00000000E+00  0.00000000E+00  0.00000000E+00
  0.00000000E+00  0.00000000E+00  0.00000000E+00
  0.00000000E+00  0.00000000E+00  0.00000000E+00
  0.00000000E+00  0.00000000E+00  0.00000000E+00
  0.00000000E+00  0.00000000E+00  0.00000000E+00
  0.00000000E+00  0.00000000E+00  0.00000000E+00
  0.00000000E+00  0.00000000E+00  0.00000000E+00
  0.00000000E+00  0.00000000E+00  0.00000000E+00
  0.00000000E+00  0.00000000E+00  0.00000000E+00
  0.00000000E+00  0.00000000E+00  0.00000000E+00
  0.00000000E+00  0.00000000E+00  0.00000000E+00
  0.00000000E+00  0.00000000E+00  0.00000000E+00
  0.00000000E+00  0.00000000E+00  0.00000000E+00
  0.00000000E+00  0.00000000E+00  0.00000000E+00
  0.00000000E+00  0.00000000E+00  0.00000000E+00
  0.00000000E+00  0.00000000E+00  0.00000000E+00
  0.00000000E+00  0.00000000E+00  0.00000000E+00
  0.00000000E+00  0.00000000E+00  0.00000000E+00
  0.00000000E+00  0.00000000E+00  0.00000000E+00
  0.00000000E+00  0.00000000E+00  0.00000000E+00
  0.00000000E+00  0.00000000E+00  0.00000000E+00
  0.00000000E+00  0.00000000E+00  0.00000000E+00
  0.00000000E+00  0.00000000E+00  0.00000000E+00
  0.00000000E+00  0.00000000E+00  0.00000000E+00
  0.00000000E+00  0.00000000E+00  0.00000000E+00
  0.00000000E+00  0.00000000E+00  0.00000000E+00
  0.00000000E+00  0.00000000E+00  0.00000000E+00
  0.00000000E+00  0.00000000E+00  0.00000000E+00
  0.00000000E+00  0.00000000E+00  0.00000000E+00
  0.00000000E+00  0.00000000E+00  0.00000000E+00
  0.00000000E+00  0.00000000E+00  0.00000000E+00
  0.00000000E+00  0.00000000E+00  0.00000000E+00
  0.00000000E+00  0.00000000E+00  0.00000000E+00
  0.00000000E+00  0.00000000E+00  0.00000000E+00
  0.00000000E+00  0.00000000E+00  0.00000000E+00
  0.00000000E+00  0.00000000E+00  0.00000000E+00
  0.00000000E+00  0.00000000E+00  0.00000000E+00
  0.00000000E+00  0.00000000E+00  0.00000000E+00
  0.00000000E+00  0.00000000E+00  0.00000000E+00
  0.00000000E+00  0.00000000E+00  0.00000000E+00
  0.00000000E+00  0.00000000E+00  0.00000000E+00
  0.00000000E+00  0.00000000E+00  0.00000000E+00
  0.00000000E+00  0.00000000E+00  0.00000000E+00
  0.00000000E+00  0.00000000E+00  0.00000000E+00
  0.00000000E+00  0.00000000E+00  0.00000000E+00
  0.00000000E+00  0.00000000E+00  0.00000000E+00
  0.00000000E+00  0.00000000E+00  0.00000000E+00
  0.00000000E+00  0.00000000E+00  0.00000000E+00
  0.00000000E+00  0.00000000E+00  0.00000000E+00
  0.00000000E+00  0.00000000E+00  0.00000000E+00
  0.00000000E+00  0.00000000E+00  0.00000000E+00
  0.00000000E+00  0.00000000E+00  0.00000000E+00
  0.00000000E+00  0.00000000E+00  0.00000000E+00
  0.00000000E+00  0.00000000E+00  0.00000000E+00
  0.00000000E+00  0.00000000E+00  0.00000000E+00
  0.00000000E+00  0.00000000E+00  0.00000000E+00
  0.00000000E+00  0.00000000E+00  0.00000000E+00
  0.00000000E+00  0.00000000E+00  0.00000000E+00
  0.00000000E+00  0.00000000E+00  0.00000000E+00
  0.00000000E+00  0.00000000E+00  0.00000000E+00
  0.00000000E+00  0.00000000E+00  0.00000000E+00
  0.00000000E+00  0.00000000E+00  0.00000000E+00
  0.00000000E+00  0.00000000E+00  0.00000000E+00
  0.00000000E+00  0.00000000E+00  0.00000000E+00
  0.00000000E+00  0.00000000E+00  0.00000000E+00
  0.00000000E+00  0.00000000E+00  0.00000000E+00
  0.00000000E+00  0.00000000E+00  0.00000000E+00
  0.00000000E+00  0.00000000E+00  0.00000000E+00
  0.00000000E+00  0.00000000E+00  0.00000000E+00
  0.00000000E+00  0.00000000E+00  0.00000000E+00
  0.00000000E+00  0.00000000E+00  0.00000000E+00
  0.00000000E+00  0.00000000E+00  0.00000000E+00
  0.00000000E+00  0.00000000E+00  0.00000000E+00
  0.00000000E+00  0.00000000E+00  0.00000000E+00
  0.00000000E+00  0.00000000E+00  0.00000000E+00
  0.00000000E+00  0.00000000E+00  0.00000000E+00
  0.00000000E+00  0.00000000E+00  0.00000000E+00
  0.00000000E+00  0.00000000E+00  0.00000000E+00
  0.00000000E+00  0.00000000E+00  0.00000000E+00
  0.00000000E+00  0.00000000E+00  0.00000000E+00
  0.00000000E+00  0.00000000E+00  0.00000000E+00
  0.00000000E+00  0.00000000E+00  0.00000000E+00
  0.00000000E+00  0.00000000E+00  0.00000000E+00
  0.00000000E+00  0.00000000E+00  0.00000000E+00
  0.00000000E+00  0.00000000E+00  0.00000000E+00
  0.00000000E+00  0.00000000E+00  0.00000000E+00
  0.00000000E+00  0.00000000E+00  0.00000000E+00
  0.00000000E+00  0.00000000E+00  0.00000000E+00
  0.00000000E+00  0.00000000E+00  0.00000000E+00
  0.00000000E+00  0.00000000E+00  0.00000000E+00
  0.00000000E+00  0.00000000E+00  0.00000000E+00
  0.00000000E+00  0.00000000E+00  0.00000000E+00
  0.00000000E+00  0.00000000E+00  0.00000000E+00
  0.00000000E+00  0.00000000E+00  0.00000000E+00
  0.00000000E+00  0.00000000E+00  0.00000000E+00
  0.00000000E+00  0.00000000E+00  0.00000000E+00
  0.00000000E+00  0.00000000E+00  0.00000000E+00
  0.00000000E+00  0.00000000E+00  0.00000000E+00
  0.00000000E+00  0.00000000E+00  0.00000000E+00
  0.00000000E+00  0.00000000E+00  0.00000000E+00
  0.00000000E+00  0.00000000E+00  0.00000000E+00
  0.00000000E+00  0.00000000E+00  0.00000000E+00
  0.00000000E+00  0.00000000E+00  0.00000000E+00
  0.00000000E+00  0.00000000E+00  0.00000000E+00
  0.00000000E+00  0.00000000E+00  0.00000000E+00
  0.00000000E+00  0.00000000E+00  0.00000000E+00
  0.00000000E+00  0.00000000E+00  0.00000000E+00
  0.00000000E+00  0.00000000E+00  0.00000000E+00
  0.00000000E+00  0.00000000E+00  0.00000000E+00
  0.00000000E+00  0.00000000E+00  0.00000000E+00
  0.00000000E+00  0.00000000E+00  0.00000000E+00
  0.00000000E+00  0.00000000E+00  0.00000000E+00
  0.00000000E+00  0.00000000E+00  0.00000000E+00
  0.00000000E+00  0.00000000E+00  0.00000000E+00
  0.00000000E+00  0.00000000E+00  0.00000000E+00
  0.00000000E+00  0.00000000E+00  0.00000000E+00
  0.00000000E+00  0.00000000E+00  0.00000000E+00
  0.00000000E+00  0.00000000E+00  0.00000000E+00
  0.00000000E+00  0.00000000E+00  0.00000000E+00
  0.00000000E+00  0.00000000E+00  0.00000000E+00
  0.00000000E+00  0.00000000E+00  0.00000000E+00
  0.00000000E+00  0.00000000E+00  0.00000000E+00
  0.00000000E+00  0.00000000E+00  0.00000000E+00
  0.00000000E+00  0.00000000E+00  0.00000000E+00
  0.00000000E+00  0.00000000E+00  0.00000000E+00
  0.00000000E+00  0.00000000E+00  0.00000000E+00
  0.00000000E+00  0.00000000E+00  0.00000000E+00
  0.00000000E+00  0.00000000E+00  0.00000000E+00
  0.00000000E+00  0.00000000E+00  0.00000000E+00
  0.00000000E+00  0.00000000E+00  0.00000000E+00
  0.00000000E+00  0.00000000E+00  0.00000000E+00
  0.00000000E+00  0.00000000E+00  0.00000000E+00
  0.00000000E+00  0.00000000E+00  0.00000000E+00
  0.00000000E+00  0.00000000E+00  0.00000000E+00
