Ti64 O64 F128                           
   1.00000000000000     
    15.4062590522451703   -0.0021319236830318    0.0026921081088691
    -0.0021470983456408   15.4710265733705086    0.0046436298750409
     0.0026924820471737    0.0046217002113967   15.4018129759244005
   Ti   O    F 
    64    64   128
Direct
  0.9949542995327667  0.9953282565692778  0.9947248976583978
  0.0000294033515394  0.9914515921138672  0.4935265373922119
  0.0056309534816206  0.4948978712545751  0.9980399695368061
  0.9938298339081523  0.5022039501742662  0.5069501158911636
  0.4939946187142422  0.9945537211305755  0.9991827877900286
  0.5002597243049711  0.0084217312994695  0.5002901618761688
  0.5042256571629509  0.4955568270554241  0.9957464256433756
  0.4921876757102257  0.4994018463863795  0.4949259467210113
  0.0066297097706150  0.0025055985181922  0.2562518272452998
  0.0009759845540533  0.0077173445442586  0.7567557944957722
  0.9935470173893248  0.4938379347400043  0.2518991420033592
  0.9925754192730475  0.4987200286380397  0.7424672316639703
  0.5063656121523904  0.0080638791988688  0.2500986350202720
  0.4925221695266640  0.0053834887039257  0.7513392398549316
  0.4932095946499078  0.4974420133806973  0.2572770929302339
  0.5009925276021431  0.5049123848356799  0.7579117975972616
  0.9951995739185401  0.2571984430669365  0.0010627059581801
  0.9988565209422985  0.2478357830239430  0.4914969634690630
  0.9979715622612542  0.7581435365442625  0.0061609278515096
  0.9982727594581995  0.7566268596075155  0.5060537724430830
  0.4946115556055387  0.2581806211082368  0.0001038890809783
  0.5078550650125593  0.2454402127710670  0.5000257799545641
  0.5071281532455582  0.7570425799089695  0.9987960893873080
  0.5067855670529576  0.7529709564487925  0.5089089570813621
  0.9994593528955692  0.2582223370610391  0.2552605003683930
  0.0062684705136194  0.2420149791018070  0.7472062933801461
  0.0069183003203478  0.7486044290892790  0.2431973708261816
  0.9930030210722999  0.7510110087466366  0.7435407072707295
  0.5080513665251939  0.2422136540363645  0.2509072338245156
  0.5065437027473512  0.2427594485085939  0.7495298199511299
  0.5069594031727898  0.7516331215375019  0.2517445383882780
  0.5015077004248851  0.7423722468012293  0.7432395594359725
  0.2561463344972059  0.9987906833462874  0.0060013363335408
  0.2490523311380031  0.9936586032416509  0.5065280439905209
  0.2435274927260412  0.5077046989357139  0.9978209188022684
  0.2541672302359874  0.4940830661244924  0.5063289533018173
  0.7571534539287833  0.0003657488178674  0.9943940255873039
  0.7512872612533219  0.0066866706847400  0.4943331906847167
  0.7421830292720412  0.5005382869170949  0.0051595643079331
  0.7556954083781531  0.4978488396835001  0.5052179379108639
  0.2446956731130843  0.0020949848594016  0.2439028722770469
  0.2570869154320601  0.9978636638154940  0.7443121117410122
  0.2553722020591665  0.4922804292982883  0.2519493257251043
  0.2474862516111726  0.5065599356812758  0.7413234594978010
  0.7449045405350994  0.9996703671579450  0.2558824846729622
  0.7484051628855167  0.0064229938496814  0.7562740910831550
  0.7560145415727979  0.4995859422322912  0.2430593571140075
  0.7573155391833368  0.4982484544524193  0.7429857766441913
  0.2572222103231949  0.2511343175347140  0.0055680054624219
  0.2526999874681521  0.2568782984879252  0.5055073991755152
  0.2517553582194411  0.7424081301789678  0.9934465471174104
  0.2513038057343833  0.7555897791685640  0.4928411907323595
  0.7572465122590869  0.2501527329320434  0.0065082234159222
  0.7433501532438787  0.2423232670921583  0.4981568544520353
  0.7419798622942326  0.7499886034920443  0.9940993523965803
  0.7420264432729425  0.7519996685231323  0.4941151979307459
  0.2514041592482311  0.2576557654300989  0.2436500686792615
  0.2440708722712851  0.2514355776739136  0.7435907258991603
  0.2440399663956440  0.7482481501799807  0.2555941307017007
  0.2482758723954682  0.7417964431843926  0.7565936065100071
  0.7425795217309940  0.2506071648859295  0.2421144964546161
  0.7441355760255218  0.2418350249971905  0.7506070465893320
  0.7458966331568601  0.7504225310503017  0.2566275423788421
  0.7573196998852545  0.7513843960469584  0.7567545643786999
  0.0046832849998846  0.5010902219393444  0.6247157639942159
  0.9938650418844652  0.0054981187228204  0.3762207360489065
  0.9984665442735280  0.0023958075086347  0.8729332303992665
  0.5025103173608234  0.4969477349647854  0.3751545811532265
  0.4964165282116815  0.5000284619824715  0.8744309635907077
  0.9981614492266543  0.7468816536853828  0.1257879260618518
  0.0007295739211281  0.7466968276460662  0.6243036107026626
  0.5001783326192369  0.7563135724214881  0.6246630843888256
  0.9974415574542417  0.2463048954996230  0.3765475288380116
  0.2536704631340339  0.0034995146314532  0.1253951027875343
  0.2523822323897333  0.0035882356579058  0.6253107667379101
  0.2416771982978000  0.4967623295064415  0.6257412450359428
  0.7534380097115005  0.4951506553785004  0.1257235838099275
  0.7488636000065307  0.4965533941914893  0.6241761381857627
  0.7530178212985040  0.9970204263458716  0.3761125211727414
  0.7475103846035098  0.9967251455020916  0.8736795343121867
  0.2485444734770815  0.2490887267130822  0.1256666166682844
  0.2545362403353498  0.2488662176194308  0.6251226177363997
  0.7457509173680671  0.2545522322242578  0.1259931427214897
  0.2539090613273033  0.7473854553237056  0.3746268244318131
  0.2504785869097691  0.7532045283359688  0.8750886629985124
  0.7517655065697282  0.7543264210675219  0.3740827257715028
  0.7472623871422658  0.7544971393527912  0.8754045090647828
  0.1244168328362359  0.5014332250668229  0.9976230982708028
  0.6258257709218282  0.5052909010993616  0.0006756121268138
  0.1253341573159054  0.0010569003101616  0.2532962189017519
  0.6251194274253423  0.9984025967554653  0.2517634518248448
  0.6244053785516143  0.2519702998992643  0.4987092288268208
  0.6246896449090387  0.7447735620507904  0.0043585249834612
  0.6246976568583331  0.7567522598860845  0.4970418728664732
  0.1245257410278835  0.2500050210612667  0.7471498474050625
  0.1256014013629337  0.7529198003252413  0.2510277956542545
  0.6253479145145158  0.2481195022991224  0.2586173880531338
  0.6253492822571928  0.2509839320400767  0.7440402688077434
  0.6231471049722335  0.7549524666680292  0.2500032709212482
  0.3758455136135217  0.0018042129162791  0.9931432004556163
  0.3752799230347439  0.5013468170338278  0.5013810632401575
  0.8729588216667937  0.0038321838724648  0.0017183048450814
  0.8753421540550990  0.4984436200116454  0.4962109851373435
  0.3758369143828044  0.9961416921186816  0.7554219698813193
  0.3740679415744975  0.4981204635035569  0.2515828895249416
  0.8756624116583348  0.4997584909064141  0.2555962702962646
  0.8751669248801094  0.5055592172442568  0.7500652243460905
  0.3756342266202026  0.2466859647402949  0.0003798053794364
  0.8741660529522661  0.2463525485023928  0.0019880072967319
  0.8749516233551811  0.7467254989332096  0.7504411727213562
  0.5045468215028286  0.1228199913645992  0.4995376885760050
  0.9952319947284206  0.1258656918758576  0.7438456531535221
  0.4978832638051142  0.1248932752009643  0.2576821675151117
  0.5000323973497562  0.1237810092612175  0.7440168591200625
  0.5000808350112450  0.6257024028756032  0.7473116897367295
  0.9984232239418427  0.3748242526282918  0.0036540140872370
  0.9993745714481800  0.8749076909059945  0.0007729433850816
  0.0017779080132431  0.8746745008297027  0.4979514928391175
  0.5008831126237476  0.3741577582254175  0.0035012175256593
  0.5022095217290667  0.8755523689267333  0.0004422671752270
  0.0039383982962153  0.3738139269721453  0.2483854984154156
  0.2529481565361306  0.6251220277702674  0.0004361582091248
  0.7476857354301213  0.1250192375930650  0.5016017630243655
  0.2498936976673465  0.6247159132989366  0.7509514893670631
  0.7525459567792248  0.1246504065108748  0.7467538338247199
  0.2487311511683420  0.3730095033767676  0.4946198284138208
  0.2473905031223117  0.8757446280989851  0.5002654583054491
  0.2442908096499003  0.3745203068794970  0.2554112508155563
  0.0011233270791987  0.0015950934820632  0.1269002430947959
  0.0054252666882136  0.9976787839896755  0.6235970708420253
  0.9971801930578401  0.5071173129007761  0.1254085017605820
  0.4960245781015012  0.0026060935492771  0.1261927955074611
  0.4989509376202707  0.9914875102492967  0.6230652294287160
  0.4999803714026721  0.5045971373082416  0.1271805519171178
  0.5049921837690153  0.4978754119267791  0.6246207666902560
  0.0069805129016562  0.4970528807965709  0.3761455882987634
  0.9984117943235500  0.4982353661602114  0.8731484827705740
  0.5003727407265040  0.9940362676803191  0.3768779860432213
  0.5137965654973750  0.0037935448178067  0.8746493335174732
  0.0039270928445423  0.2458352709930556  0.1273203224216711
  0.9964676000202423  0.2577840855999887  0.6214250768922157
  0.5046994950732762  0.2434902182985555  0.1264766951100950
  0.4915668260479241  0.2522366578665318  0.6231377161697272
  0.4951006666361829  0.7493814249576480  0.1267372092969961
  0.9984392084843658  0.2499845985068381  0.8741803136076906
  0.9951104237163216  0.7493535182742000  0.3752573634305738
  0.0027555615139157  0.7501457960659990  0.8740745546236949
  0.4942978913910092  0.2578519421232071  0.3761071218494548
  0.5038035590008976  0.2475530584032783  0.8742615023489752
  0.4939072571124517  0.7511599025941498  0.3756019719890786
  0.4995901140860680  0.7501411156413160  0.8737048394677256
  0.2478611642614883  0.4957188954657624  0.1248820227408455
  0.7479049845249549  0.0056884934186440  0.1266830262525886
  0.7450428499774980  0.9978321496056105  0.6231260774390019
  0.2541046047608964  0.0005675461431372  0.3756502689202408
  0.2438793412642624  0.9945860096175403  0.8744752077865531
  0.2441706492929362  0.5102023928140849  0.3752673700753709
  0.2567482849436740  0.4962727962257744  0.8736709284374331
  0.7435390062190766  0.5032202858393776  0.3747626920543609
  0.7496948686606838  0.5028351638438239  0.8741655033136411
  0.2531052559928995  0.7533764045289079  0.1248664454885758
  0.2498553164116128  0.7503354967194775  0.6249972954751770
  0.7548336567763350  0.2580746932804611  0.6231672768813441
  0.7534524088606117  0.7463927461268427  0.1259341252201306
  0.7486893657420808  0.7470259857456486  0.6243318397801577
  0.2498506674501704  0.2439723843643797  0.3746131108929047
  0.2491680291295920  0.2517902242371000  0.8751516002239847
  0.7586946119510051  0.2471105612560283  0.3742852210328444
  0.7484956902918755  0.2479196556701700  0.8757562560426068
  0.1258830223842872  1.0000079520117391  0.0012116572850075
  0.1245883263950092  0.0098861011393910  0.4964954372933300
  0.1233332555972132  0.5023408930756896  0.4952859845430044
  0.6252254700680486  0.9997680491271472  0.0064101010400002
  0.6239996690288472  0.9899137193005463  0.5000140690324115
  0.6252994682336351  0.4976238619168887  0.5004303544723256
  0.1265960931564883  0.0013932275777410  0.7486884851227509
  0.1240392936941550  0.5051274724967477  0.2464742208630522
  0.1232879401860397  0.4952299539993786  0.7601319042907592
  0.6236590832481185  0.9964466652448938  0.7424903638660930
  0.6252801042165876  0.4978837575880407  0.2474722303426810
  0.6264587879642138  0.4951489248661453  0.7524897567902094
  0.1248980350911027  0.2512110842362685  0.9974138862805817
  0.1234639267009576  0.2426947744381332  0.5016194254342891
  0.1252086222927146  0.7479634652046566  0.0017304949657223
  0.1243003760220686  0.7452532005479440  0.4968730636754913
  0.6258819902247148  0.2503649770334686  0.9974094581403113
  0.1244386620881966  0.2396293237726516  0.2535882203798834
  0.1235856160595159  0.7521445627644956  0.7498129063677046
  0.6262887100208225  0.7526683439713383  0.7488523441374830
  0.3770339711128635  0.0012521997007614  0.4981817320569191
  0.3735055516913435  0.4977770139225199  0.0052693015682415
  0.8749762471529574  0.0013046074608342  0.5109907046936633
  0.8746762397996546  0.4996615167458621  0.9965438833237559
  0.3773019286475046  0.9977622851067089  0.2546416072642864
  0.3747181794692210  0.4966787480677269  0.7433102462579559
  0.8738759568155597  0.0008799827569726  0.2453591813287730
  0.8742015686789079  0.9923801022355259  0.7411705063782125
  0.3785861637134174  0.2468327861470595  0.4953997531464813
  0.3766723127335049  0.7540672029511315  0.0006675606530464
  0.3770154956358054  0.7486959514496672  0.5013513781060415
  0.8741944675068434  0.2532352073099955  0.5020900930913614
  0.8723847678756573  0.7515503799725386  0.9980334023863240
  0.8727779205903167  0.7473299460424035  0.5023499116034840
  0.3779334021893554  0.2546699849516678  0.2500207843803323
  0.3760827416764582  0.2503064571354719  0.7549035367579786
  0.3771634948021254  0.7475775244791355  0.2481813689269480
  0.3751132778653282  0.7562713888436533  0.7497211435178882
  0.8739695811118933  0.2518031517354777  0.2477714119708637
  0.8741374859184263  0.2547890310099325  0.7497924840088288
  0.8739202589595848  0.7460729841039244  0.2499068867366879
  0.0049889961122441  0.1267401465032258  0.0015009218560871
  0.9941794748741446  0.1255524904919851  0.5088179281580807
  0.9960817467346625  0.6251337446317968  0.9955311505981389
  0.9988361989173984  0.6261385273949643  0.4938540004449223
  0.5055398126217320  0.1244429851276129  0.0004395488279383
  0.4924818204113898  0.6275451010610125  0.0012208282958824
  0.5035247475845331  0.6268264226436002  0.5000856439440744
  0.9945938800903548  0.1272420100113768  0.2466766949052024
  0.0008564242411237  0.6233843999137043  0.2560513566687825
  0.0080451604830589  0.6245468951646882  0.7545533375673712
  0.5025722039981917  0.6263031549363847  0.2520250951517669
  0.0043625011592054  0.3733931013540101  0.4979096038754067
  0.4979099529307899  0.3722539458847869  0.5032605266025849
  0.4940562695800039  0.8781670708950852  0.4952694693622958
  0.9971307764446237  0.3742452705678417  0.7510909169455895
  0.9940955346838004  0.8757201919565922  0.2520203117415808
  0.0017270635896152  0.8756992938632867  0.7479703564803850
  0.5016090279572704  0.3719974817272255  0.2442784548278737
  0.4980268951817121  0.3732521182370288  0.7480304222899729
  0.4952290887282556  0.8759450127377769  0.2495055307601075
  0.5033783758185255  0.8756393903332568  0.7551249088953740
  0.2445906998784311  0.1247849335680739  0.9932678419859793
  0.2535801191669360  0.1242315961583285  0.4966894571293636
  0.2493619637031184  0.6265157841160406  0.5039531622359572
  0.7419252810475172  0.1258061082764409  0.9995631297455062
  0.7583348526307951  0.6255977267930718  0.0003702900438480
  0.7476297829464668  0.6255215509163495  0.4989898564148865
  0.2573038674848561  0.1262177827844320  0.2539740990690346
  0.2518965141300775  0.1244438460795181  0.7575470064093414
  0.2499690040524453  0.6238500348599432  0.2425067977607177
  0.7551538489309489  0.1256287949981826  0.2518384921165051
  0.7455989757821084  0.6253121430369503  0.2501212670830158
  0.7419615222601953  0.6251385265447524  0.7496371409195397
  0.2505210749875182  0.3759081986184034  0.9987903239835900
  0.2480446126101614  0.8740506040067085  0.0034395751842112
  0.7497196387402113  0.3747608200445768  0.9916847828420321
  0.7506738467943158  0.3723814918455681  0.4928239043328884
  0.7483610179016063  0.8749216220647461  0.0099072422744059
  0.7564946848682369  0.8763370334002776  0.5053538237011188
  0.2522192922578821  0.3758060954816982  0.7545679807053732
  0.2558279577522468  0.8755198404974019  0.2503971238174045
  0.2458292424362125  0.8736406185297020  0.7457776448522745
  0.7502816892674216  0.3741975397676656  0.2600726027079863
  0.7526774168454714  0.3737732880438426  0.7549973364049882
  0.7561490521008811  0.8751292757041070  0.2413515375901045
  0.7490930289828233  0.8753266569720993  0.7426225490637285
 
  0.00000000E+00  0.00000000E+00  0.00000000E+00
  0.00000000E+00  0.00000000E+00  0.00000000E+00
  0.00000000E+00  0.00000000E+00  0.00000000E+00
  0.00000000E+00  0.00000000E+00  0.00000000E+00
  0.00000000E+00  0.00000000E+00  0.00000000E+00
  0.00000000E+00  0.00000000E+00  0.00000000E+00
  0.00000000E+00  0.00000000E+00  0.00000000E+00
  0.00000000E+00  0.00000000E+00  0.00000000E+00
  0.00000000E+00  0.00000000E+00  0.00000000E+00
  0.00000000E+00  0.00000000E+00  0.00000000E+00
  0.00000000E+00  0.00000000E+00  0.00000000E+00
  0.00000000E+00  0.00000000E+00  0.00000000E+00
  0.00000000E+00  0.00000000E+00  0.00000000E+00
  0.00000000E+00  0.00000000E+00  0.00000000E+00
  0.00000000E+00  0.00000000E+00  0.00000000E+00
  0.00000000E+00  0.00000000E+00  0.00000000E+00
  0.00000000E+00  0.00000000E+00  0.00000000E+00
  0.00000000E+00  0.00000000E+00  0.00000000E+00
  0.00000000E+00  0.00000000E+00  0.00000000E+00
  0.00000000E+00  0.00000000E+00  0.00000000E+00
  0.00000000E+00  0.00000000E+00  0.00000000E+00
  0.00000000E+00  0.00000000E+00  0.00000000E+00
  0.00000000E+00  0.00000000E+00  0.00000000E+00
  0.00000000E+00  0.00000000E+00  0.00000000E+00
  0.00000000E+00  0.00000000E+00  0.00000000E+00
  0.00000000E+00  0.00000000E+00  0.00000000E+00
  0.00000000E+00  0.00000000E+00  0.00000000E+00
  0.00000000E+00  0.00000000E+00  0.00000000E+00
  0.00000000E+00  0.00000000E+00  0.00000000E+00
  0.00000000E+00  0.00000000E+00  0.00000000E+00
  0.00000000E+00  0.00000000E+00  0.00000000E+00
  0.00000000E+00  0.00000000E+00  0.00000000E+00
  0.00000000E+00  0.00000000E+00  0.00000000E+00
  0.00000000E+00  0.00000000E+00  0.00000000E+00
  0.00000000E+00  0.00000000E+00  0.00000000E+00
  0.00000000E+00  0.00000000E+00  0.00000000E+00
  0.00000000E+00  0.00000000E+00  0.00000000E+00
  0.00000000E+00  0.00000000E+00  0.00000000E+00
  0.00000000E+00  0.00000000E+00  0.00000000E+00
  0.00000000E+00  0.00000000E+00  0.00000000E+00
  0.00000000E+00  0.00000000E+00  0.00000000E+00
  0.00000000E+00  0.00000000E+00  0.00000000E+00
  0.00000000E+00  0.00000000E+00  0.00000000E+00
  0.00000000E+00  0.00000000E+00  0.00000000E+00
  0.00000000E+00  0.00000000E+00  0.00000000E+00
  0.00000000E+00  0.00000000E+00  0.00000000E+00
  0.00000000E+00  0.00000000E+00  0.00000000E+00
  0.00000000E+00  0.00000000E+00  0.00000000E+00
  0.00000000E+00  0.00000000E+00  0.00000000E+00
  0.00000000E+00  0.00000000E+00  0.00000000E+00
  0.00000000E+00  0.00000000E+00  0.00000000E+00
  0.00000000E+00  0.00000000E+00  0.00000000E+00
  0.00000000E+00  0.00000000E+00  0.00000000E+00
  0.00000000E+00  0.00000000E+00  0.00000000E+00
  0.00000000E+00  0.00000000E+00  0.00000000E+00
  0.00000000E+00  0.00000000E+00  0.00000000E+00
  0.00000000E+00  0.00000000E+00  0.00000000E+00
  0.00000000E+00  0.00000000E+00  0.00000000E+00
  0.00000000E+00  0.00000000E+00  0.00000000E+00
  0.00000000E+00  0.00000000E+00  0.00000000E+00
  0.00000000E+00  0.00000000E+00  0.00000000E+00
  0.00000000E+00  0.00000000E+00  0.00000000E+00
  0.00000000E+00  0.00000000E+00  0.00000000E+00
  0.00000000E+00  0.00000000E+00  0.00000000E+00
  0.00000000E+00  0.00000000E+00  0.00000000E+00
  0.00000000E+00  0.00000000E+00  0.00000000E+00
  0.00000000E+00  0.00000000E+00  0.00000000E+00
  0.00000000E+00  0.00000000E+00  0.00000000E+00
  0.00000000E+00  0.00000000E+00  0.00000000E+00
  0.00000000E+00  0.00000000E+00  0.00000000E+00
  0.00000000E+00  0.00000000E+00  0.00000000E+00
  0.00000000E+00  0.00000000E+00  0.00000000E+00
  0.00000000E+00  0.00000000E+00  0.00000000E+00
  0.00000000E+00  0.00000000E+00  0.00000000E+00
  0.00000000E+00  0.00000000E+00  0.00000000E+00
  0.00000000E+00  0.00000000E+00  0.00000000E+00
  0.00000000E+00  0.00000000E+00  0.00000000E+00
  0.00000000E+00  0.00000000E+00  0.00000000E+00
  0.00000000E+00  0.00000000E+00  0.00000000E+00
  0.00000000E+00  0.00000000E+00  0.00000000E+00
  0.00000000E+00  0.00000000E+00  0.00000000E+00
  0.00000000E+00  0.00000000E+00  0.00000000E+00
  0.00000000E+00  0.00000000E+00  0.00000000E+00
  0.00000000E+00  0.00000000E+00  0.00000000E+00
  0.00000000E+00  0.00000000E+00  0.00000000E+00
  0.00000000E+00  0.00000000E+00  0.00000000E+00
  0.00000000E+00  0.00000000E+00  0.00000000E+00
  0.00000000E+00  0.00000000E+00  0.00000000E+00
  0.00000000E+00  0.00000000E+00  0.00000000E+00
  0.00000000E+00  0.00000000E+00  0.00000000E+00
  0.00000000E+00  0.00000000E+00  0.00000000E+00
  0.00000000E+00  0.00000000E+00  0.00000000E+00
  0.00000000E+00  0.00000000E+00  0.00000000E+00
  0.00000000E+00  0.00000000E+00  0.00000000E+00
  0.00000000E+00  0.00000000E+00  0.00000000E+00
  0.00000000E+00  0.00000000E+00  0.00000000E+00
  0.00000000E+00  0.00000000E+00  0.00000000E+00
  0.00000000E+00  0.00000000E+00  0.00000000E+00
  0.00000000E+00  0.00000000E+00  0.00000000E+00
  0.00000000E+00  0.00000000E+00  0.00000000E+00
  0.00000000E+00  0.00000000E+00  0.00000000E+00
  0.00000000E+00  0.00000000E+00  0.00000000E+00
  0.00000000E+00  0.00000000E+00  0.00000000E+00
  0.00000000E+00  0.00000000E+00  0.00000000E+00
  0.00000000E+00  0.00000000E+00  0.00000000E+00
  0.00000000E+00  0.00000000E+00  0.00000000E+00
  0.00000000E+00  0.00000000E+00  0.00000000E+00
  0.00000000E+00  0.00000000E+00  0.00000000E+00
  0.00000000E+00  0.00000000E+00  0.00000000E+00
  0.00000000E+00  0.00000000E+00  0.00000000E+00
  0.00000000E+00  0.00000000E+00  0.00000000E+00
  0.00000000E+00  0.00000000E+00  0.00000000E+00
  0.00000000E+00  0.00000000E+00  0.00000000E+00
  0.00000000E+00  0.00000000E+00  0.00000000E+00
  0.00000000E+00  0.00000000E+00  0.00000000E+00
  0.00000000E+00  0.00000000E+00  0.00000000E+00
  0.00000000E+00  0.00000000E+00  0.00000000E+00
  0.00000000E+00  0.00000000E+00  0.00000000E+00
  0.00000000E+00  0.00000000E+00  0.00000000E+00
  0.00000000E+00  0.00000000E+00  0.00000000E+00
  0.00000000E+00  0.00000000E+00  0.00000000E+00
  0.00000000E+00  0.00000000E+00  0.00000000E+00
  0.00000000E+00  0.00000000E+00  0.00000000E+00
  0.00000000E+00  0.00000000E+00  0.00000000E+00
  0.00000000E+00  0.00000000E+00  0.00000000E+00
  0.00000000E+00  0.00000000E+00  0.00000000E+00
  0.00000000E+00  0.00000000E+00  0.00000000E+00
  0.00000000E+00  0.00000000E+00  0.00000000E+00
  0.00000000E+00  0.00000000E+00  0.00000000E+00
  0.00000000E+00  0.00000000E+00  0.00000000E+00
  0.00000000E+00  0.00000000E+00  0.00000000E+00
  0.00000000E+00  0.00000000E+00  0.00000000E+00
  0.00000000E+00  0.00000000E+00  0.00000000E+00
  0.00000000E+00  0.00000000E+00  0.00000000E+00
  0.00000000E+00  0.00000000E+00  0.00000000E+00
  0.00000000E+00  0.00000000E+00  0.00000000E+00
  0.00000000E+00  0.00000000E+00  0.00000000E+00
  0.00000000E+00  0.00000000E+00  0.00000000E+00
  0.00000000E+00  0.00000000E+00  0.00000000E+00
  0.00000000E+00  0.00000000E+00  0.00000000E+00
  0.00000000E+00  0.00000000E+00  0.00000000E+00
  0.00000000E+00  0.00000000E+00  0.00000000E+00
  0.00000000E+00  0.00000000E+00  0.00000000E+00
  0.00000000E+00  0.00000000E+00  0.00000000E+00
  0.00000000E+00  0.00000000E+00  0.00000000E+00
  0.00000000E+00  0.00000000E+00  0.00000000E+00
  0.00000000E+00  0.00000000E+00  0.00000000E+00
  0.00000000E+00  0.00000000E+00  0.00000000E+00
  0.00000000E+00  0.00000000E+00  0.00000000E+00
  0.00000000E+00  0.00000000E+00  0.00000000E+00
  0.00000000E+00  0.00000000E+00  0.00000000E+00
  0.00000000E+00  0.00000000E+00  0.00000000E+00
  0.00000000E+00  0.00000000E+00  0.00000000E+00
  0.00000000E+00  0.00000000E+00  0.00000000E+00
  0.00000000E+00  0.00000000E+00  0.00000000E+00
  0.00000000E+00  0.00000000E+00  0.00000000E+00
  0.00000000E+00  0.00000000E+00  0.00000000E+00
  0.00000000E+00  0.00000000E+00  0.00000000E+00
  0.00000000E+00  0.00000000E+00  0.00000000E+00
  0.00000000E+00  0.00000000E+00  0.00000000E+00
  0.00000000E+00  0.00000000E+00  0.00000000E+00
  0.00000000E+00  0.00000000E+00  0.00000000E+00
  0.00000000E+00  0.00000000E+00  0.00000000E+00
  0.00000000E+00  0.00000000E+00  0.00000000E+00
  0.00000000E+00  0.00000000E+00  0.00000000E+00
  0.00000000E+00  0.00000000E+00  0.00000000E+00
  0.00000000E+00  0.00000000E+00  0.00000000E+00
  0.00000000E+00  0.00000000E+00  0.00000000E+00
  0.00000000E+00  0.00000000E+00  0.00000000E+00
  0.00000000E+00  0.00000000E+00  0.00000000E+00
  0.00000000E+00  0.00000000E+00  0.00000000E+00
  0.00000000E+00  0.00000000E+00  0.00000000E+00
  0.00000000E+00  0.00000000E+00  0.00000000E+00
  0.00000000E+00  0.00000000E+00  0.00000000E+00
  0.00000000E+00  0.00000000E+00  0.00000000E+00
  0.00000000E+00  0.00000000E+00  0.00000000E+00
  0.00000000E+00  0.00000000E+00  0.00000000E+00
  0.00000000E+00  0.00000000E+00  0.00000000E+00
  0.00000000E+00  0.00000000E+00  0.00000000E+00
  0.00000000E+00  0.00000000E+00  0.00000000E+00
  0.00000000E+00  0.00000000E+00  0.00000000E+00
  0.00000000E+00  0.00000000E+00  0.00000000E+00
  0.00000000E+00  0.00000000E+00  0.00000000E+00
  0.00000000E+00  0.00000000E+00  0.00000000E+00
  0.00000000E+00  0.00000000E+00  0.00000000E+00
  0.00000000E+00  0.00000000E+00  0.00000000E+00
  0.00000000E+00  0.00000000E+00  0.00000000E+00
  0.00000000E+00  0.00000000E+00  0.00000000E+00
  0.00000000E+00  0.00000000E+00  0.00000000E+00
  0.00000000E+00  0.00000000E+00  0.00000000E+00
  0.00000000E+00  0.00000000E+00  0.00000000E+00
  0.00000000E+00  0.00000000E+00  0.00000000E+00
  0.00000000E+00  0.00000000E+00  0.00000000E+00
  0.00000000E+00  0.00000000E+00  0.00000000E+00
  0.00000000E+00  0.00000000E+00  0.00000000E+00
  0.00000000E+00  0.00000000E+00  0.00000000E+00
  0.00000000E+00  0.00000000E+00  0.00000000E+00
  0.00000000E+00  0.00000000E+00  0.00000000E+00
  0.00000000E+00  0.00000000E+00  0.00000000E+00
  0.00000000E+00  0.00000000E+00  0.00000000E+00
  0.00000000E+00  0.00000000E+00  0.00000000E+00
  0.00000000E+00  0.00000000E+00  0.00000000E+00
  0.00000000E+00  0.00000000E+00  0.00000000E+00
  0.00000000E+00  0.00000000E+00  0.00000000E+00
  0.00000000E+00  0.00000000E+00  0.00000000E+00
  0.00000000E+00  0.00000000E+00  0.00000000E+00
  0.00000000E+00  0.00000000E+00  0.00000000E+00
  0.00000000E+00  0.00000000E+00  0.00000000E+00
  0.00000000E+00  0.00000000E+00  0.00000000E+00
  0.00000000E+00  0.00000000E+00  0.00000000E+00
  0.00000000E+00  0.00000000E+00  0.00000000E+00
  0.00000000E+00  0.00000000E+00  0.00000000E+00
  0.00000000E+00  0.00000000E+00  0.00000000E+00
  0.00000000E+00  0.00000000E+00  0.00000000E+00
  0.00000000E+00  0.00000000E+00  0.00000000E+00
  0.00000000E+00  0.00000000E+00  0.00000000E+00
  0.00000000E+00  0.00000000E+00  0.00000000E+00
  0.00000000E+00  0.00000000E+00  0.00000000E+00
  0.00000000E+00  0.00000000E+00  0.00000000E+00
  0.00000000E+00  0.00000000E+00  0.00000000E+00
  0.00000000E+00  0.00000000E+00  0.00000000E+00
  0.00000000E+00  0.00000000E+00  0.00000000E+00
  0.00000000E+00  0.00000000E+00  0.00000000E+00
  0.00000000E+00  0.00000000E+00  0.00000000E+00
  0.00000000E+00  0.00000000E+00  0.00000000E+00
  0.00000000E+00  0.00000000E+00  0.00000000E+00
  0.00000000E+00  0.00000000E+00  0.00000000E+00
  0.00000000E+00  0.00000000E+00  0.00000000E+00
  0.00000000E+00  0.00000000E+00  0.00000000E+00
  0.00000000E+00  0.00000000E+00  0.00000000E+00
  0.00000000E+00  0.00000000E+00  0.00000000E+00
  0.00000000E+00  0.00000000E+00  0.00000000E+00
  0.00000000E+00  0.00000000E+00  0.00000000E+00
  0.00000000E+00  0.00000000E+00  0.00000000E+00
  0.00000000E+00  0.00000000E+00  0.00000000E+00
  0.00000000E+00  0.00000000E+00  0.00000000E+00
  0.00000000E+00  0.00000000E+00  0.00000000E+00
  0.00000000E+00  0.00000000E+00  0.00000000E+00
  0.00000000E+00  0.00000000E+00  0.00000000E+00
  0.00000000E+00  0.00000000E+00  0.00000000E+00
  0.00000000E+00  0.00000000E+00  0.00000000E+00
  0.00000000E+00  0.00000000E+00  0.00000000E+00
  0.00000000E+00  0.00000000E+00  0.00000000E+00
  0.00000000E+00  0.00000000E+00  0.00000000E+00
  0.00000000E+00  0.00000000E+00  0.00000000E+00
  0.00000000E+00  0.00000000E+00  0.00000000E+00
  0.00000000E+00  0.00000000E+00  0.00000000E+00
  0.00000000E+00  0.00000000E+00  0.00000000E+00
  0.00000000E+00  0.00000000E+00  0.00000000E+00
  0.00000000E+00  0.00000000E+00  0.00000000E+00
  0.00000000E+00  0.00000000E+00  0.00000000E+00
  0.00000000E+00  0.00000000E+00  0.00000000E+00
  0.00000000E+00  0.00000000E+00  0.00000000E+00
  0.00000000E+00  0.00000000E+00  0.00000000E+00
  0.00000000E+00  0.00000000E+00  0.00000000E+00
  0.00000000E+00  0.00000000E+00  0.00000000E+00
