TiOF2 2x2x2 config 1011                 
   1.00000000000000     
     7.8213002882250260   -0.0009100869264773   -0.0009596266056962
    -0.0009023093437449    7.7036211326092348    0.0016015093307276
    -0.0010050727379787    0.0015976905235180    7.6610451382830780
   Ti   O    F 
     8     8    16
Direct
  0.0000519154495156 -0.0167348390474667 -0.0044974528585145
  0.0008648612885225  0.0013779099575039  0.5182197802461476
  0.0009170572872782  0.5083315353921818 -0.0153348428333439
 -0.0191445396579991  0.5000944008389770  0.5082639475619438
  0.5001519009842507  0.0153013482938583  0.0121211145766849
  0.5001136688652486 -0.0159330550763972  0.4883011371394643
  0.5001029150390481  0.4889034685500023  0.0147189666680024
  0.5070058592183048  0.5092401715569311  0.4913494611501824
  0.7525093066655558  0.4993301160196070  0.5002124617085899
  0.0000034449360035  0.7512290308456596  0.0037436805795546
  0.5005314632428656  0.2499080940579542 -0.0046946635404736
  0.4990971162823906  0.7519586010371211  0.5050748719778337
 -0.0002511360345892  0.0021553266809084  0.7480201311974408
  0.0014054280524415  0.4978016039459029  0.7499851792529921
  0.5004476648963802 -0.0003035393042279  0.2495535985623714
  0.4986959556337663  0.5002528939379114  0.2491356187196846
  0.2480774408305777  0.0007822680285848 -0.0002722516664638
  0.2465619783022470  0.0032717743888893  0.4992519379150590
  0.2490122471916081  0.5003557332501197  0.0007761623926009
  0.2465934232071351  0.4981471732168043  0.4997692509045809
  0.7521619394169877  0.0007304370247261 -0.0002374110468873
  0.7546773786685015  0.0037258640376522  0.4988998349636276
  0.7518710666558217  0.5002593571107075  0.0008956739608062
 -0.0000363201822525  0.2481246798129129  0.0065878264695894
  0.0046946168171311  0.2474791787589324  0.4886252270646936
  0.0046847477619387  0.7541133132513533  0.4871722352744602
  0.4978140168269912  0.2469393009136518  0.5096419551190413
  0.5005522481082929  0.7514264076015363 -0.0092652224090310
 -0.0002620171194389  0.0042019858781687  0.2530847891830580
  0.0040298494786538  0.4965532050253216  0.2482047598142121
  0.5005921061095863  0.0000187511523275  0.7500459846491774
  0.4964723957772345  0.5009575028618839  0.7526462573029143
 
  0.00000000E+00  0.00000000E+00  0.00000000E+00
  0.00000000E+00  0.00000000E+00  0.00000000E+00
  0.00000000E+00  0.00000000E+00  0.00000000E+00
  0.00000000E+00  0.00000000E+00  0.00000000E+00
  0.00000000E+00  0.00000000E+00  0.00000000E+00
  0.00000000E+00  0.00000000E+00  0.00000000E+00
  0.00000000E+00  0.00000000E+00  0.00000000E+00
  0.00000000E+00  0.00000000E+00  0.00000000E+00
  0.00000000E+00  0.00000000E+00  0.00000000E+00
  0.00000000E+00  0.00000000E+00  0.00000000E+00
  0.00000000E+00  0.00000000E+00  0.00000000E+00
  0.00000000E+00  0.00000000E+00  0.00000000E+00
  0.00000000E+00  0.00000000E+00  0.00000000E+00
  0.00000000E+00  0.00000000E+00  0.00000000E+00
  0.00000000E+00  0.00000000E+00  0.00000000E+00
  0.00000000E+00  0.00000000E+00  0.00000000E+00
  0.00000000E+00  0.00000000E+00  0.00000000E+00
  0.00000000E+00  0.00000000E+00  0.00000000E+00
  0.00000000E+00  0.00000000E+00  0.00000000E+00
  0.00000000E+00  0.00000000E+00  0.00000000E+00
  0.00000000E+00  0.00000000E+00  0.00000000E+00
  0.00000000E+00  0.00000000E+00  0.00000000E+00
  0.00000000E+00  0.00000000E+00  0.00000000E+00
  0.00000000E+00  0.00000000E+00  0.00000000E+00
  0.00000000E+00  0.00000000E+00  0.00000000E+00
  0.00000000E+00  0.00000000E+00  0.00000000E+00
  0.00000000E+00  0.00000000E+00  0.00000000E+00
  0.00000000E+00  0.00000000E+00  0.00000000E+00
  0.00000000E+00  0.00000000E+00  0.00000000E+00
  0.00000000E+00  0.00000000E+00  0.00000000E+00
  0.00000000E+00  0.00000000E+00  0.00000000E+00
  0.00000000E+00  0.00000000E+00  0.00000000E+00
