TiOF2 2x2x2 config 0000                 
   1.00000000000000     
     7.9063236192862805   -0.0000000054105924   -0.0000000039951703
    -0.0000000070873138    7.9063262473530589   -0.0000000027076797
    -0.0000000030446366   -0.0000000030737845    7.4050284032680080
   Ti   O    F 
     8     8    16
Direct
  0.0000000002967866  0.9999999863587945  0.0000000003036575
  0.0000000002956000  0.9999999879520587  0.5000000002983498
  0.9999999985392378  0.5000000500109039  0.0000000016329693
  0.0000000010701129  0.5000000491704100  0.4999999990434958
  0.5000000000803837  0.9999998899231457  0.0000000004106369
  0.5000000001296314  0.9999998864157291  0.4999999995138893
  0.4999999985165644  0.5000000288836759  0.0000000001609664
  0.5000000008670256  0.5000000228626291  0.4999999991769641
  0.0000000001657767  0.9999999810314009  0.2499999365529959
  0.0000000001155342  0.9999999800597692  0.7500000635737507
  0.0000000004601546  0.4999999975401224  0.2500000107305951
  0.0000000004122001  0.4999999970239557  0.7499999893956186
  0.4999999990537702  0.9999997330741408  0.2500000249191530
  0.4999999997129763  0.9999997324782441  0.7499999749254869
  0.4999999992531983  0.5000001240491017  0.2500000566113982
  0.4999999999166675  0.5000001236881957  0.7499999432546929
  0.2499997379779941  0.9999999242966524  0.9999999999731344
  0.2499997751844063  0.9999999298534021  0.5000000002378258
  0.2499998279428723  0.5000002061759687  0.0000000132922224
  0.2499998573316446  0.5000001933283897  0.4999999865171603
  0.7500002620205990  0.9999999254915224  0.0000000002401421
  0.7500002252599600  0.9999999273558160  0.4999999997937081
  0.7500001699491321  0.5000002028050332  0.0000000136073339
  0.7500001441808948  0.5000001959428459  0.4999999865214235
  0.0000000021988953  0.2499999841546554  0.0000000005400480
  0.0000000010284751  0.2500000153139084  0.4999999992729585
  0.9999999961512245  0.7500000532877991  0.0000000012036097
  0.0000000017169768  0.7500000222542837  0.4999999987002397
  0.4999999967762321  0.2500000144383634  0.0000000094708028
  0.5000000025809115  0.2500000337315242  0.4999999902773666
  0.5000000008283720  0.7499999133841584  0.0000000080015212
  0.4999999999858034  0.7499998876634137  0.4999999918458968
 
  0.00000000E+00  0.00000000E+00  0.00000000E+00
  0.00000000E+00  0.00000000E+00  0.00000000E+00
  0.00000000E+00  0.00000000E+00  0.00000000E+00
  0.00000000E+00  0.00000000E+00  0.00000000E+00
  0.00000000E+00  0.00000000E+00  0.00000000E+00
  0.00000000E+00  0.00000000E+00  0.00000000E+00
  0.00000000E+00  0.00000000E+00  0.00000000E+00
  0.00000000E+00  0.00000000E+00  0.00000000E+00
  0.00000000E+00  0.00000000E+00  0.00000000E+00
  0.00000000E+00  0.00000000E+00  0.00000000E+00
  0.00000000E+00  0.00000000E+00  0.00000000E+00
  0.00000000E+00  0.00000000E+00  0.00000000E+00
  0.00000000E+00  0.00000000E+00  0.00000000E+00
  0.00000000E+00  0.00000000E+00  0.00000000E+00
  0.00000000E+00  0.00000000E+00  0.00000000E+00
  0.00000000E+00  0.00000000E+00  0.00000000E+00
  0.00000000E+00  0.00000000E+00  0.00000000E+00
  0.00000000E+00  0.00000000E+00  0.00000000E+00
  0.00000000E+00  0.00000000E+00  0.00000000E+00
  0.00000000E+00  0.00000000E+00  0.00000000E+00
  0.00000000E+00  0.00000000E+00  0.00000000E+00
  0.00000000E+00  0.00000000E+00  0.00000000E+00
  0.00000000E+00  0.00000000E+00  0.00000000E+00
  0.00000000E+00  0.00000000E+00  0.00000000E+00
  0.00000000E+00  0.00000000E+00  0.00000000E+00
  0.00000000E+00  0.00000000E+00  0.00000000E+00
  0.00000000E+00  0.00000000E+00  0.00000000E+00
  0.00000000E+00  0.00000000E+00  0.00000000E+00
  0.00000000E+00  0.00000000E+00  0.00000000E+00
  0.00000000E+00  0.00000000E+00  0.00000000E+00
  0.00000000E+00  0.00000000E+00  0.00000000E+00
  0.00000000E+00  0.00000000E+00  0.00000000E+00
