config 47                               
   1.00000000000000     
    15.4263309999999993    0.0000000000000000    0.0000000000000000
     0.0000000000000000   15.4263309999999993    0.0000000000000000
     0.0000000000000000    0.0000000000000000   15.4263309999999993
   Li   Ti   O    F 
     1    64    64   128
Direct
  0.6300074088272636  0.8228084221812334  0.6284513199231120
  0.9956304269523782  0.9952688943851378  0.9944028347583221
  0.9983168527592885  0.9922088695701636  0.4935734285130243
  0.0060530102192903  0.4957944255293441  0.9974102842670272
  0.9941325655542295  0.5042497501166507  0.5072355875937461
  0.4944218285508947  0.9942708542899359  0.9989235951537556
  0.5018386141976525  0.0059770006188264  0.5002038090797376
  0.5043116433173070  0.4959878208537511  0.9960878843045238
  0.4916504129263800  0.4983080480941576  0.4958910085508387
  0.0067734166729038  0.0032260518101780  0.2557666494040777
  0.0016748305735844  0.0079060895843116  0.7568808946822303
  0.9937600969410120  0.4933090588987787  0.2512131595023257
  0.9926160582600425  0.4997139698846855  0.7416109240555329
  0.5060514533353691  0.0085452109496644  0.2503328520488946
  0.4919402929151237  0.0047215995044631  0.7516414745778776
  0.4926885434754988  0.4964147912219166  0.2574993630750129
  0.5008579528351988  0.5031399746091205  0.7581671307254825
  0.9954707171958603  0.2578772011878109  0.0018269446650921
  0.9977562179169041  0.2485534451676512  0.4914588260016597
  0.9983759210653410  0.7581422305245361  0.0062058462860405
  0.9972470087100926  0.7578854419987486  0.5057347813209735
  0.4950482238384086  0.2582746243531573  0.0006360016407983
  0.5089600351396206  0.2428728983221536  0.4983130173706067
  0.5075706587020568  0.7562106573117281  0.9992817555859581
  0.5070075821546313  0.7534380107909502  0.5081612344845473
  0.9995698581526198  0.2584573645832074  0.2553643890839579
  0.0064148662979347  0.2429855865963469  0.7476920103417269
  0.0066914738923494  0.7481791382359037  0.2432979493362877
  0.9939223778950290  0.7505591954286360  0.7428208762717472
  0.5078133302636567  0.2416788509503720  0.2516377394891675
  0.5067314720018505  0.2420183365662709  0.7491574020602826
  0.5065455800165121  0.7509368397544047  0.2511961447793352
  0.4995461900171206  0.7414259940002103  0.7447272249489492
  0.2566241709982139  0.9980761535118545  0.0056814636206350
  0.2519610025557867  0.9949522343822159  0.5064382346328659
  0.2439188028747791  0.5080663040140613  0.9974938683393696
  0.2550978330856481  0.4953681996938975  0.5066345857934260
  0.7569425359458264  0.0002817797220719  0.9943608020549431
  0.7482456165705981  0.0086009959190728  0.4944750517312412
  0.7418112613275818  0.5005696176556439  0.0046285246520779
  0.7558827273797872  0.4984367615442816  0.5052153200943826
  0.2450565970497020  0.0026186445091339  0.2434910432779369
  0.2576114060876228  0.9982831252026445  0.7444925510579373
  0.2549537732119133  0.4918285695790426  0.2517244545821291
  0.2464289004481711  0.5060420775467886  0.7409498442835328
  0.7440387281161722  0.0015726029119508  0.2555097119228389
  0.7478563946433244  0.0072210382029167  0.7564691644083574
  0.7555285219610075  0.4980328488592525  0.2422652643173260
  0.7572854103148364  0.4981758401910139  0.7420709169242748
  0.2570021693134211  0.2517403652331630  0.0060121535507068
  0.2535225236796416  0.2575054193250926  0.5053135066647791
  0.2524553412248668  0.7423779869621867  0.9943295287293886
  0.2527993950139210  0.7567177310057833  0.4938618382073584
  0.7569115379941942  0.2517282060009264  0.0078041509531541
  0.7401705886116539  0.2438708247425516  0.4974250893525798
  0.7416491842558373  0.7486851586627807  0.9951566859826583
  0.7441100021142802  0.7529418856678276  0.4901438917256760
  0.2507839565596546  0.2577929881922433  0.2434900548111032
  0.2437506249284635  0.2518754943847000  0.7436796025670274
  0.2437476018534440  0.7477117851416728  0.2568996261285898
  0.2469218105674596  0.7417811822456617  0.7572344510676600
  0.7416597572244972  0.2509127722733265  0.2427781490376081
  0.7437311176238328  0.2425538843241107  0.7507034211867786
  0.7450177918049294  0.7497888282561679  0.2540737312634994
  0.7596857442955500  0.7488267888063723  0.7592875030771860
  0.0096792848871665  0.5030619742949103  0.6246745578091603
  0.9984325080202876  0.0047967292343477  0.3762349620876287
  0.0027434215963673  0.0015748150273323  0.8730222690116379
  0.4979998256734859  0.4972488190192771  0.3754662136141093
  0.4926991597264551  0.5016780558974352  0.8739475401942812
  0.9989631047218144  0.7453447897048797  0.1259678431002935
  0.0030821327960504  0.7459050055023301  0.6243737392959634
  0.5095550381088363  0.7651272660458397  0.6254622569030210
  0.9919954840344090  0.2482023557116382  0.3763621860843026
  0.2572472767221607  0.0025689549733854  0.1249914390484158
  0.2563141999785613  0.0037300980732904  0.6258959975921166
  0.2377674821356339  0.4955872126180703  0.6258316417485272
  0.7483754623234555  0.4895927536759421  0.1251917529278432
  0.7446605636111849  0.4921400227996389  0.6240668615714714
  0.7464452576384318  1.0016520156284274  0.3754966155416886
  0.7428509499646050  1.0006782792744178  0.8738698945910239
  0.2431814166938242  0.2502911018860179  0.1255021210880789
  0.2500737488729433  0.2504578754024558  0.6251843393343712
  0.7398500319670547  0.2610876290865207  0.1262987803759263
  0.2562971208657606  0.7462283687774931  0.3754521323920959
  0.2531614946536980  0.7518333599585940  0.8754758199225536
  0.7498811693361124  0.7484066483963436  0.3731670981655170
  0.7476907543013050  0.7483354572805889  0.8761080148515417
  0.1246136125305926  0.5073213647921568  0.9926965602058366
  0.6257579852403611  0.5104331851253860  0.9965419876128954
  0.1251397842484814  0.0058293655965165  0.2484931307858576
  0.6254764354127056  0.0052724652808869  0.2432564407070837
  0.6260315309301702  0.2684024178504394  0.4914591358662567
  0.6250320374562340  0.7379608150948967  0.0047059672255713
  0.6257645301353355  0.7742824606094604  0.5018708021748159
  0.1243449653728979  0.2536135790920152  0.7517404395155366
  0.1252044172721358  0.7481514013066072  0.2536177341286823
  0.6256522645448028  0.2412519901479424  0.2633798416654205
  0.6255211925080637  0.2547916068740064  0.7502906167868418
  0.6233363929071815  0.7505022906326680  0.2483700539978192
  0.3762739469379007  0.9958317671207260  0.9893958245691575
  0.3756469793282601  0.5131245987426117  0.5063164655463509
  0.8730273219659630  0.9978336424639849  0.9969871760394011
  0.8751508878564377  0.5125916601751210  0.5017830233609594
  0.3754793303867041  0.9993712751255345  0.7619024637520847
  0.3738490311870724  0.4929051505122045  0.2471469321312454
  0.8753472416795559  0.4942292375055540  0.2501086503064271
  0.8749587135700959  0.5112716856154355  0.7442546149596616
  0.3758474970019912  0.2517861955622455  0.0060869077472962
  0.8742166833828533  0.2523111981768508  0.0079468283279887
  0.8752555643285208  0.7402707139594829  0.7477411826816188
  0.5196754003251915  0.1275267138178902  0.4972093028143236
  0.9979450529435109  0.1262743293053870  0.7448522985230577
  0.4912598756810336  0.1253995353991891  0.2592658232582861
  0.5042307637582438  0.1231886490351743  0.7434337770882593
  0.5041701038241907  0.6262179722635619  0.7441766403556724
  0.0036083839841077  0.3756610017369304  0.0047938246270427
  0.0054668430990989  0.8747176970392415  0.0019973871009392
  0.9836175009807950  0.8749485144124048  0.4996395784085206
  0.5057228289662111  0.3747634638490475  0.0035528261612741
  0.5083516732248359  0.8744452305747311 -0.0000000234314660
  0.0100507616758739  0.3741684434191851  0.2469512789239897
  0.2593288019477598  0.6252819007718249  0.0031218595481734
  0.7315561058051778  0.1251533469597509  0.5057246145781924
  0.2450191399546892  0.6248125750835640  0.7499207737600820
  0.7479581020477084  0.1246448031235545  0.7422846014681489
  0.2599310550126750  0.3742434758477630  0.4941829121549895
  0.2624955453230847  0.8757593421669965  0.5002057234032419
  0.2388911755898757  0.3745637675443190  0.2568687583640403
  0.9968964335450479  0.0027262462117447  0.1266366193335513
 -0.0000102241275910  0.9983055266525412  0.6237985481819835
  0.0021580727759153  0.5096411808574179  0.1251061941107379
  0.4897945279279459  0.0034403185290753  0.1255211701547090
  0.4928967436976194  0.9835817108484661  0.6282332431137361
  0.5035849505245912  0.5064394344802196  0.1269740247246292
  0.5100052133510866  0.4978096152995366  0.6248709493062899
  0.0006762551041946  0.4956441329730971  0.3762537185931099
  0.9929823927615328  0.4971215175927098  0.8727392999113605
  0.5102736868708032  0.9886597862104199  0.3720413563947630
  0.5188491706163951  0.0042472965875089  0.8750512759794439
  0.0101331781074679  0.2450060795567264  0.1274067992763535
  0.0015740900904215  0.2578477902653855  0.6215227785149199
  0.5115770843648733  0.2418444900194026  0.1262680271910277
  0.4990511340968966  0.2538227844973162  0.6232917308073548
  0.4951569622765948  0.7466385357142687  0.1264859087909258
  0.9928779833729948  0.2516959630562606  0.8744729835665910
  0.9922278115707726  0.7509103951259001  0.3757405542153535
  0.9998448368917576  0.7514648723548353  0.8738325019557451
  0.4884970693210900  0.2624082566823256  0.3747145755994453
  0.4973919749776460  0.2479550295734658  0.8742288305658064
  0.4969856684531601  0.7499565940697894  0.3760350725781674
  0.5003866113141107  0.7459407054545873  0.8736812693647747
  0.2425447778153339  0.4938836739248557  0.1246784440532791
  0.7537567244423850  0.0006694878435947  0.1258503831819698
  0.7522593309480688  0.9907755498891235  0.6238205500953702
  0.2472768577503494  0.0014178673177469  0.3750338194673928
  0.2398425422980363  0.9944461753859895  0.8748255786784226
  0.2495758463535220  0.5119389303249918  0.3753185627927820
  0.2612677183883697  0.4989299843224053  0.8735886340904999
  0.7485881472750439  0.5098176588634658  0.3748737548610552
  0.7542140345605384  0.5095911937955865  0.8736578925575497
  0.2521469467404467  0.7545833297665892  0.1256469484768858
  0.2464288514856539  0.7512999819007410  0.6254937708663559
  0.7495309180169857  0.2624942375420151  0.6232734035699019
  0.7541488403378002  0.7504430198736946  0.1255886286142046
  0.7400298054141647  0.7591998279985570  0.6252494186492853
  0.2553695666697240  0.2437565197936966  0.3743289741926976
  0.2540187111524292  0.2514261576131473  0.8753241325511193
  0.7644307671937528  0.2416181907792589  0.3739183472837658
  0.7548501273589699  0.2428086519009702  0.8759931438823353
  0.1260942031831851  0.0052239107208164  0.0047870465807956
  0.1242505888061156  0.9894619220479079  0.5018824890074955
  0.1231280289767800  0.4918500412633179  0.4909574293529693
  0.6251118690070173  0.0046298940350276  0.0109431717463171
  0.6289407263289357  0.9703372575643877  0.5107563377088767
  0.6261624646612109  0.4878364462565243  0.4955942493107128
  0.1265183296380636  0.9983650296053712  0.7446323026499106
  0.1238608233565739  0.5105067925515085  0.2513037018025938
  0.1230247936076088  0.4914240423526638  0.7639702619147261
  0.6242058231799682  0.9881947641732636  0.7369583188862682
  0.6251989905270556  0.5028962313274961  0.2517082037186512
  0.6265082846532468  0.4920846717670536  0.7574330287848761
  0.1248511732557640  0.2468254453890815  0.9924695185852527
  0.1228564809131487  0.2595804538427359  0.4954554035167741
  0.1251858171861057  0.7409637473970511 -0.0002313413672447
  0.1239986062395913  0.7624141071679543  0.4945507913754502
  0.6261525721405679  0.2461931478740502  0.9918662899644421
  0.1243906526282814  0.2347256828766122  0.2589500688867303
  0.1228898444582049  0.7567575087902166  0.7535105275189297
  0.6265378083174796  0.7620832576926809  0.7457251997091856
  0.3729810025238846  0.0196993293165711  0.4916798650643836
  0.3734675439625690  0.4923901189985367  0.0088290643982439
  0.8742205837421666  0.0191679354780127  0.5040417052972787
  0.8745281604063713  0.4947851047535274  0.0009360877641808
  0.3765851883389095  0.9931025483385656  0.2581590773383962
  0.3748311736853460  0.5019055827501692  0.7385191076708871
  0.8739387484066073  0.9957903180017291  0.2499715336062157
  0.8740067756225059  0.9955386665110906  0.7471989103674599
  0.3779218966297281  0.2348849032455609  0.5006234155418370
  0.3769708115379787  0.7609275344715288  0.0014075046821427
  0.3786880236855931  0.7346171589120871  0.5065851124591361
  0.8743623592033788  0.2373942211810392  0.5076834489458418
  0.8719883709570029  0.7587595807313778  0.9988923533014549
  0.8715077579810515  0.7331254212226620  0.5060530189958954
  0.3778423528892244  0.2608939006710582  0.2427431535320876
  0.3762343073364172  0.2473042155957924  0.7499447730891532
  0.3777503635504543  0.7510130758300460  0.2488442610279270
  0.3746417903037350  0.7518208756637095  0.7450393962877726
  0.8741428328819042  0.2598976395401625  0.2415819929022638
  0.8739309838699248  0.2520963006631964  0.7449773612626611
  0.8729733233134092  0.7505281158478053  0.2497817453910046
 -0.0001283242782641  0.1269959005263235  0.0007521469880671
  0.0110718912427158  0.1259479081409406  0.5076017619136074
  0.9900736697179603  0.6255659098116259  0.9938751428955427
  0.0118786539229862  0.6274952489215380  0.4922542587848468
  0.5010127907625095  0.1244700354006504  0.9992660889121970
  0.4865500508003563  0.6274116852024926  0.0010956924140933
  0.5169615794623852  0.6278084255689670  0.5026342672887225
  0.9884987258665776  0.1278133440667974  0.2473141682586992
  0.9949121078207465  0.6234417237867844  0.2582781852403143
  0.0132195979506889  0.6248197762579111  0.7562646334887878
  0.4981843384354807  0.6259853538236139  0.2529494960252320
  0.9888834090202551  0.3746601709060407  0.4995427989067844
  0.4848805475988361  0.3733280068062992  0.5042044976850653
  0.4788795746069296  0.8751341788041865  0.4927574258848258
  0.9927685472026743  0.3750420683872436  0.7497125710164924
  0.9987003780502763  0.8756680612828817  0.2508178192355542
  0.9971132354847907  0.8754288657128363  0.7470413332465684
  0.5084720202913027  0.3722069662689569  0.2415863687926931
  0.4947280470200571  0.3738910119159941  0.7484701630111572
  0.4996054601308291  0.8748403738534182  0.2450380237692546
  0.5002608133720298  0.8738098833097603  0.7616033848992757
  0.2503975152277250  0.1247468704930858  0.9935952752873378
  0.2359431153175391  0.1254119318041388  0.4978637275927996
  0.2378574081892712  0.6274031040983825  0.5052559047697323
  0.7479448891180924  0.1262198254418355  0.0054496977409105
  0.7646926077940038  0.6254757458357189  0.0066399237690179
  0.7341174130392356  0.6274046449217605  0.5055260186782986
  0.2624862337093091  0.1266762132640035  0.2524370803731270
  0.2487542657385872  0.1248398158892896  0.7576299647710369
  0.2545520639915481  0.6236992932855918  0.2408126117629036
  0.7629437671992672  0.1265777978235983  0.2448300499245138
  0.7504575367586583  0.6250751327420199  0.2434510783579488
  0.7353291693469520  0.6257546533495468  0.7426631091400564
  0.2451540029278696  0.3763685588178644  0.9968719889743085
  0.2414905782900537  0.8735055394703547  0.0032478642942320
  0.7443266266838487  0.3753055511176453  0.9848892409198622
  0.7666594542786778  0.3734360952621623  0.4886480649693692
  0.7405823391797953  0.8743183126121069  0.0051750469093109
  0.7724449663519153  0.8752754191063409  0.4988627119926670
  0.2562900833615970  0.3763420828412119  0.7562916135886530
  0.2509142491809417  0.8752997598740928  0.2514596104387706
  0.2491610174716597  0.8732499725268470  0.7464820151724014
  0.7433564622886532  0.3743862255719682  0.2672603550783459
  0.7569026272321846  0.3744355726298244  0.7601272524293723
  0.7502783811808472  0.8749318191509774  0.2460222539074757
  0.7522446375116097  0.8739563989176689  0.7471542574893638
 
  0.00000000E+00  0.00000000E+00  0.00000000E+00
  0.00000000E+00  0.00000000E+00  0.00000000E+00
  0.00000000E+00  0.00000000E+00  0.00000000E+00
  0.00000000E+00  0.00000000E+00  0.00000000E+00
  0.00000000E+00  0.00000000E+00  0.00000000E+00
  0.00000000E+00  0.00000000E+00  0.00000000E+00
  0.00000000E+00  0.00000000E+00  0.00000000E+00
  0.00000000E+00  0.00000000E+00  0.00000000E+00
  0.00000000E+00  0.00000000E+00  0.00000000E+00
  0.00000000E+00  0.00000000E+00  0.00000000E+00
  0.00000000E+00  0.00000000E+00  0.00000000E+00
  0.00000000E+00  0.00000000E+00  0.00000000E+00
  0.00000000E+00  0.00000000E+00  0.00000000E+00
  0.00000000E+00  0.00000000E+00  0.00000000E+00
  0.00000000E+00  0.00000000E+00  0.00000000E+00
  0.00000000E+00  0.00000000E+00  0.00000000E+00
  0.00000000E+00  0.00000000E+00  0.00000000E+00
  0.00000000E+00  0.00000000E+00  0.00000000E+00
  0.00000000E+00  0.00000000E+00  0.00000000E+00
  0.00000000E+00  0.00000000E+00  0.00000000E+00
  0.00000000E+00  0.00000000E+00  0.00000000E+00
  0.00000000E+00  0.00000000E+00  0.00000000E+00
  0.00000000E+00  0.00000000E+00  0.00000000E+00
  0.00000000E+00  0.00000000E+00  0.00000000E+00
  0.00000000E+00  0.00000000E+00  0.00000000E+00
  0.00000000E+00  0.00000000E+00  0.00000000E+00
  0.00000000E+00  0.00000000E+00  0.00000000E+00
  0.00000000E+00  0.00000000E+00  0.00000000E+00
  0.00000000E+00  0.00000000E+00  0.00000000E+00
  0.00000000E+00  0.00000000E+00  0.00000000E+00
  0.00000000E+00  0.00000000E+00  0.00000000E+00
  0.00000000E+00  0.00000000E+00  0.00000000E+00
  0.00000000E+00  0.00000000E+00  0.00000000E+00
  0.00000000E+00  0.00000000E+00  0.00000000E+00
  0.00000000E+00  0.00000000E+00  0.00000000E+00
  0.00000000E+00  0.00000000E+00  0.00000000E+00
  0.00000000E+00  0.00000000E+00  0.00000000E+00
  0.00000000E+00  0.00000000E+00  0.00000000E+00
  0.00000000E+00  0.00000000E+00  0.00000000E+00
  0.00000000E+00  0.00000000E+00  0.00000000E+00
  0.00000000E+00  0.00000000E+00  0.00000000E+00
  0.00000000E+00  0.00000000E+00  0.00000000E+00
  0.00000000E+00  0.00000000E+00  0.00000000E+00
  0.00000000E+00  0.00000000E+00  0.00000000E+00
  0.00000000E+00  0.00000000E+00  0.00000000E+00
  0.00000000E+00  0.00000000E+00  0.00000000E+00
  0.00000000E+00  0.00000000E+00  0.00000000E+00
  0.00000000E+00  0.00000000E+00  0.00000000E+00
  0.00000000E+00  0.00000000E+00  0.00000000E+00
  0.00000000E+00  0.00000000E+00  0.00000000E+00
  0.00000000E+00  0.00000000E+00  0.00000000E+00
  0.00000000E+00  0.00000000E+00  0.00000000E+00
  0.00000000E+00  0.00000000E+00  0.00000000E+00
  0.00000000E+00  0.00000000E+00  0.00000000E+00
  0.00000000E+00  0.00000000E+00  0.00000000E+00
  0.00000000E+00  0.00000000E+00  0.00000000E+00
  0.00000000E+00  0.00000000E+00  0.00000000E+00
  0.00000000E+00  0.00000000E+00  0.00000000E+00
  0.00000000E+00  0.00000000E+00  0.00000000E+00
  0.00000000E+00  0.00000000E+00  0.00000000E+00
  0.00000000E+00  0.00000000E+00  0.00000000E+00
  0.00000000E+00  0.00000000E+00  0.00000000E+00
  0.00000000E+00  0.00000000E+00  0.00000000E+00
  0.00000000E+00  0.00000000E+00  0.00000000E+00
  0.00000000E+00  0.00000000E+00  0.00000000E+00
  0.00000000E+00  0.00000000E+00  0.00000000E+00
  0.00000000E+00  0.00000000E+00  0.00000000E+00
  0.00000000E+00  0.00000000E+00  0.00000000E+00
  0.00000000E+00  0.00000000E+00  0.00000000E+00
  0.00000000E+00  0.00000000E+00  0.00000000E+00
  0.00000000E+00  0.00000000E+00  0.00000000E+00
  0.00000000E+00  0.00000000E+00  0.00000000E+00
  0.00000000E+00  0.00000000E+00  0.00000000E+00
  0.00000000E+00  0.00000000E+00  0.00000000E+00
  0.00000000E+00  0.00000000E+00  0.00000000E+00
  0.00000000E+00  0.00000000E+00  0.00000000E+00
  0.00000000E+00  0.00000000E+00  0.00000000E+00
  0.00000000E+00  0.00000000E+00  0.00000000E+00
  0.00000000E+00  0.00000000E+00  0.00000000E+00
  0.00000000E+00  0.00000000E+00  0.00000000E+00
  0.00000000E+00  0.00000000E+00  0.00000000E+00
  0.00000000E+00  0.00000000E+00  0.00000000E+00
  0.00000000E+00  0.00000000E+00  0.00000000E+00
  0.00000000E+00  0.00000000E+00  0.00000000E+00
  0.00000000E+00  0.00000000E+00  0.00000000E+00
  0.00000000E+00  0.00000000E+00  0.00000000E+00
  0.00000000E+00  0.00000000E+00  0.00000000E+00
  0.00000000E+00  0.00000000E+00  0.00000000E+00
  0.00000000E+00  0.00000000E+00  0.00000000E+00
  0.00000000E+00  0.00000000E+00  0.00000000E+00
  0.00000000E+00  0.00000000E+00  0.00000000E+00
  0.00000000E+00  0.00000000E+00  0.00000000E+00
  0.00000000E+00  0.00000000E+00  0.00000000E+00
  0.00000000E+00  0.00000000E+00  0.00000000E+00
  0.00000000E+00  0.00000000E+00  0.00000000E+00
  0.00000000E+00  0.00000000E+00  0.00000000E+00
  0.00000000E+00  0.00000000E+00  0.00000000E+00
  0.00000000E+00  0.00000000E+00  0.00000000E+00
  0.00000000E+00  0.00000000E+00  0.00000000E+00
  0.00000000E+00  0.00000000E+00  0.00000000E+00
  0.00000000E+00  0.00000000E+00  0.00000000E+00
  0.00000000E+00  0.00000000E+00  0.00000000E+00
  0.00000000E+00  0.00000000E+00  0.00000000E+00
  0.00000000E+00  0.00000000E+00  0.00000000E+00
  0.00000000E+00  0.00000000E+00  0.00000000E+00
  0.00000000E+00  0.00000000E+00  0.00000000E+00
  0.00000000E+00  0.00000000E+00  0.00000000E+00
  0.00000000E+00  0.00000000E+00  0.00000000E+00
  0.00000000E+00  0.00000000E+00  0.00000000E+00
  0.00000000E+00  0.00000000E+00  0.00000000E+00
  0.00000000E+00  0.00000000E+00  0.00000000E+00
  0.00000000E+00  0.00000000E+00  0.00000000E+00
  0.00000000E+00  0.00000000E+00  0.00000000E+00
  0.00000000E+00  0.00000000E+00  0.00000000E+00
  0.00000000E+00  0.00000000E+00  0.00000000E+00
  0.00000000E+00  0.00000000E+00  0.00000000E+00
  0.00000000E+00  0.00000000E+00  0.00000000E+00
  0.00000000E+00  0.00000000E+00  0.00000000E+00
  0.00000000E+00  0.00000000E+00  0.00000000E+00
  0.00000000E+00  0.00000000E+00  0.00000000E+00
  0.00000000E+00  0.00000000E+00  0.00000000E+00
  0.00000000E+00  0.00000000E+00  0.00000000E+00
  0.00000000E+00  0.00000000E+00  0.00000000E+00
  0.00000000E+00  0.00000000E+00  0.00000000E+00
  0.00000000E+00  0.00000000E+00  0.00000000E+00
  0.00000000E+00  0.00000000E+00  0.00000000E+00
  0.00000000E+00  0.00000000E+00  0.00000000E+00
  0.00000000E+00  0.00000000E+00  0.00000000E+00
  0.00000000E+00  0.00000000E+00  0.00000000E+00
  0.00000000E+00  0.00000000E+00  0.00000000E+00
  0.00000000E+00  0.00000000E+00  0.00000000E+00
  0.00000000E+00  0.00000000E+00  0.00000000E+00
  0.00000000E+00  0.00000000E+00  0.00000000E+00
  0.00000000E+00  0.00000000E+00  0.00000000E+00
  0.00000000E+00  0.00000000E+00  0.00000000E+00
  0.00000000E+00  0.00000000E+00  0.00000000E+00
  0.00000000E+00  0.00000000E+00  0.00000000E+00
  0.00000000E+00  0.00000000E+00  0.00000000E+00
  0.00000000E+00  0.00000000E+00  0.00000000E+00
  0.00000000E+00  0.00000000E+00  0.00000000E+00
  0.00000000E+00  0.00000000E+00  0.00000000E+00
  0.00000000E+00  0.00000000E+00  0.00000000E+00
  0.00000000E+00  0.00000000E+00  0.00000000E+00
  0.00000000E+00  0.00000000E+00  0.00000000E+00
  0.00000000E+00  0.00000000E+00  0.00000000E+00
  0.00000000E+00  0.00000000E+00  0.00000000E+00
  0.00000000E+00  0.00000000E+00  0.00000000E+00
  0.00000000E+00  0.00000000E+00  0.00000000E+00
  0.00000000E+00  0.00000000E+00  0.00000000E+00
  0.00000000E+00  0.00000000E+00  0.00000000E+00
  0.00000000E+00  0.00000000E+00  0.00000000E+00
  0.00000000E+00  0.00000000E+00  0.00000000E+00
  0.00000000E+00  0.00000000E+00  0.00000000E+00
  0.00000000E+00  0.00000000E+00  0.00000000E+00
  0.00000000E+00  0.00000000E+00  0.00000000E+00
  0.00000000E+00  0.00000000E+00  0.00000000E+00
  0.00000000E+00  0.00000000E+00  0.00000000E+00
  0.00000000E+00  0.00000000E+00  0.00000000E+00
  0.00000000E+00  0.00000000E+00  0.00000000E+00
  0.00000000E+00  0.00000000E+00  0.00000000E+00
  0.00000000E+00  0.00000000E+00  0.00000000E+00
  0.00000000E+00  0.00000000E+00  0.00000000E+00
  0.00000000E+00  0.00000000E+00  0.00000000E+00
  0.00000000E+00  0.00000000E+00  0.00000000E+00
  0.00000000E+00  0.00000000E+00  0.00000000E+00
  0.00000000E+00  0.00000000E+00  0.00000000E+00
  0.00000000E+00  0.00000000E+00  0.00000000E+00
  0.00000000E+00  0.00000000E+00  0.00000000E+00
  0.00000000E+00  0.00000000E+00  0.00000000E+00
  0.00000000E+00  0.00000000E+00  0.00000000E+00
  0.00000000E+00  0.00000000E+00  0.00000000E+00
  0.00000000E+00  0.00000000E+00  0.00000000E+00
  0.00000000E+00  0.00000000E+00  0.00000000E+00
  0.00000000E+00  0.00000000E+00  0.00000000E+00
  0.00000000E+00  0.00000000E+00  0.00000000E+00
  0.00000000E+00  0.00000000E+00  0.00000000E+00
  0.00000000E+00  0.00000000E+00  0.00000000E+00
  0.00000000E+00  0.00000000E+00  0.00000000E+00
  0.00000000E+00  0.00000000E+00  0.00000000E+00
  0.00000000E+00  0.00000000E+00  0.00000000E+00
  0.00000000E+00  0.00000000E+00  0.00000000E+00
  0.00000000E+00  0.00000000E+00  0.00000000E+00
  0.00000000E+00  0.00000000E+00  0.00000000E+00
  0.00000000E+00  0.00000000E+00  0.00000000E+00
  0.00000000E+00  0.00000000E+00  0.00000000E+00
  0.00000000E+00  0.00000000E+00  0.00000000E+00
  0.00000000E+00  0.00000000E+00  0.00000000E+00
  0.00000000E+00  0.00000000E+00  0.00000000E+00
  0.00000000E+00  0.00000000E+00  0.00000000E+00
  0.00000000E+00  0.00000000E+00  0.00000000E+00
  0.00000000E+00  0.00000000E+00  0.00000000E+00
  0.00000000E+00  0.00000000E+00  0.00000000E+00
  0.00000000E+00  0.00000000E+00  0.00000000E+00
  0.00000000E+00  0.00000000E+00  0.00000000E+00
  0.00000000E+00  0.00000000E+00  0.00000000E+00
  0.00000000E+00  0.00000000E+00  0.00000000E+00
  0.00000000E+00  0.00000000E+00  0.00000000E+00
  0.00000000E+00  0.00000000E+00  0.00000000E+00
  0.00000000E+00  0.00000000E+00  0.00000000E+00
  0.00000000E+00  0.00000000E+00  0.00000000E+00
  0.00000000E+00  0.00000000E+00  0.00000000E+00
  0.00000000E+00  0.00000000E+00  0.00000000E+00
  0.00000000E+00  0.00000000E+00  0.00000000E+00
  0.00000000E+00  0.00000000E+00  0.00000000E+00
  0.00000000E+00  0.00000000E+00  0.00000000E+00
  0.00000000E+00  0.00000000E+00  0.00000000E+00
  0.00000000E+00  0.00000000E+00  0.00000000E+00
  0.00000000E+00  0.00000000E+00  0.00000000E+00
  0.00000000E+00  0.00000000E+00  0.00000000E+00
  0.00000000E+00  0.00000000E+00  0.00000000E+00
  0.00000000E+00  0.00000000E+00  0.00000000E+00
  0.00000000E+00  0.00000000E+00  0.00000000E+00
  0.00000000E+00  0.00000000E+00  0.00000000E+00
  0.00000000E+00  0.00000000E+00  0.00000000E+00
  0.00000000E+00  0.00000000E+00  0.00000000E+00
  0.00000000E+00  0.00000000E+00  0.00000000E+00
  0.00000000E+00  0.00000000E+00  0.00000000E+00
  0.00000000E+00  0.00000000E+00  0.00000000E+00
  0.00000000E+00  0.00000000E+00  0.00000000E+00
  0.00000000E+00  0.00000000E+00  0.00000000E+00
  0.00000000E+00  0.00000000E+00  0.00000000E+00
  0.00000000E+00  0.00000000E+00  0.00000000E+00
  0.00000000E+00  0.00000000E+00  0.00000000E+00
  0.00000000E+00  0.00000000E+00  0.00000000E+00
  0.00000000E+00  0.00000000E+00  0.00000000E+00
  0.00000000E+00  0.00000000E+00  0.00000000E+00
  0.00000000E+00  0.00000000E+00  0.00000000E+00
  0.00000000E+00  0.00000000E+00  0.00000000E+00
  0.00000000E+00  0.00000000E+00  0.00000000E+00
  0.00000000E+00  0.00000000E+00  0.00000000E+00
  0.00000000E+00  0.00000000E+00  0.00000000E+00
  0.00000000E+00  0.00000000E+00  0.00000000E+00
  0.00000000E+00  0.00000000E+00  0.00000000E+00
  0.00000000E+00  0.00000000E+00  0.00000000E+00
  0.00000000E+00  0.00000000E+00  0.00000000E+00
  0.00000000E+00  0.00000000E+00  0.00000000E+00
  0.00000000E+00  0.00000000E+00  0.00000000E+00
  0.00000000E+00  0.00000000E+00  0.00000000E+00
  0.00000000E+00  0.00000000E+00  0.00000000E+00
  0.00000000E+00  0.00000000E+00  0.00000000E+00
  0.00000000E+00  0.00000000E+00  0.00000000E+00
  0.00000000E+00  0.00000000E+00  0.00000000E+00
  0.00000000E+00  0.00000000E+00  0.00000000E+00
  0.00000000E+00  0.00000000E+00  0.00000000E+00
  0.00000000E+00  0.00000000E+00  0.00000000E+00
  0.00000000E+00  0.00000000E+00  0.00000000E+00
  0.00000000E+00  0.00000000E+00  0.00000000E+00
  0.00000000E+00  0.00000000E+00  0.00000000E+00
  0.00000000E+00  0.00000000E+00  0.00000000E+00
  0.00000000E+00  0.00000000E+00  0.00000000E+00
  0.00000000E+00  0.00000000E+00  0.00000000E+00
  0.00000000E+00  0.00000000E+00  0.00000000E+00
  0.00000000E+00  0.00000000E+00  0.00000000E+00
  0.00000000E+00  0.00000000E+00  0.00000000E+00
  0.00000000E+00  0.00000000E+00  0.00000000E+00
  0.00000000E+00  0.00000000E+00  0.00000000E+00
  0.00000000E+00  0.00000000E+00  0.00000000E+00
