TiOF2 2x2x2 config 0255                 
   1.00000000000000     
     7.8650198101615283    0.0000146891867905    0.0000021703158083
     0.0000142798224773    7.6416322575053268    0.0000016512140212
     0.0000021112368024    0.0000016501896819    7.6509877025590285
   Ti   O    F 
     8     8    16
Direct
  1.0000000737995201  0.9886856780949790  0.9881190156694490
  0.0000000596044923  0.9886852471427098  0.5118812742314042
  0.9999999404427664  0.5113148285767678  0.9881187282788311
 -0.0000000737025447  0.5113143975352568  0.5118809786977687
  0.5000000592024854  0.9886851743206051  0.0118812724690059
  0.5000000739272918  0.9886856268717196  0.4881190353263995
  0.4999999259803923  0.5113142957572494  0.0118809702103714
  0.4999999407629136  0.5113147481943686  0.4881187249476896
  1.0000002140656514  0.7499998927837985  0.0071527405987871
 -0.0000002140913873  0.7500001774597371  0.4928472569734353
  0.4999997851473074  0.7500001231023652  0.9928473733510129
  0.5000002148765765  0.7499998040791240  0.5071526284654451
  1.0000000088696386  0.0060842279059131  0.7499992874055509
 -0.0000000088864113  0.4939158563514232  0.7500007106715038
  0.5000000085216897  0.0060842424641319  0.2499992691703016
  0.4999999914691174  0.4939156552798027  0.2500007326393598
  0.2500002104615185  0.0061287436203033  0.9999999634497108
  0.2499997910948988  0.0061288045971762  0.5000000780800560
  0.2499997925222835  0.4938712666018292  0.9999999514650866
  0.2500002124438526  0.4938712102063954  0.5000000080749459
  0.7499997805312599  0.0061288012705786  0.9999999561449319
  0.7500002003990455  0.0061287460640488  0.5000000850173844
  0.7500002159741676  0.4938712079863562  0.9999999583731993
  0.7499997965749771  0.4938712678026482  0.5000000007434030
  1.0000000397004560  0.2500002506916125  0.0092407333707078
 -0.0000000397246535  0.2499998151075311  0.4907592641874247
  0.4999999603381055  0.2499997393119267  0.9907591624897941
  0.5000000396945882  0.2500001929754144  0.5092408395563890
 -0.0000000377768863  0.0085536703062704  0.2500001323830659
  1.0000000377715779  0.4914464207359561  0.2499998662731511
  0.4999999616155179  0.0085534743657046  0.7500001401431514
  0.5000000383897847  0.4914464124362897  0.7499998611412749
 
  0.00000000E+00  0.00000000E+00  0.00000000E+00
  0.00000000E+00  0.00000000E+00  0.00000000E+00
  0.00000000E+00  0.00000000E+00  0.00000000E+00
  0.00000000E+00  0.00000000E+00  0.00000000E+00
  0.00000000E+00  0.00000000E+00  0.00000000E+00
  0.00000000E+00  0.00000000E+00  0.00000000E+00
  0.00000000E+00  0.00000000E+00  0.00000000E+00
  0.00000000E+00  0.00000000E+00  0.00000000E+00
  0.00000000E+00  0.00000000E+00  0.00000000E+00
  0.00000000E+00  0.00000000E+00  0.00000000E+00
  0.00000000E+00  0.00000000E+00  0.00000000E+00
  0.00000000E+00  0.00000000E+00  0.00000000E+00
  0.00000000E+00  0.00000000E+00  0.00000000E+00
  0.00000000E+00  0.00000000E+00  0.00000000E+00
  0.00000000E+00  0.00000000E+00  0.00000000E+00
  0.00000000E+00  0.00000000E+00  0.00000000E+00
  0.00000000E+00  0.00000000E+00  0.00000000E+00
  0.00000000E+00  0.00000000E+00  0.00000000E+00
  0.00000000E+00  0.00000000E+00  0.00000000E+00
  0.00000000E+00  0.00000000E+00  0.00000000E+00
  0.00000000E+00  0.00000000E+00  0.00000000E+00
  0.00000000E+00  0.00000000E+00  0.00000000E+00
  0.00000000E+00  0.00000000E+00  0.00000000E+00
  0.00000000E+00  0.00000000E+00  0.00000000E+00
  0.00000000E+00  0.00000000E+00  0.00000000E+00
  0.00000000E+00  0.00000000E+00  0.00000000E+00
  0.00000000E+00  0.00000000E+00  0.00000000E+00
  0.00000000E+00  0.00000000E+00  0.00000000E+00
  0.00000000E+00  0.00000000E+00  0.00000000E+00
  0.00000000E+00  0.00000000E+00  0.00000000E+00
  0.00000000E+00  0.00000000E+00  0.00000000E+00
  0.00000000E+00  0.00000000E+00  0.00000000E+00
