TiOF2 2x2x2 config 0047                 
   1.00000000000000     
     7.9647361042441576   -0.0000001246958843   -0.0000005054790013
    -0.0000001267956113    7.7209182860844932   -0.0027461096490580
    -0.0000004627688293   -0.0027411945951887    7.7208880880865856
   Ti   O    F 
     8     8    16
Direct
  0.0000000174936961  0.0000111181860689  0.9999927084615602
  0.0000000033026120  0.0000003446870310  0.5000004905725264
  0.0000000130836437  0.4999997813871480  0.0000015400978260
  0.0000000272838039  0.5000080326939041  0.4999896380938934
  0.4999999952032202  1.0000030338187367  1.0000018599596052
  0.4999999874265261  0.0000043419130163  0.4999902584731969
  0.5000000010770038  0.5000057450835320 -0.0000091606288835
  0.4999999833754742  0.5000055215819263  0.5000015050381023
  0.5000001142958205  0.2494122177584884  1.0000119337481392
  0.4999999846997427  0.2505789544037413  0.5000011459738579
  0.5000000030325893  0.7505792937910835  0.9999972328026719
  0.5000000085779774  0.7494152875942922  0.5000085083415674
  0.4999999801532387 -0.0000071988206188  0.2494163006678873
  0.5000000062413512 -0.0000165556150770  0.7505858285774679
  0.5000000023461427  0.4999854860860747  0.2505828555106109
  0.4999999912393510  0.4999941353811097  0.7494199183176524
  0.2343446736652573  0.9999831287965749  0.0000197553981715
  0.2390293872714345  1.0000263311964093  0.4999782504341298
  0.2390293788376917  0.5000256911419073 -0.0000195574963546
  0.2343444342799243  0.4999804880748870  0.5000188384796469
  0.7656553087936051  0.9999831214163184  0.0000197448572451
  0.7609705901645097  1.0000263944091601  0.4999782152640535
  0.7609706168455166  0.5000257216827465 -0.0000195499508002
  0.7656555282522971  0.4999804735835893  0.5000188025933754
  0.0000000057345718  0.2428684263009133  1.0000749140565754
  0.0000000073017294  0.2571224162331513  0.4999229995219568
  0.9999999870715166  0.7571221537595686  0.9999206569466047
  0.9999999827954303  0.7428686988346713  0.5000718084297635
  1.0000000170660694  0.0000604478326582  0.2428777943108628
 -0.0000000271055082 -0.0000567707386198  0.7571323113808356
 -0.0000000001760846  0.4999423934053637  0.2571334616748132
  0.9999999903698574  0.5000613441402506  0.7428789900914448
 
  0.00000000E+00  0.00000000E+00  0.00000000E+00
  0.00000000E+00  0.00000000E+00  0.00000000E+00
  0.00000000E+00  0.00000000E+00  0.00000000E+00
  0.00000000E+00  0.00000000E+00  0.00000000E+00
  0.00000000E+00  0.00000000E+00  0.00000000E+00
  0.00000000E+00  0.00000000E+00  0.00000000E+00
  0.00000000E+00  0.00000000E+00  0.00000000E+00
  0.00000000E+00  0.00000000E+00  0.00000000E+00
  0.00000000E+00  0.00000000E+00  0.00000000E+00
  0.00000000E+00  0.00000000E+00  0.00000000E+00
  0.00000000E+00  0.00000000E+00  0.00000000E+00
  0.00000000E+00  0.00000000E+00  0.00000000E+00
  0.00000000E+00  0.00000000E+00  0.00000000E+00
  0.00000000E+00  0.00000000E+00  0.00000000E+00
  0.00000000E+00  0.00000000E+00  0.00000000E+00
  0.00000000E+00  0.00000000E+00  0.00000000E+00
  0.00000000E+00  0.00000000E+00  0.00000000E+00
  0.00000000E+00  0.00000000E+00  0.00000000E+00
  0.00000000E+00  0.00000000E+00  0.00000000E+00
  0.00000000E+00  0.00000000E+00  0.00000000E+00
  0.00000000E+00  0.00000000E+00  0.00000000E+00
  0.00000000E+00  0.00000000E+00  0.00000000E+00
  0.00000000E+00  0.00000000E+00  0.00000000E+00
  0.00000000E+00  0.00000000E+00  0.00000000E+00
  0.00000000E+00  0.00000000E+00  0.00000000E+00
  0.00000000E+00  0.00000000E+00  0.00000000E+00
  0.00000000E+00  0.00000000E+00  0.00000000E+00
  0.00000000E+00  0.00000000E+00  0.00000000E+00
  0.00000000E+00  0.00000000E+00  0.00000000E+00
  0.00000000E+00  0.00000000E+00  0.00000000E+00
  0.00000000E+00  0.00000000E+00  0.00000000E+00
  0.00000000E+00  0.00000000E+00  0.00000000E+00
