TiOF2 2x2x2 config 2564                 
   1.00000000000000     
     7.7658211652963596   -0.0041737049100885    0.0002425293358179
    -0.0042267005057446    7.6571060045379875    0.0042256464252833
     0.0002425986030292    0.0041729658092415    7.7658236940102805
   Ti   O    F 
     8     8    16
Direct
  0.0004186980894758  0.9873461735774995  0.9863967633203785
  0.9995818428333081  0.0126527237829634  0.5136014821177497
  0.9863963830206686  0.5126531244648618  0.0004186027858353
  0.0136033651538270  0.4873449506897813  0.4995817623021424
  0.4995816977320544  0.0126562339572445  0.0136033787278862
  0.5004185917405835  0.9873463437823773  0.4863988616438917
  0.5136016770556751  0.4873481036323852  0.9995819724509687
  0.4863982107720659  0.5126534074418956  0.5004186891925499
  0.2499972577159468  0.4999999348273150  0.5000000904043063
  0.7500033379546309  0.5000002984522922  0.0000000756700587
  0.9979988172552936  0.2500037442744016  0.4979985416726294
  0.0020015474987432  0.7500008853362345  0.0020016575703252
  0.4979978656486352  0.2499937002187096  0.9979982405102206
  0.5020013497088200  0.7500001343681433  0.5020015256276977
  0.0000001172711777  0.9999997029980392  0.7500031126410036
  0.5000001973705466  0.0000000739868753  0.2499959110187930
  0.2500003106188302  0.0000000535801448  0.0000000028212455
  0.2500001116633470  0.9999999097787082  0.4999999735566192
  0.2499993535466700  0.5000000802549209  0.0000001779386665
  0.7500001825352314  0.9999999940295439  0.9999999549404066
  0.7500000303418304  0.0000000482751545  0.5000000728097120
  0.7500006286901524  0.4999998989573484  0.5000001745347973
  0.0045825215135906  0.2499998197828859  0.0045823922932939
  0.9954179007717059  0.7499994957767129  0.4954177627310798
  0.5045816530306979  0.2499998990607395  0.5045818390458479
  0.4954161362207756  0.7500009768590843  0.9954161245414284
  0.0000000988353790  0.9999999917814364  0.2499993436559933
  0.9999998985522112  0.4999998856234882  0.2500002940177311
  0.0000000062252212  0.5000000466253667  0.7500000838500895
  0.5000001164584589  0.0000001985764726  0.7500009784130270
  0.5000000939796365  0.5000001917733599  0.2500002207537477
  0.5000000001948379  0.4999999734736207  0.7499999364398988
 
  0.00000000E+00  0.00000000E+00  0.00000000E+00
  0.00000000E+00  0.00000000E+00  0.00000000E+00
  0.00000000E+00  0.00000000E+00  0.00000000E+00
  0.00000000E+00  0.00000000E+00  0.00000000E+00
  0.00000000E+00  0.00000000E+00  0.00000000E+00
  0.00000000E+00  0.00000000E+00  0.00000000E+00
  0.00000000E+00  0.00000000E+00  0.00000000E+00
  0.00000000E+00  0.00000000E+00  0.00000000E+00
  0.00000000E+00  0.00000000E+00  0.00000000E+00
  0.00000000E+00  0.00000000E+00  0.00000000E+00
  0.00000000E+00  0.00000000E+00  0.00000000E+00
  0.00000000E+00  0.00000000E+00  0.00000000E+00
  0.00000000E+00  0.00000000E+00  0.00000000E+00
  0.00000000E+00  0.00000000E+00  0.00000000E+00
  0.00000000E+00  0.00000000E+00  0.00000000E+00
  0.00000000E+00  0.00000000E+00  0.00000000E+00
  0.00000000E+00  0.00000000E+00  0.00000000E+00
  0.00000000E+00  0.00000000E+00  0.00000000E+00
  0.00000000E+00  0.00000000E+00  0.00000000E+00
  0.00000000E+00  0.00000000E+00  0.00000000E+00
  0.00000000E+00  0.00000000E+00  0.00000000E+00
  0.00000000E+00  0.00000000E+00  0.00000000E+00
  0.00000000E+00  0.00000000E+00  0.00000000E+00
  0.00000000E+00  0.00000000E+00  0.00000000E+00
  0.00000000E+00  0.00000000E+00  0.00000000E+00
  0.00000000E+00  0.00000000E+00  0.00000000E+00
  0.00000000E+00  0.00000000E+00  0.00000000E+00
  0.00000000E+00  0.00000000E+00  0.00000000E+00
  0.00000000E+00  0.00000000E+00  0.00000000E+00
  0.00000000E+00  0.00000000E+00  0.00000000E+00
  0.00000000E+00  0.00000000E+00  0.00000000E+00
  0.00000000E+00  0.00000000E+00  0.00000000E+00
