TiOF2 2x2x2 config 0283                 
   1.00000000000000     
     7.8724774365003380    0.0000060983948083    0.0000013334442412
     0.0000059336662302    7.6611690337688625    0.0000009749296881
     0.0000012933348477    0.0000009779866378    7.6560257220544905
   Ti   O    F 
     8     8    16
Direct
  0.0000000204304215  0.9881037895882109  0.9873069777907089
  1.0000000307216517  0.9881039267682336  0.5126926830008914
  0.9999999796051020  0.5118963271404817  0.0126929978122364
 -0.0000000307243862  0.5118962134716156  0.4873073202459519
  0.4999999795741908  0.0118962147777721  0.0126930255135235
  0.4999999692667987  0.0118960543865650  0.4873073259118391
  0.5000000204297579  0.4881037041259055  0.9873070019839453
  0.5000000307107467  0.4881037948079043  0.5126926990037647
  0.9999999999946287  0.7500000294319389  0.9999999335274546
  1.0000000000021008  0.7500000341508731  0.5000000550755146
  0.5000000000042819  0.2499999621391122  0.9999999910208435
  0.4999999999982156  0.2499999745205402  0.5000000223589817
  1.0000000170740444  0.0055403125308671  0.7500002173389733
 -0.0000000170705767  0.4944599094177129  0.2499997774373734
  0.4999999829118924  0.9944597406923715  0.2499997690497596
  0.5000000170779672  0.5055402025747769  0.7500002113351610
  0.2500000001931017  0.0000000017655403  0.9999999822901522
  0.2499999998067383  0.0000000019292635  0.5000000138707575
  0.2499999981257740  0.4999999883430655  0.0000000106758102
  0.2499999989291250  0.4999999887761152  0.4999999896019588
  0.7499999998165250  0.0000000017803257  0.9999999822760777
  0.7500000002028290  0.0000000019142449  0.5000000138284078
  0.7500000018772921  0.4999999883520190  0.0000000106704599
  0.7500000010501376  0.4999999887646382  0.4999999895692338
  0.0000000000043364  0.2500000424366507  0.0000000616295869
 -0.0000000000025457  0.2500000504979654  0.4999999323675932
  0.4999999999959154  0.7499999585334599  0.0000000161638268
  0.4999999999956267  0.7499999475310980  0.4999999881558591
  0.0000000493114596  0.0101111753110903  0.2499999522146253
  0.9999999506856809  0.4898888179732531  0.7500000382026505
  0.4999999507021590  0.9898887308351678  0.7500000467709889
  0.5000000492990080  0.5101111247312354  0.2499999633050815
 
  0.00000000E+00  0.00000000E+00  0.00000000E+00
  0.00000000E+00  0.00000000E+00  0.00000000E+00
  0.00000000E+00  0.00000000E+00  0.00000000E+00
  0.00000000E+00  0.00000000E+00  0.00000000E+00
  0.00000000E+00  0.00000000E+00  0.00000000E+00
  0.00000000E+00  0.00000000E+00  0.00000000E+00
  0.00000000E+00  0.00000000E+00  0.00000000E+00
  0.00000000E+00  0.00000000E+00  0.00000000E+00
  0.00000000E+00  0.00000000E+00  0.00000000E+00
  0.00000000E+00  0.00000000E+00  0.00000000E+00
  0.00000000E+00  0.00000000E+00  0.00000000E+00
  0.00000000E+00  0.00000000E+00  0.00000000E+00
  0.00000000E+00  0.00000000E+00  0.00000000E+00
  0.00000000E+00  0.00000000E+00  0.00000000E+00
  0.00000000E+00  0.00000000E+00  0.00000000E+00
  0.00000000E+00  0.00000000E+00  0.00000000E+00
  0.00000000E+00  0.00000000E+00  0.00000000E+00
  0.00000000E+00  0.00000000E+00  0.00000000E+00
  0.00000000E+00  0.00000000E+00  0.00000000E+00
  0.00000000E+00  0.00000000E+00  0.00000000E+00
  0.00000000E+00  0.00000000E+00  0.00000000E+00
  0.00000000E+00  0.00000000E+00  0.00000000E+00
  0.00000000E+00  0.00000000E+00  0.00000000E+00
  0.00000000E+00  0.00000000E+00  0.00000000E+00
  0.00000000E+00  0.00000000E+00  0.00000000E+00
  0.00000000E+00  0.00000000E+00  0.00000000E+00
  0.00000000E+00  0.00000000E+00  0.00000000E+00
  0.00000000E+00  0.00000000E+00  0.00000000E+00
  0.00000000E+00  0.00000000E+00  0.00000000E+00
  0.00000000E+00  0.00000000E+00  0.00000000E+00
  0.00000000E+00  0.00000000E+00  0.00000000E+00
  0.00000000E+00  0.00000000E+00  0.00000000E+00
