config 51                               
   1.00000000000000     
    15.4263309999999993    0.0000000000000000    0.0000000000000000
     0.0000000000000000   15.4263309999999993    0.0000000000000000
     0.0000000000000000    0.0000000000000000   15.4263309999999993
   Li   Ti   O    F 
     1    64    64   128
Direct
  0.8763575405469313  0.1317665541693090  0.6689030363208611
  0.9953714329197970  0.9955543853286875  0.9952003606605041
  0.9998282575865399  0.9943788961632378  0.4930374556499325
  0.0060704418754979  0.4954702650995426  0.9969099028179438
  0.9944441098024539  0.5020470167957031  0.5066234555921184
  0.4941798321999255  0.9940922923172307  0.9996893622337973
  0.4998719552970193  0.0081268936729287  0.4986786135216554
  0.5047037742878883  0.4950911899910951  0.9962474071994276
  0.4921059978189971  0.4986127222909010  0.4950297225545337
  0.0062298351416072  0.0038533204950537  0.2564104207124467
  0.0028893574554375  0.0076502352628330  0.7572147855850810
  0.9944454519339929  0.4924090767523647  0.2518593439234041
  0.9932130101606549  0.4974996436786624  0.7415563111109020
  0.5055483269735781  0.0089392155670747  0.2503430337620007
  0.4911865695085453  0.0033879084830821  0.7516438608461363
  0.4933195507768182  0.4965280860207487  0.2571513169301027
  0.5005569939570657  0.5032487834321820  0.7584758835625535
  0.9954148109779865  0.2573933592089085  0.0028890641717900
  0.9984060006410470  0.2477861490170231  0.4940485275808824
  0.9981891977572757  0.7582876861535650  0.0055922416370279
  0.9980711453819344  0.7586502723807326  0.5052862573991224
  0.4950525483322425  0.2577715056228104  0.0017407621672513
  0.5084965602248054  0.2454600993750953  0.4975125255223888
  0.5073365631118620  0.7563100771975523  0.9992674333442350
  0.5067961643616804  0.7520914624874984  0.5087470677164795
  0.9983035951317076  0.2565839367960710  0.2592025170295624
  0.0098240641445666  0.2421430390078348  0.7493221706887885
  0.0065613824732574  0.7489541787000059  0.2430009136480412
  0.9933855287677263  0.7520961302559483  0.7430411417136169
  0.5082774469272440  0.2421188240949271  0.2517277711722131
  0.5047204076874575  0.2412249655364046  0.7508408972747214
  0.5066277902486126  0.7515706218403707  0.2516365369912107
  0.5010915399507622  0.7410883410713037  0.7436072828552778
  0.2562642832978885  0.9985744944593715  0.0059760368550826
  0.2491301636290922  0.9939957011702973  0.5062643001229289
  0.2439894257364130  0.5077306340179241  0.9975635544625260
  0.2540527344550580  0.4942331481963628  0.5064345923311653
  0.7570009136135394  0.0014918772843331  0.9948158479405883
  0.7501360548079844  0.0076134955747155  0.4942685612392857
  0.7422338507718109  0.4996115434569881  0.0051551575395024
  0.7557812218574624  0.4971968444847813  0.5049970193691278
  0.2443493139209588  0.0025666862902881  0.2437627004762176
  0.2576248663172268  0.9969659893902253  0.7441416473168042
  0.2553938842301182  0.4921876687414496  0.2516726601826675
  0.2480621558918725  0.5061265032245200  0.7411434778121530
  0.7442823785467074  0.0017289471205487  0.2556490566737662
  0.7472607937939938  0.0071019395684926  0.7559890169764062
  0.7564708532306995  0.4981212516867922  0.2423020366206428
  0.7572801915874389  0.4964005709724677  0.7421268894652442
  0.2570519562211824  0.2512826506701403  0.0061322136039031
  0.2521443684911777  0.2565816286076151  0.5044833678548561
  0.2521688434688135  0.7425441660720467  0.9934322522556597
  0.2512382659839181  0.7554175976715274  0.4925764974145445
  0.7566984773866102  0.2519758799078627  0.0079938423495913
  0.7436796097045633  0.2427818455329158  0.4970883602849153
  0.7419553211393242  0.7484086577439193  0.9937120977964211
  0.7417676068453903  0.7511414459752113  0.4935115057771663
  0.2506262673679117  0.2576481301599470  0.2433883647063105
  0.2458336375651852  0.2502361578127697  0.7434129979263858
  0.2438065784509972  0.7480815896956675  0.2554912423990092
  0.2491904162231821  0.7416755758136361  0.7564046425660564
  0.7419701811719488  0.2520815351422097  0.2416232926712301
  0.7418454360043052  0.2419679795742763  0.7510068902577981
  0.7455963490198031  0.7491930314456401  0.2564655743362589
  0.7575295782576463  0.7505716777987259  0.7564832620292765
  0.0082482580582171  0.4953239967623672  0.6250851787875141
  0.9945156395325065  0.0130521160579111  0.3762688803267357
  0.9987658132954005  0.0097803259106209  0.8724947583115239
  0.4997285572524063  0.4905922882533640  0.3751218238545057
  0.4943221790488881  0.4939779748686793  0.8744731885987351
  0.9988286233832669  0.7531945132923351  0.1250596216083979
  0.0017412173115158  0.7546365681811632  0.6246286100938512
  0.5012542625731959  0.7492064044342679  0.6246809088723588
  0.9863000312638109  0.2387896211318356  0.3726057883882261
  0.2540590001635859  0.0030185418541324  0.1251410192455867
  0.2535630364360376  0.0027336463481755  0.6256981592992210
  0.2395423250671087  0.4955657568278329  0.6260797799698493
  0.7500024885978849  0.4845012542067711  0.1247971480347287
  0.7456744163564168  0.4869007485563783  0.6242900239691709
  0.7512019842047380  0.0094822824950268  0.3758806376878994
  0.7472261014262311  0.0100637102529927  0.8725743668141981
  0.2424110266109279  0.2494518092381461  0.1251719407754358
  0.2485137958306117  0.2491974230423819  0.6260304711905520
  0.7367175629622449  0.2664441463449877  0.1257275769542341
  0.2543948211508187  0.7466325140848189  0.3744799842215730
  0.2519670714080223  0.7526303337238656  0.8748519584432619
  0.7520764943426594  0.7427797315256247  0.3739011485264271
  0.7485133839684293  0.7437115296579226  0.8749526489117948
  0.1248189426226909  0.5046640758454686  0.9942334785377597
  0.6259075847753283  0.5080611556392886  0.9977420981240058
  0.1249839723199605  0.0044074507621046  0.2522848278165994
  0.6247976568883258  0.0035181292251546  0.2503452765248094
  0.6243267648372200  0.2515103960020207  0.4868107377357314
  0.6246390553691293  0.7409981451492647  0.0029903723816402
  0.6243964612920346  0.7579102489446852  0.4958206841398483
  0.1256445208457974  0.2389995627811248  0.7562348070800506
  0.1253006437476272  0.7502390125687480  0.2514692721737424
  0.6255354418563659  0.2435050910781834  0.2653178683540668
  0.6250343791199574  0.2410238619341620  0.7560590394286790
  0.6228085265225823  0.7517764302840192  0.2505942873790690
  0.3759325724266326  0.9986714577667352  0.9926185783721764
  0.3754978642579571  0.5020878392525535  0.5040552800279170
  0.8726165414178608  0.0013311549902118  0.0002376324814470
  0.8747215656323908  0.5006082918662935  0.4998421334560787
  0.3759695643406905  0.9862982837003716  0.7560959427807200
  0.3743130190268806  0.4946773768872764  0.2484494562744431
  0.8748796120102439  0.4963697626249601  0.2518265878406791
  0.8753286184699658  0.4976175639241963  0.7464183872757644
  0.3760334188596615  0.2489373829182269  0.0076503524952051
  0.8736790067485305  0.2502915357627880  0.0095399354942888
  0.8748849147368548  0.7536444181679867  0.7491469892834408
  0.5043232393041371  0.1223643872994679  0.4913441180901160
  0.9842568930250338  0.1256003667098443  0.7329952192505191
  0.4931133480448087  0.1251172889548817  0.2644505676331420
  0.4910721034326058  0.1232482792145604  0.7508426455625975
  0.4946391762791869  0.6247406958256856  0.7526436461774348
  0.0013374231114280  0.3750126837261004  0.9966128046658348
  0.0023301462670746  0.8757221521608680  0.9943746539411344
  0.0016026980413600  0.8760974445090848  0.4916859751358091
  0.5045175778395836  0.3737291222279832  0.0094773171554069
  0.5055373649966880  0.8753526609305785  0.0064895786239334
  0.0075671552331028  0.3751158289567172  0.2544435617116442
  0.2565783875378629  0.6252678771644062  0.0015941715206951
  0.7479537994435075  0.1249158716500584  0.5141048464392662
  0.2569406506234206  0.6245601078645029  0.7496129663244125
  0.7644282250459796  0.1247498339031722  0.7303531019156213
  0.2493493645891697  0.3732891668543640  0.4940400254792164
  0.2474976195664452  0.8760182198371385  0.4993953355293774
  0.2411767540982618  0.3744985600093172  0.2562356744671601
  0.9998949864800151  0.9954366201255465  0.1264999806339799
  0.0042882500958905  0.9887668867864614  0.6255253625658072
  0.0006942893507695  0.5024666385803070  0.1243569819423265
  0.4952024739457159  0.0105119712816950  0.1259729633197136
  0.4977784297958565  0.9994540553704030  0.6228219892061911
  0.5023006615158659  0.5096027443813912  0.1271391554150476
  0.5072879102414869  0.5026281633435529  0.6247959013647829
  0.0030183964449030  0.5080182649468866  0.3758322480237286
  0.9955523728660529  0.5044207019598631  0.8724475191554480
  0.5022064341064719  0.9858248914354855  0.3761883568533952
  0.5142059993121244  0.9963189265859357  0.8744075840410506
  0.0116706123330962  0.2529540146029856  0.1266390480720082
  0.0075749065165080  0.2640760778925152  0.6246018447862601
  0.5140153580648481  0.2361183951801485  0.1266071580998007
  0.5055080403991010  0.2436574220928124  0.6230323911267271
  0.4959288341830040  0.7427848872093525  0.1266655901422254
  0.9887282659158796  0.2418412581459581  0.8741071687558479
  0.9940302600942841  0.7448315717822996  0.3750162497102383
  0.0016750065422696  0.7458350791491706  0.8737066167385736
  0.4859448878304504  0.2649180209768983  0.3751383345200550
  0.4939533833518812  0.2546962743580553  0.8744632868952358
  0.4929155384004255  0.7580775182841708  0.3753611955432713
  0.4985091255580049  0.7559877035762951  0.8737261825527244
  0.2448283204861388  0.4945429627241352  0.1245355206818308
  0.7484657664414165  0.9930807145599628  0.1259721116049826
  0.7461542554183591  0.9880423257945807  0.6233015830568081
  0.2523951862834178  0.0015253480392848  0.3754754693125208
  0.2433970009677649  0.9953190234731532  0.8741411948741941
  0.2481468867280882  0.5113787954562030  0.3751716243463460
  0.2598193722696869  0.4972221900749985  0.8734677195484631
  0.7463807809357317  0.5121653096209683  0.3745402059124964
  0.7525788116199766  0.5105553463117182  0.8735239850836848
  0.2520337277387842  0.7547633346857737  0.1247183866868612
  0.2495016977383133  0.7520120816153673  0.6252035168302479
  0.7384144637515540  0.2665167977612762  0.6236929361905663
  0.7520275954095780  0.7580116670333787  0.1253047609067541
  0.7472855223329080  0.7566858332781137  0.6244140223123319
  0.2608034282119849  0.2438925315486796  0.3739947257918741
  0.2571604623030495  0.2507883944346191  0.8749149261600093
  0.7658939478266362  0.2357146933651782  0.3738303237288969
  0.7596826222316122  0.2349247335558058  0.8747777142383130
  0.1256519815735254  0.0033233027345304  0.0013233146046103
  0.1246798787837110  0.0113612200262535  0.4985673834142108
  0.1242870746497921  0.5058565042318826  0.4927309235573248
  0.6253668443274123  0.0034232863466777  0.0058134020695330
  0.6235886728116775  0.9890323059816257  0.5013224239519735
  0.6251761053569157  0.4970284620987935  0.4977429634634477
  0.1274938325187011  0.0129469515847686  0.7484415329445747
  0.1246074032108443  0.5095131017645336  0.2491825266211359
  0.1235564586734134  0.5011695087321129  0.7627653974282178
  0.6233650797284737  0.0070104688336281  0.7414639334581785
  0.6250817109503041  0.5018082758394452  0.2497760653521103
  0.6266990004656957  0.4990410787442134  0.7553632679501312
  0.1248073293538885  0.2482758962383123  0.9897842956306905
  0.1290510440152862  0.2385656816446357  0.4922620882239052
  0.1251476121314416  0.7446530789880654  0.0004028215270823
  0.1242346057786750  0.7462530763560136  0.4961674425586999
  0.6265088387930173  0.2470755375740769  0.9879638611156906
  0.1252256261882911  0.2364878552958375  0.2602166464018947
  0.1237180673313200  0.7448407097986652  0.7508957486412866
  0.6263566299766894  0.7465960749852893  0.7502246857954094
  0.3769842628333439  0.0002994091545162  0.4961262494406640
  0.3737396601649227  0.4945977222005313  0.0074377567489214
  0.8736747812749959  0.9988078902880656  0.5114201517705550
  0.8746644143138756  0.4970919767552344  0.9984991281856054
  0.3770485559343396  0.9943842693209130  0.2551469854971805
  0.3748947251157377  0.4887936457557560  0.7408473333911993
  0.8733285048685987  0.9981412062586101  0.2465235338039916
  0.8743969711589268  0.9915284847315634  0.7387693652214063
  0.3796651628073643  0.2470788664287624  0.5050405566363065
  0.3766919181522744  0.7582142720653375  0.0017258713410396
  0.3770131027658956  0.7480720423593094  0.5019261113925682
  0.8685028537340544  0.2522704593009792  0.5179609128885220
  0.8721770996688671  0.7554296057622389  0.9985234147551713
  0.8723165415834028  0.7482118476877219  0.5035922261481750
  0.3783912022888715  0.2582103553018552  0.2404546932443480
  0.3766722101731465  0.2581470435161579  0.7468609271129881
  0.3769644289589119  0.7511367654966009  0.2472199396211478
  0.3754465036263626  0.7633835952001968  0.7486136442343098
  0.8723537204857020  0.2572469397370086  0.2373817941773011
  0.8737157707955111  0.2532234097340709  0.7321976723965972
  0.8733717728975283  0.7505662753896739  0.2483595715283018
  0.0021101955894093  0.1266276097278078  0.0068118208617395
  0.9877982405858666  0.1200880705734728  0.5235836331573795
  0.9930482480271989  0.6259211552450895  0.9991019602237856
  0.9987559345672230  0.6277711205930951  0.5016056270043648
  0.5033363616616489  0.1243156019621938  0.9939800547921515
  0.4891333804569424  0.6273537632784277  0.9962652853848036
  0.5044671916313622  0.6264938862436906  0.4931684210726927
  0.9912106340672191  0.1268129147448420  0.2366405384745347
  0.9963548656601011  0.6243464326503022  0.2486548783062633
  0.0007746592292986  0.6246389498671039  0.7483314957736978
  0.4985419163935234  0.6262458010926811  0.2583598259778357
  0.0058775706768642  0.3789281531916455  0.4900594743956137
  0.4981748055635232  0.3717855647583772  0.5101738737448726
  0.4928252932357033  0.8779392068787273  0.5025121142061820
  0.0026168994156818  0.3721999035818362  0.7588714365193692
  0.9967831591841717  0.8764876089548044  0.2580848278001094
  0.0080174761748554  0.8769828259574226  0.7560427668262090
  0.5064887436517291  0.3716174716041816  0.2380893306230897
  0.5051810563246678  0.3717546128158998  0.7422919074167099
  0.4987297282384877  0.8763648846422899  0.2420927637891621
  0.5114671571148849  0.8756376000120055  0.7486272394511090
  0.2474268649509077  0.1246664374165581  0.9931389340874256
  0.2577551069330913  0.1235465826649814  0.4973625604914135
  0.2496116580808700  0.6270094674357846  0.5054329817022256
  0.7452636097462831  0.1262912676287438  0.0134936855628225
  0.7614803846748841  0.6251695920074590  0.0117234290805603
  0.7457070334743864  0.6254290324042662  0.5097064759813970
  0.2612549899705769  0.1263444693559994  0.2530380195504214
  0.2633900816692180  0.1240717196359014  0.7570224312143715
  0.2537436888391848  0.6239913551925509  0.2409750411391968
  0.7585462920615393  0.1264662490060610  0.2367309837356483
  0.7491858801132274  0.6251263827895336  0.2371404808541118
  0.7485141399596461  0.6244324595863079  0.7392289983289833
  0.2476432167983791  0.3759079193526504  0.9972191006970990
  0.2439129599586691  0.8741025079707077  0.0024371734643837
  0.7466806893711184  0.3744478163988048  0.9796294692002329
  0.7508489071198424  0.3723844352631394  0.4829973894626703
  0.7438220977277831  0.8753475574878170  0.9953014027488364
  0.7559744831979028  0.8765490216314051  0.4935510457453718
  0.2442702035555535  0.3748986924068907  0.7561070582640932
  0.2524890583442291  0.8758054494160882  0.2513072888923389
  0.2366050814867396  0.8738826533777538  0.7468044839727412
  0.7453662667708952  0.3741299783686675  0.2709153556396711
  0.7491372185464634  0.3712101321155531  0.7639691677673077
  0.7513692873862238  0.8757010810338033  0.2550826455424035
  0.7436982213482023  0.8766575775943513  0.7538925186176223
 
  0.00000000E+00  0.00000000E+00  0.00000000E+00
  0.00000000E+00  0.00000000E+00  0.00000000E+00
  0.00000000E+00  0.00000000E+00  0.00000000E+00
  0.00000000E+00  0.00000000E+00  0.00000000E+00
  0.00000000E+00  0.00000000E+00  0.00000000E+00
  0.00000000E+00  0.00000000E+00  0.00000000E+00
  0.00000000E+00  0.00000000E+00  0.00000000E+00
  0.00000000E+00  0.00000000E+00  0.00000000E+00
  0.00000000E+00  0.00000000E+00  0.00000000E+00
  0.00000000E+00  0.00000000E+00  0.00000000E+00
  0.00000000E+00  0.00000000E+00  0.00000000E+00
  0.00000000E+00  0.00000000E+00  0.00000000E+00
  0.00000000E+00  0.00000000E+00  0.00000000E+00
  0.00000000E+00  0.00000000E+00  0.00000000E+00
  0.00000000E+00  0.00000000E+00  0.00000000E+00
  0.00000000E+00  0.00000000E+00  0.00000000E+00
  0.00000000E+00  0.00000000E+00  0.00000000E+00
  0.00000000E+00  0.00000000E+00  0.00000000E+00
  0.00000000E+00  0.00000000E+00  0.00000000E+00
  0.00000000E+00  0.00000000E+00  0.00000000E+00
  0.00000000E+00  0.00000000E+00  0.00000000E+00
  0.00000000E+00  0.00000000E+00  0.00000000E+00
  0.00000000E+00  0.00000000E+00  0.00000000E+00
  0.00000000E+00  0.00000000E+00  0.00000000E+00
  0.00000000E+00  0.00000000E+00  0.00000000E+00
  0.00000000E+00  0.00000000E+00  0.00000000E+00
  0.00000000E+00  0.00000000E+00  0.00000000E+00
  0.00000000E+00  0.00000000E+00  0.00000000E+00
  0.00000000E+00  0.00000000E+00  0.00000000E+00
  0.00000000E+00  0.00000000E+00  0.00000000E+00
  0.00000000E+00  0.00000000E+00  0.00000000E+00
  0.00000000E+00  0.00000000E+00  0.00000000E+00
  0.00000000E+00  0.00000000E+00  0.00000000E+00
  0.00000000E+00  0.00000000E+00  0.00000000E+00
  0.00000000E+00  0.00000000E+00  0.00000000E+00
  0.00000000E+00  0.00000000E+00  0.00000000E+00
  0.00000000E+00  0.00000000E+00  0.00000000E+00
  0.00000000E+00  0.00000000E+00  0.00000000E+00
  0.00000000E+00  0.00000000E+00  0.00000000E+00
  0.00000000E+00  0.00000000E+00  0.00000000E+00
  0.00000000E+00  0.00000000E+00  0.00000000E+00
  0.00000000E+00  0.00000000E+00  0.00000000E+00
  0.00000000E+00  0.00000000E+00  0.00000000E+00
  0.00000000E+00  0.00000000E+00  0.00000000E+00
  0.00000000E+00  0.00000000E+00  0.00000000E+00
  0.00000000E+00  0.00000000E+00  0.00000000E+00
  0.00000000E+00  0.00000000E+00  0.00000000E+00
  0.00000000E+00  0.00000000E+00  0.00000000E+00
  0.00000000E+00  0.00000000E+00  0.00000000E+00
  0.00000000E+00  0.00000000E+00  0.00000000E+00
  0.00000000E+00  0.00000000E+00  0.00000000E+00
  0.00000000E+00  0.00000000E+00  0.00000000E+00
  0.00000000E+00  0.00000000E+00  0.00000000E+00
  0.00000000E+00  0.00000000E+00  0.00000000E+00
  0.00000000E+00  0.00000000E+00  0.00000000E+00
  0.00000000E+00  0.00000000E+00  0.00000000E+00
  0.00000000E+00  0.00000000E+00  0.00000000E+00
  0.00000000E+00  0.00000000E+00  0.00000000E+00
  0.00000000E+00  0.00000000E+00  0.00000000E+00
  0.00000000E+00  0.00000000E+00  0.00000000E+00
  0.00000000E+00  0.00000000E+00  0.00000000E+00
  0.00000000E+00  0.00000000E+00  0.00000000E+00
  0.00000000E+00  0.00000000E+00  0.00000000E+00
  0.00000000E+00  0.00000000E+00  0.00000000E+00
  0.00000000E+00  0.00000000E+00  0.00000000E+00
  0.00000000E+00  0.00000000E+00  0.00000000E+00
  0.00000000E+00  0.00000000E+00  0.00000000E+00
  0.00000000E+00  0.00000000E+00  0.00000000E+00
  0.00000000E+00  0.00000000E+00  0.00000000E+00
  0.00000000E+00  0.00000000E+00  0.00000000E+00
  0.00000000E+00  0.00000000E+00  0.00000000E+00
  0.00000000E+00  0.00000000E+00  0.00000000E+00
  0.00000000E+00  0.00000000E+00  0.00000000E+00
  0.00000000E+00  0.00000000E+00  0.00000000E+00
  0.00000000E+00  0.00000000E+00  0.00000000E+00
  0.00000000E+00  0.00000000E+00  0.00000000E+00
  0.00000000E+00  0.00000000E+00  0.00000000E+00
  0.00000000E+00  0.00000000E+00  0.00000000E+00
  0.00000000E+00  0.00000000E+00  0.00000000E+00
  0.00000000E+00  0.00000000E+00  0.00000000E+00
  0.00000000E+00  0.00000000E+00  0.00000000E+00
  0.00000000E+00  0.00000000E+00  0.00000000E+00
  0.00000000E+00  0.00000000E+00  0.00000000E+00
  0.00000000E+00  0.00000000E+00  0.00000000E+00
  0.00000000E+00  0.00000000E+00  0.00000000E+00
  0.00000000E+00  0.00000000E+00  0.00000000E+00
  0.00000000E+00  0.00000000E+00  0.00000000E+00
  0.00000000E+00  0.00000000E+00  0.00000000E+00
  0.00000000E+00  0.00000000E+00  0.00000000E+00
  0.00000000E+00  0.00000000E+00  0.00000000E+00
  0.00000000E+00  0.00000000E+00  0.00000000E+00
  0.00000000E+00  0.00000000E+00  0.00000000E+00
  0.00000000E+00  0.00000000E+00  0.00000000E+00
  0.00000000E+00  0.00000000E+00  0.00000000E+00
  0.00000000E+00  0.00000000E+00  0.00000000E+00
  0.00000000E+00  0.00000000E+00  0.00000000E+00
  0.00000000E+00  0.00000000E+00  0.00000000E+00
  0.00000000E+00  0.00000000E+00  0.00000000E+00
  0.00000000E+00  0.00000000E+00  0.00000000E+00
  0.00000000E+00  0.00000000E+00  0.00000000E+00
  0.00000000E+00  0.00000000E+00  0.00000000E+00
  0.00000000E+00  0.00000000E+00  0.00000000E+00
  0.00000000E+00  0.00000000E+00  0.00000000E+00
  0.00000000E+00  0.00000000E+00  0.00000000E+00
  0.00000000E+00  0.00000000E+00  0.00000000E+00
  0.00000000E+00  0.00000000E+00  0.00000000E+00
  0.00000000E+00  0.00000000E+00  0.00000000E+00
  0.00000000E+00  0.00000000E+00  0.00000000E+00
  0.00000000E+00  0.00000000E+00  0.00000000E+00
  0.00000000E+00  0.00000000E+00  0.00000000E+00
  0.00000000E+00  0.00000000E+00  0.00000000E+00
  0.00000000E+00  0.00000000E+00  0.00000000E+00
  0.00000000E+00  0.00000000E+00  0.00000000E+00
  0.00000000E+00  0.00000000E+00  0.00000000E+00
  0.00000000E+00  0.00000000E+00  0.00000000E+00
  0.00000000E+00  0.00000000E+00  0.00000000E+00
  0.00000000E+00  0.00000000E+00  0.00000000E+00
  0.00000000E+00  0.00000000E+00  0.00000000E+00
  0.00000000E+00  0.00000000E+00  0.00000000E+00
  0.00000000E+00  0.00000000E+00  0.00000000E+00
  0.00000000E+00  0.00000000E+00  0.00000000E+00
  0.00000000E+00  0.00000000E+00  0.00000000E+00
  0.00000000E+00  0.00000000E+00  0.00000000E+00
  0.00000000E+00  0.00000000E+00  0.00000000E+00
  0.00000000E+00  0.00000000E+00  0.00000000E+00
  0.00000000E+00  0.00000000E+00  0.00000000E+00
  0.00000000E+00  0.00000000E+00  0.00000000E+00
  0.00000000E+00  0.00000000E+00  0.00000000E+00
  0.00000000E+00  0.00000000E+00  0.00000000E+00
  0.00000000E+00  0.00000000E+00  0.00000000E+00
  0.00000000E+00  0.00000000E+00  0.00000000E+00
  0.00000000E+00  0.00000000E+00  0.00000000E+00
  0.00000000E+00  0.00000000E+00  0.00000000E+00
  0.00000000E+00  0.00000000E+00  0.00000000E+00
  0.00000000E+00  0.00000000E+00  0.00000000E+00
  0.00000000E+00  0.00000000E+00  0.00000000E+00
  0.00000000E+00  0.00000000E+00  0.00000000E+00
  0.00000000E+00  0.00000000E+00  0.00000000E+00
  0.00000000E+00  0.00000000E+00  0.00000000E+00
  0.00000000E+00  0.00000000E+00  0.00000000E+00
  0.00000000E+00  0.00000000E+00  0.00000000E+00
  0.00000000E+00  0.00000000E+00  0.00000000E+00
  0.00000000E+00  0.00000000E+00  0.00000000E+00
  0.00000000E+00  0.00000000E+00  0.00000000E+00
  0.00000000E+00  0.00000000E+00  0.00000000E+00
  0.00000000E+00  0.00000000E+00  0.00000000E+00
  0.00000000E+00  0.00000000E+00  0.00000000E+00
  0.00000000E+00  0.00000000E+00  0.00000000E+00
  0.00000000E+00  0.00000000E+00  0.00000000E+00
  0.00000000E+00  0.00000000E+00  0.00000000E+00
  0.00000000E+00  0.00000000E+00  0.00000000E+00
  0.00000000E+00  0.00000000E+00  0.00000000E+00
  0.00000000E+00  0.00000000E+00  0.00000000E+00
  0.00000000E+00  0.00000000E+00  0.00000000E+00
  0.00000000E+00  0.00000000E+00  0.00000000E+00
  0.00000000E+00  0.00000000E+00  0.00000000E+00
  0.00000000E+00  0.00000000E+00  0.00000000E+00
  0.00000000E+00  0.00000000E+00  0.00000000E+00
  0.00000000E+00  0.00000000E+00  0.00000000E+00
  0.00000000E+00  0.00000000E+00  0.00000000E+00
  0.00000000E+00  0.00000000E+00  0.00000000E+00
  0.00000000E+00  0.00000000E+00  0.00000000E+00
  0.00000000E+00  0.00000000E+00  0.00000000E+00
  0.00000000E+00  0.00000000E+00  0.00000000E+00
  0.00000000E+00  0.00000000E+00  0.00000000E+00
  0.00000000E+00  0.00000000E+00  0.00000000E+00
  0.00000000E+00  0.00000000E+00  0.00000000E+00
  0.00000000E+00  0.00000000E+00  0.00000000E+00
  0.00000000E+00  0.00000000E+00  0.00000000E+00
  0.00000000E+00  0.00000000E+00  0.00000000E+00
  0.00000000E+00  0.00000000E+00  0.00000000E+00
  0.00000000E+00  0.00000000E+00  0.00000000E+00
  0.00000000E+00  0.00000000E+00  0.00000000E+00
  0.00000000E+00  0.00000000E+00  0.00000000E+00
  0.00000000E+00  0.00000000E+00  0.00000000E+00
  0.00000000E+00  0.00000000E+00  0.00000000E+00
  0.00000000E+00  0.00000000E+00  0.00000000E+00
  0.00000000E+00  0.00000000E+00  0.00000000E+00
  0.00000000E+00  0.00000000E+00  0.00000000E+00
  0.00000000E+00  0.00000000E+00  0.00000000E+00
  0.00000000E+00  0.00000000E+00  0.00000000E+00
  0.00000000E+00  0.00000000E+00  0.00000000E+00
  0.00000000E+00  0.00000000E+00  0.00000000E+00
  0.00000000E+00  0.00000000E+00  0.00000000E+00
  0.00000000E+00  0.00000000E+00  0.00000000E+00
  0.00000000E+00  0.00000000E+00  0.00000000E+00
  0.00000000E+00  0.00000000E+00  0.00000000E+00
  0.00000000E+00  0.00000000E+00  0.00000000E+00
  0.00000000E+00  0.00000000E+00  0.00000000E+00
  0.00000000E+00  0.00000000E+00  0.00000000E+00
  0.00000000E+00  0.00000000E+00  0.00000000E+00
  0.00000000E+00  0.00000000E+00  0.00000000E+00
  0.00000000E+00  0.00000000E+00  0.00000000E+00
  0.00000000E+00  0.00000000E+00  0.00000000E+00
  0.00000000E+00  0.00000000E+00  0.00000000E+00
  0.00000000E+00  0.00000000E+00  0.00000000E+00
  0.00000000E+00  0.00000000E+00  0.00000000E+00
  0.00000000E+00  0.00000000E+00  0.00000000E+00
  0.00000000E+00  0.00000000E+00  0.00000000E+00
  0.00000000E+00  0.00000000E+00  0.00000000E+00
  0.00000000E+00  0.00000000E+00  0.00000000E+00
  0.00000000E+00  0.00000000E+00  0.00000000E+00
  0.00000000E+00  0.00000000E+00  0.00000000E+00
  0.00000000E+00  0.00000000E+00  0.00000000E+00
  0.00000000E+00  0.00000000E+00  0.00000000E+00
  0.00000000E+00  0.00000000E+00  0.00000000E+00
  0.00000000E+00  0.00000000E+00  0.00000000E+00
  0.00000000E+00  0.00000000E+00  0.00000000E+00
  0.00000000E+00  0.00000000E+00  0.00000000E+00
  0.00000000E+00  0.00000000E+00  0.00000000E+00
  0.00000000E+00  0.00000000E+00  0.00000000E+00
  0.00000000E+00  0.00000000E+00  0.00000000E+00
  0.00000000E+00  0.00000000E+00  0.00000000E+00
  0.00000000E+00  0.00000000E+00  0.00000000E+00
  0.00000000E+00  0.00000000E+00  0.00000000E+00
  0.00000000E+00  0.00000000E+00  0.00000000E+00
  0.00000000E+00  0.00000000E+00  0.00000000E+00
  0.00000000E+00  0.00000000E+00  0.00000000E+00
  0.00000000E+00  0.00000000E+00  0.00000000E+00
  0.00000000E+00  0.00000000E+00  0.00000000E+00
  0.00000000E+00  0.00000000E+00  0.00000000E+00
  0.00000000E+00  0.00000000E+00  0.00000000E+00
  0.00000000E+00  0.00000000E+00  0.00000000E+00
  0.00000000E+00  0.00000000E+00  0.00000000E+00
  0.00000000E+00  0.00000000E+00  0.00000000E+00
  0.00000000E+00  0.00000000E+00  0.00000000E+00
  0.00000000E+00  0.00000000E+00  0.00000000E+00
  0.00000000E+00  0.00000000E+00  0.00000000E+00
  0.00000000E+00  0.00000000E+00  0.00000000E+00
  0.00000000E+00  0.00000000E+00  0.00000000E+00
  0.00000000E+00  0.00000000E+00  0.00000000E+00
  0.00000000E+00  0.00000000E+00  0.00000000E+00
  0.00000000E+00  0.00000000E+00  0.00000000E+00
  0.00000000E+00  0.00000000E+00  0.00000000E+00
  0.00000000E+00  0.00000000E+00  0.00000000E+00
  0.00000000E+00  0.00000000E+00  0.00000000E+00
  0.00000000E+00  0.00000000E+00  0.00000000E+00
  0.00000000E+00  0.00000000E+00  0.00000000E+00
  0.00000000E+00  0.00000000E+00  0.00000000E+00
  0.00000000E+00  0.00000000E+00  0.00000000E+00
  0.00000000E+00  0.00000000E+00  0.00000000E+00
  0.00000000E+00  0.00000000E+00  0.00000000E+00
  0.00000000E+00  0.00000000E+00  0.00000000E+00
  0.00000000E+00  0.00000000E+00  0.00000000E+00
  0.00000000E+00  0.00000000E+00  0.00000000E+00
  0.00000000E+00  0.00000000E+00  0.00000000E+00
  0.00000000E+00  0.00000000E+00  0.00000000E+00
  0.00000000E+00  0.00000000E+00  0.00000000E+00
  0.00000000E+00  0.00000000E+00  0.00000000E+00
  0.00000000E+00  0.00000000E+00  0.00000000E+00
  0.00000000E+00  0.00000000E+00  0.00000000E+00
  0.00000000E+00  0.00000000E+00  0.00000000E+00
  0.00000000E+00  0.00000000E+00  0.00000000E+00
  0.00000000E+00  0.00000000E+00  0.00000000E+00
  0.00000000E+00  0.00000000E+00  0.00000000E+00
  0.00000000E+00  0.00000000E+00  0.00000000E+00
  0.00000000E+00  0.00000000E+00  0.00000000E+00
