TiOF2 2x2x2 config 0255                 
   1.00000000000000     
     7.8640098309145161   -0.0000000033267143    0.0000000133180973
     0.0000000033869831    7.6414535458879600   -0.0000000020349588
     0.0000000127854360   -0.0000000033633740    7.6502232339969041
   Ti   O    F 
     8     8    16
Direct
  0.9999999998600373  0.9887289706621090  0.9881573436440902
  0.0000000001296314  0.9887289762212461  0.5118426775713090
  0.9999999998562572  0.5112711090480957  0.9881573182760164
  0.0000000001495124  0.5112711143643409  0.5118426571534016
  0.5000000001402185  0.9887288868896249  0.0118426727616168
  0.4999999998587299  0.9887288828614658  0.4881573513737152
  0.5000000001329425  0.5112710283949227  0.0118426506813663
  0.4999999998742908  0.5112710236262998  0.4881573283503968
  0.9999999997681783  0.7500000353660781  0.0069258044538145
  0.0000000002286882  0.7500000422858051  0.4930741924445528
  0.5000000002296972  0.7499999628074931  0.9930743124785693
  0.4999999997713616  0.7499999568853610  0.5069256897269554
  0.9999999999871676  0.0059382700263484  0.7500000097044932
  0.0000000000104663  0.4940618184711880  0.7499999885667776
  0.4999999999857678  0.0059382835137214  0.2500000112592176
  0.5000000000074039  0.4940616026243632  0.2499999902382655
  0.2500000061133534  0.0060056904472319  0.9999999458037934
  0.2500000075816544  0.0060056859417585  0.5000001095340991
  0.2499999996329834  0.4939943257794752  0.9999999441647063
  0.2499999983198293  0.4939943318309403  0.5000000014866828
  0.7499999938907678  0.0060056845801100  0.9999999458058397
  0.7499999924129384  0.0060056918135203  0.5000001095332607
  0.7500000003555130  0.4939943316265456  0.9999999441657010
  0.7500000016942892  0.4939943259596404  0.5000000014766854
  0.9999999916213511  0.2500000363530077  0.0090281559330521
  0.0000000083812282  0.2500000368926365  0.4909718412517634
  0.5000000083827132  0.2499999637516623  0.9909717367508009
  0.4999999916229854  0.2499999639918187  0.5090282655819323
  0.0000000000163354  0.0083757091499450  0.2500000022905837
  0.9999999999904858  0.4916243942079888  0.2499999955760899
  0.5000000000126974  0.0083754814393089  0.7500000043711026
  0.4999999999805169  0.4916243821859396  0.7499999975893417
 
  0.00000000E+00  0.00000000E+00  0.00000000E+00
  0.00000000E+00  0.00000000E+00  0.00000000E+00
  0.00000000E+00  0.00000000E+00  0.00000000E+00
  0.00000000E+00  0.00000000E+00  0.00000000E+00
  0.00000000E+00  0.00000000E+00  0.00000000E+00
  0.00000000E+00  0.00000000E+00  0.00000000E+00
  0.00000000E+00  0.00000000E+00  0.00000000E+00
  0.00000000E+00  0.00000000E+00  0.00000000E+00
  0.00000000E+00  0.00000000E+00  0.00000000E+00
  0.00000000E+00  0.00000000E+00  0.00000000E+00
  0.00000000E+00  0.00000000E+00  0.00000000E+00
  0.00000000E+00  0.00000000E+00  0.00000000E+00
  0.00000000E+00  0.00000000E+00  0.00000000E+00
  0.00000000E+00  0.00000000E+00  0.00000000E+00
  0.00000000E+00  0.00000000E+00  0.00000000E+00
  0.00000000E+00  0.00000000E+00  0.00000000E+00
  0.00000000E+00  0.00000000E+00  0.00000000E+00
  0.00000000E+00  0.00000000E+00  0.00000000E+00
  0.00000000E+00  0.00000000E+00  0.00000000E+00
  0.00000000E+00  0.00000000E+00  0.00000000E+00
  0.00000000E+00  0.00000000E+00  0.00000000E+00
  0.00000000E+00  0.00000000E+00  0.00000000E+00
  0.00000000E+00  0.00000000E+00  0.00000000E+00
  0.00000000E+00  0.00000000E+00  0.00000000E+00
  0.00000000E+00  0.00000000E+00  0.00000000E+00
  0.00000000E+00  0.00000000E+00  0.00000000E+00
  0.00000000E+00  0.00000000E+00  0.00000000E+00
  0.00000000E+00  0.00000000E+00  0.00000000E+00
  0.00000000E+00  0.00000000E+00  0.00000000E+00
  0.00000000E+00  0.00000000E+00  0.00000000E+00
  0.00000000E+00  0.00000000E+00  0.00000000E+00
  0.00000000E+00  0.00000000E+00  0.00000000E+00
