TiOF2 2x2x2 config 0255                 
   1.00000000000000     
     7.8640098309145161   -0.0000000033267143    0.0000000133180973
     0.0000000033869831    7.6414535458879600   -0.0000000020349588
     0.0000000127854360   -0.0000000033633740    7.6502232339969041
   Ti   O    F 
     8     8    16
Direct
 -0.0000000001399628 -0.0112710293378879 -0.0118426563559078
  0.0000000001296327 -0.0112710237787515  0.5118426775713089
 -0.0000000001437406  0.5112711090480968 -0.0118426817239838
  0.0000000001495148  0.5112711143643434  0.5118426571534028
  0.5000000001402189 -0.0112711131103762  0.0118426727616143
  0.4999999998587316 -0.0112711171385359  0.4881573513737150
  0.5000000001329402  0.5112710283949199  0.0118426506813647
  0.4999999998742927  0.5112710236263028  0.4881573283503948
 -0.0000000002318207  0.7500000353660756  0.0069258044538175
  0.0000000002286863  0.7500000422858049  0.4930741924445515
  0.5000000002296990  0.7499999628074950 -0.0069256875214301
  0.4999999997713637  0.7499999568853616  0.5069256897269537
 -0.0000000000128325  0.0059382700263498  0.7500000097044919
  0.0000000000104645  0.4940618184711886  0.7499999885667809
  0.4999999999857678  0.0059382835137206  0.2500000112592144
  0.5000000000074064  0.4940616026243618  0.2499999902382626
  0.2500000061133505  0.0060056904472304 -0.0000000541962034
  0.2500000075816523  0.0060056859417588  0.5000001095341016
  0.2499999996329802  0.4939943257794736 -0.0000000558352904
  0.2499999983198323  0.4939943318309425  0.5000000014866822
  0.7499999938907684  0.0060056845801070 -0.0000000541941612
  0.7499999924129414  0.0060056918135232  0.5000001095332623
  0.7500000003555102  0.4939943316265427 -0.0000000558342972
  0.7500000016942896  0.4939943259596375  0.5000000014766857
 -0.0000000083786500  0.2500000363530078  0.0090281559330507
  0.0000000083812317  0.2500000368926372  0.4909718412517661
  0.5000000083827120  0.2499999637516628 -0.0090282632491956
  0.4999999916229865  0.2499999639918195  0.5090282655819336
  0.0000000000163324  0.0083757091499483  0.2500000022905839
 -0.0000000000095122  0.4916243942079915  0.2499999955760880
  0.5000000000126994  0.0083754814393076  0.7500000043711041
  0.4999999999805144  0.4916243821859412  0.7499999975893383
 
  0.00000000E+00  0.00000000E+00  0.00000000E+00
  0.00000000E+00  0.00000000E+00  0.00000000E+00
  0.00000000E+00  0.00000000E+00  0.00000000E+00
  0.00000000E+00  0.00000000E+00  0.00000000E+00
  0.00000000E+00  0.00000000E+00  0.00000000E+00
  0.00000000E+00  0.00000000E+00  0.00000000E+00
  0.00000000E+00  0.00000000E+00  0.00000000E+00
  0.00000000E+00  0.00000000E+00  0.00000000E+00
  0.00000000E+00  0.00000000E+00  0.00000000E+00
  0.00000000E+00  0.00000000E+00  0.00000000E+00
  0.00000000E+00  0.00000000E+00  0.00000000E+00
  0.00000000E+00  0.00000000E+00  0.00000000E+00
  0.00000000E+00  0.00000000E+00  0.00000000E+00
  0.00000000E+00  0.00000000E+00  0.00000000E+00
  0.00000000E+00  0.00000000E+00  0.00000000E+00
  0.00000000E+00  0.00000000E+00  0.00000000E+00
  0.00000000E+00  0.00000000E+00  0.00000000E+00
  0.00000000E+00  0.00000000E+00  0.00000000E+00
  0.00000000E+00  0.00000000E+00  0.00000000E+00
  0.00000000E+00  0.00000000E+00  0.00000000E+00
  0.00000000E+00  0.00000000E+00  0.00000000E+00
  0.00000000E+00  0.00000000E+00  0.00000000E+00
  0.00000000E+00  0.00000000E+00  0.00000000E+00
  0.00000000E+00  0.00000000E+00  0.00000000E+00
  0.00000000E+00  0.00000000E+00  0.00000000E+00
  0.00000000E+00  0.00000000E+00  0.00000000E+00
  0.00000000E+00  0.00000000E+00  0.00000000E+00
  0.00000000E+00  0.00000000E+00  0.00000000E+00
  0.00000000E+00  0.00000000E+00  0.00000000E+00
  0.00000000E+00  0.00000000E+00  0.00000000E+00
  0.00000000E+00  0.00000000E+00  0.00000000E+00
  0.00000000E+00  0.00000000E+00  0.00000000E+00
