Ti27 O27 F54                            
   1.00000000000000     
    11.5791921522762298   -0.0077873817615679    0.0130121764888986
    -0.0077807697247233   11.5930907275842774    0.0040620761601974
     0.0130459821169900    0.0041002201884906   11.5987308977319490
   Ti   O    F 
    27    27    54
Direct
  0.0095305216761901  0.0095855434956746  0.0089059461752683
  0.0007305486035776  0.9886295826803959  0.3219228492935926
  0.9867366651050276  0.0006680030670125  0.6669759747689170
  0.9898582434573910  0.3209130346162823  0.0001434500812039
  0.0068430400083770  0.3333898399136075  0.3434850406338086
  0.0001925336527293  0.3443573728512845  0.6580652619950627
  0.0004835115562685  0.6671760909657038  0.9990995712312412
  0.9917061245293439  0.6750741182535407  0.3423058499554301
  0.0002878123437213  0.6570079994549616  0.6541717689807669
  0.3199461408398605  0.0092702916383018  0.9993343525084271
  0.3426394092612739  0.9913001911142842  0.3420804251828997
  0.3324166699783220  0.9903550278580653  0.6555976418684750
  0.3327641794919600  0.3237759991186664  0.9905582354283879
  0.3213035442950414  0.3338155805717022  0.3332349279620104
  0.3436077889016786  0.3340494621812127  0.6769678518162081
  0.3449906021246463  0.6671286284428533  0.0093377937523016
  0.3326907091220690  0.6783327531796957  0.3241226893946418
  0.3450590382498788  0.6750381301200434  0.6674056180616361
  0.6664659020280155  0.9996020519666828  0.0001004138223664
  0.6558578676075939  0.0045480349683729  0.3442325288831825
  0.6703742978203735  0.9894552967592318  0.6559023905717254
  0.6752694793420844  0.3429083674964133  0.9917064826466060
  0.6662240420769905  0.3202508105054847  0.3339575328640620
  0.6569563237388607  0.3339415137693678  0.6785206614202295
  0.6561790001011261  0.6544713868272964  0.9999589075088906
  0.6783134419264343  0.6649929428513559  0.3439944374641684
  0.6578377520835232  0.6763275567768261  0.6588860340144080
  0.0039425523517238  0.1668422530622422  0.9967428666991722
  0.9985021475147846  0.4994137591543435  0.6734034992740092
  0.0094085715588577  0.8332956451896223  0.3345069772734774
  0.3308909634196695  0.1672170863603881  0.0040840703725991
  0.3242810878168356  0.8319651567199742  0.3373557661792432
  0.3380907379221512  0.8329169390849600  0.6657011134913304
  0.6705707032693482  0.1687048511842377  0.3328503936697658
  0.6671362806689203  0.5009215879153075  0.0033556581484433
  0.6596739732715662  0.8342539541092933  0.6756482869973937
  0.1664763841537606  0.9914703871496471  0.9960764997376401
  0.1675039351578675  0.3316441201675602  0.3315940725538269
  0.5000570827171700  0.9985271050015712  0.3240646668698730
  0.4996893585447779  0.3401853959432444  0.6591517173305590
  0.5005363443751492  0.6703774776495237  0.9925891540514655
  0.4992452431168601  0.6543149131288857  0.6731927088629845
  0.8348690940900525  0.0008877784910339  0.6673630194871762
  0.8339514226667006  0.3315301830693613  0.0006286768620782
  0.8344997989865846  0.6643475714691860  0.3246849632005677
  0.9942855057574889  0.9982224690079420  0.1655320684603652
  0.9962940476590489  0.3349643347741917  0.4990267810602802
  0.9986051772625544  0.6616179604045129  0.5007243913161119
  0.3337618285655424  0.0071089439994410  0.5009411926105969
  0.3345435530314589  0.3358972394979034  0.8342888468072687
  0.3319964612333521  0.6671885387925869  0.1649662085504957
  0.6611890357985715  0.9950926751943712  0.4999700035781345
  0.6610646842630459  0.3282891636308491  0.8342649540743992
  0.6697110411889255  0.6673683989931689  0.4995053248084034
  0.9905338934684949  0.1676787964242692  0.3318649549790180
  0.0039709523770952  0.1669407710089743  0.6736575593602581
  0.0010280428922584  0.5040710450215116  0.9964752659245164
  0.0008717695692155  0.4992220493931399  0.3238415828787637
  0.9920925306386934  0.8302773053784094  0.9990511925350489
  0.0040575417141469  0.8336463337095097  0.6658110347772990
  0.3376783989148038  0.1693138356524102  0.3227067581388354
  0.3301011865209134  0.1672887082008288  0.6711276730570077
  0.3315051900343562  0.5000732288340473  0.0007075613521792
  0.3391621362822335  0.4984212007474653  0.3381691603537433
  0.3194809618588792  0.4992629392735353  0.6617439312769307
  0.3354725218398542  0.8342230091326215  0.9931830863088038
  0.6615234694252266  0.1628429379926359  0.0091825206137202
  0.6661151094253839  0.1674645063283151  0.6621136713068765
  0.6609720455419676  0.4978878541691714  0.3270785839563572
  0.6816478592166888  0.4996838720534029  0.6696328100560507
  0.6733588240864421  0.8359991621366518  0.9940486034633338
  0.6683897329872437  0.8329099571757936  0.3248191410697956
  0.1669192404443933  0.0156931908122075  0.3302772995045231
  0.1649288499395851  0.0008000954987182  0.6738822535922182
  0.1657565603951241  0.3430086002262982  0.0064472164834299
  0.1671084648268888  0.3290554988557943  0.6632266273949980
  0.1638853394237785  0.6716612821713213  0.9950243902912490
  0.1663926109275664  0.6521442459624964  0.3327532752402149
  0.1661979230409045  0.6692927687948824  0.6706001926143230
  0.5031424774304085  0.9934270231104918  0.0064513838067981
  0.4994398776369664  0.0120993915893521  0.6750055817321936
  0.4996847025159710  0.3329192466255861  0.0075958263135476
  0.4990602849569541  0.3328515831903474  0.3403344872189038
  0.5005745244998963  0.6678278275958434  0.3327454404801102
  0.8303047776791388  0.0012278803693846  0.9904695469915410
  0.8334066615221829  0.9958107819684088  0.3384091694821549
  0.8330926332351041  0.3414328052368134  0.3249834029170700
  0.8340895295516830  0.3248385798086773  0.6715368632634195
  0.8366313768386178  0.6675635305156362  0.0069740692093845
  0.8351429462090891  0.6736115141707728  0.6738242632425369
  0.0055809716583113  0.0058666209601839  0.5009238476797719
  0.9972960027940303  0.9923807235604016  0.8338495058933120
  0.0008736756871670  0.3351032925187027  0.1672162597009503
  0.0070921375246158  0.3344584584271146  0.8331876449974587
  0.0093539974291303  0.6656679732919031  0.1616089136758276
  0.9979942737348040  0.6718201340553307  0.8364768251299566
  0.3301226240918851  0.9943382869748447  0.1653449488798486
  0.3400297193456794  0.0023501749951009  0.8335526107415703
  0.3379634638166493  0.3423112858356134  0.1677659321475460
  0.3297854315281370  0.3269806144482459  0.4991755269424942
  0.3315795969651845  0.6597896831759229  0.4994003588670068
  0.3233994874080750  0.6607622746687341  0.8348934342901799
  0.6780725231251381  0.9952766863242317  0.1623912440896689
  0.6616019156164654  0.0107588047832365  0.8378034674799650
  0.6607109697604727  0.3315575176549928  0.1674386135589501
  0.6764265730762489  0.3388260157008176  0.4994667259114038
  0.6628491936492793  0.6735395847459458  0.1653380776414437
  0.6795042886354281  0.6648070081532964  0.8352211605719262
 
  0.00000000E+00  0.00000000E+00  0.00000000E+00
  0.00000000E+00  0.00000000E+00  0.00000000E+00
  0.00000000E+00  0.00000000E+00  0.00000000E+00
  0.00000000E+00  0.00000000E+00  0.00000000E+00
  0.00000000E+00  0.00000000E+00  0.00000000E+00
  0.00000000E+00  0.00000000E+00  0.00000000E+00
  0.00000000E+00  0.00000000E+00  0.00000000E+00
  0.00000000E+00  0.00000000E+00  0.00000000E+00
  0.00000000E+00  0.00000000E+00  0.00000000E+00
  0.00000000E+00  0.00000000E+00  0.00000000E+00
  0.00000000E+00  0.00000000E+00  0.00000000E+00
  0.00000000E+00  0.00000000E+00  0.00000000E+00
  0.00000000E+00  0.00000000E+00  0.00000000E+00
  0.00000000E+00  0.00000000E+00  0.00000000E+00
  0.00000000E+00  0.00000000E+00  0.00000000E+00
  0.00000000E+00  0.00000000E+00  0.00000000E+00
  0.00000000E+00  0.00000000E+00  0.00000000E+00
  0.00000000E+00  0.00000000E+00  0.00000000E+00
  0.00000000E+00  0.00000000E+00  0.00000000E+00
  0.00000000E+00  0.00000000E+00  0.00000000E+00
  0.00000000E+00  0.00000000E+00  0.00000000E+00
  0.00000000E+00  0.00000000E+00  0.00000000E+00
  0.00000000E+00  0.00000000E+00  0.00000000E+00
  0.00000000E+00  0.00000000E+00  0.00000000E+00
  0.00000000E+00  0.00000000E+00  0.00000000E+00
  0.00000000E+00  0.00000000E+00  0.00000000E+00
  0.00000000E+00  0.00000000E+00  0.00000000E+00
  0.00000000E+00  0.00000000E+00  0.00000000E+00
  0.00000000E+00  0.00000000E+00  0.00000000E+00
  0.00000000E+00  0.00000000E+00  0.00000000E+00
  0.00000000E+00  0.00000000E+00  0.00000000E+00
  0.00000000E+00  0.00000000E+00  0.00000000E+00
  0.00000000E+00  0.00000000E+00  0.00000000E+00
  0.00000000E+00  0.00000000E+00  0.00000000E+00
  0.00000000E+00  0.00000000E+00  0.00000000E+00
  0.00000000E+00  0.00000000E+00  0.00000000E+00
  0.00000000E+00  0.00000000E+00  0.00000000E+00
  0.00000000E+00  0.00000000E+00  0.00000000E+00
  0.00000000E+00  0.00000000E+00  0.00000000E+00
  0.00000000E+00  0.00000000E+00  0.00000000E+00
  0.00000000E+00  0.00000000E+00  0.00000000E+00
  0.00000000E+00  0.00000000E+00  0.00000000E+00
  0.00000000E+00  0.00000000E+00  0.00000000E+00
  0.00000000E+00  0.00000000E+00  0.00000000E+00
  0.00000000E+00  0.00000000E+00  0.00000000E+00
  0.00000000E+00  0.00000000E+00  0.00000000E+00
  0.00000000E+00  0.00000000E+00  0.00000000E+00
  0.00000000E+00  0.00000000E+00  0.00000000E+00
  0.00000000E+00  0.00000000E+00  0.00000000E+00
  0.00000000E+00  0.00000000E+00  0.00000000E+00
  0.00000000E+00  0.00000000E+00  0.00000000E+00
  0.00000000E+00  0.00000000E+00  0.00000000E+00
  0.00000000E+00  0.00000000E+00  0.00000000E+00
  0.00000000E+00  0.00000000E+00  0.00000000E+00
  0.00000000E+00  0.00000000E+00  0.00000000E+00
  0.00000000E+00  0.00000000E+00  0.00000000E+00
  0.00000000E+00  0.00000000E+00  0.00000000E+00
  0.00000000E+00  0.00000000E+00  0.00000000E+00
  0.00000000E+00  0.00000000E+00  0.00000000E+00
  0.00000000E+00  0.00000000E+00  0.00000000E+00
  0.00000000E+00  0.00000000E+00  0.00000000E+00
  0.00000000E+00  0.00000000E+00  0.00000000E+00
  0.00000000E+00  0.00000000E+00  0.00000000E+00
  0.00000000E+00  0.00000000E+00  0.00000000E+00
  0.00000000E+00  0.00000000E+00  0.00000000E+00
  0.00000000E+00  0.00000000E+00  0.00000000E+00
  0.00000000E+00  0.00000000E+00  0.00000000E+00
  0.00000000E+00  0.00000000E+00  0.00000000E+00
  0.00000000E+00  0.00000000E+00  0.00000000E+00
  0.00000000E+00  0.00000000E+00  0.00000000E+00
  0.00000000E+00  0.00000000E+00  0.00000000E+00
  0.00000000E+00  0.00000000E+00  0.00000000E+00
  0.00000000E+00  0.00000000E+00  0.00000000E+00
  0.00000000E+00  0.00000000E+00  0.00000000E+00
  0.00000000E+00  0.00000000E+00  0.00000000E+00
  0.00000000E+00  0.00000000E+00  0.00000000E+00
  0.00000000E+00  0.00000000E+00  0.00000000E+00
  0.00000000E+00  0.00000000E+00  0.00000000E+00
  0.00000000E+00  0.00000000E+00  0.00000000E+00
  0.00000000E+00  0.00000000E+00  0.00000000E+00
  0.00000000E+00  0.00000000E+00  0.00000000E+00
  0.00000000E+00  0.00000000E+00  0.00000000E+00
  0.00000000E+00  0.00000000E+00  0.00000000E+00
  0.00000000E+00  0.00000000E+00  0.00000000E+00
  0.00000000E+00  0.00000000E+00  0.00000000E+00
  0.00000000E+00  0.00000000E+00  0.00000000E+00
  0.00000000E+00  0.00000000E+00  0.00000000E+00
  0.00000000E+00  0.00000000E+00  0.00000000E+00
  0.00000000E+00  0.00000000E+00  0.00000000E+00
  0.00000000E+00  0.00000000E+00  0.00000000E+00
  0.00000000E+00  0.00000000E+00  0.00000000E+00
  0.00000000E+00  0.00000000E+00  0.00000000E+00
  0.00000000E+00  0.00000000E+00  0.00000000E+00
  0.00000000E+00  0.00000000E+00  0.00000000E+00
  0.00000000E+00  0.00000000E+00  0.00000000E+00
  0.00000000E+00  0.00000000E+00  0.00000000E+00
  0.00000000E+00  0.00000000E+00  0.00000000E+00
  0.00000000E+00  0.00000000E+00  0.00000000E+00
  0.00000000E+00  0.00000000E+00  0.00000000E+00
  0.00000000E+00  0.00000000E+00  0.00000000E+00
  0.00000000E+00  0.00000000E+00  0.00000000E+00
  0.00000000E+00  0.00000000E+00  0.00000000E+00
  0.00000000E+00  0.00000000E+00  0.00000000E+00
  0.00000000E+00  0.00000000E+00  0.00000000E+00
  0.00000000E+00  0.00000000E+00  0.00000000E+00
  0.00000000E+00  0.00000000E+00  0.00000000E+00
  0.00000000E+00  0.00000000E+00  0.00000000E+00
  0.00000000E+00  0.00000000E+00  0.00000000E+00
