TiOF2 2x2x2 config 0016                 
   1.00000000000000     
     7.9130974585991369   -0.0000115555591635   -0.0000200068662914
    -0.0000117329402094    7.7665038160660558    0.0000045873797058
    -0.0000193764644360    0.0000042410278898    7.5457433764534603
   Ti   O    F 
     8     8    16
Direct
  0.9999998289052469  0.0000028096224060  0.9872587172749610
  0.9999994771433837 -0.0000015310149323  0.5086188810707013
  0.0000004864130060  0.5000031887639397  0.0016546076406261
  0.0000003709374743  0.5000005549253885  0.5008655356155352
  0.5000000852386338  0.9999961564946366  0.9835380323443564
  0.4999993717903849  0.0000177132326138  0.5015906606462985
  0.5000004336870543  0.4999955862496349  0.9995378374337079
  0.5000000516410780  0.5000193421441654  0.4977398716705239
  0.5000001376867101  0.2421666142626829  0.4990492034755559
  0.4999990995576353  0.7578382023935408  0.4990484265679019
  0.9999993718811243 -0.0000001884172261  0.7507653218801442
  0.0000009744754522  0.5000015775345937  0.2497992727388332
  0.9999996347415229  0.5000030810956425  0.7521390652370175
  0.5000014084746255  0.9999935819384390  0.7565278189787529
  0.4999997320936029  0.4999957326446971  0.2455174990524175
  0.4999989225416900  0.4999924907490541  0.7583250622468777
  0.2444226084770534  0.0000015897785448  0.0059110963009898
  0.2386190159738634  0.9999893640703763  0.4914583148505600
  0.2454507279792021  0.5000017173806267  0.0010868114110661
  0.2428075035898466  0.4999968287030538  0.5014273516135176
  0.7555773934451535  0.0000027152294323  0.0059152422250997
  0.7613802621103819  0.9999881357869166  0.4914552043013602
  0.7545498613434656  0.5000015321421937  0.0010884251160004
  0.7571927256669168  0.4999993525444514  0.5014253799502937
  0.0000002785828066  0.2438645765795176  0.0059286134298342
  0.9999990976016899  0.2445641554245098  0.4954403577628348
  0.9999996459382074  0.7561410213446668  0.0059315002198676
  0.0000011335642878  0.7554354636595703  0.4954367266807229
  0.4999996802963314  0.2445608017340246  0.0082553402879038
  0.5000013803085678  0.7554336038822923  0.0082519314968669
  0.0000015410520117  0.0000044684113897  0.2479864440956715
  0.4999977568615641  0.9999897607092011  0.2410254463832132
 
  0.00000000E+00  0.00000000E+00  0.00000000E+00
  0.00000000E+00  0.00000000E+00  0.00000000E+00
  0.00000000E+00  0.00000000E+00  0.00000000E+00
  0.00000000E+00  0.00000000E+00  0.00000000E+00
  0.00000000E+00  0.00000000E+00  0.00000000E+00
  0.00000000E+00  0.00000000E+00  0.00000000E+00
  0.00000000E+00  0.00000000E+00  0.00000000E+00
  0.00000000E+00  0.00000000E+00  0.00000000E+00
  0.00000000E+00  0.00000000E+00  0.00000000E+00
  0.00000000E+00  0.00000000E+00  0.00000000E+00
  0.00000000E+00  0.00000000E+00  0.00000000E+00
  0.00000000E+00  0.00000000E+00  0.00000000E+00
  0.00000000E+00  0.00000000E+00  0.00000000E+00
  0.00000000E+00  0.00000000E+00  0.00000000E+00
  0.00000000E+00  0.00000000E+00  0.00000000E+00
  0.00000000E+00  0.00000000E+00  0.00000000E+00
  0.00000000E+00  0.00000000E+00  0.00000000E+00
  0.00000000E+00  0.00000000E+00  0.00000000E+00
  0.00000000E+00  0.00000000E+00  0.00000000E+00
  0.00000000E+00  0.00000000E+00  0.00000000E+00
  0.00000000E+00  0.00000000E+00  0.00000000E+00
  0.00000000E+00  0.00000000E+00  0.00000000E+00
  0.00000000E+00  0.00000000E+00  0.00000000E+00
  0.00000000E+00  0.00000000E+00  0.00000000E+00
  0.00000000E+00  0.00000000E+00  0.00000000E+00
  0.00000000E+00  0.00000000E+00  0.00000000E+00
  0.00000000E+00  0.00000000E+00  0.00000000E+00
  0.00000000E+00  0.00000000E+00  0.00000000E+00
  0.00000000E+00  0.00000000E+00  0.00000000E+00
  0.00000000E+00  0.00000000E+00  0.00000000E+00
  0.00000000E+00  0.00000000E+00  0.00000000E+00
  0.00000000E+00  0.00000000E+00  0.00000000E+00
