TiOF2 2x2x2 config 0406                 
   1.00000000000000     
     7.8858512655950737    0.0002017052450447   -0.0000207820721859
     0.0002016076657814    7.7952557457923426   -0.0000543342291545
    -0.0000181975298966   -0.0000548615125714    7.6940558622921458
   Ti   O    F 
     8     8    16
Direct
  0.0000514789456005  0.0003421562817110  0.9999996489529295
  0.0010373168436075  0.9999872354920569  0.4999996589770888
  0.0011224026257182  0.4998660133943602  0.9999995169938032
  0.9785423421007593  0.4999956647303563  0.5000000015046098
  0.5000900512377626  0.9880605081492959  0.0000009810632875
  0.5004605927372836  0.9997630389627119  0.5000012322294296
  0.5002449905836173  0.5105634747535177  0.0000017643547636
  0.4996932386711066  0.5002389583135383  0.5000006902209506
  0.7603727960633648  0.5000004341666227  0.5000013673583794
  0.4993482375970260  0.2475164293549312  0.5000034088614029
  0.5002871670912441  0.7510970308086442  0.9999966600259711
  0.4993820928741073  0.7523874173276965  0.5000009095324529
  0.5002995406195012  0.9987016349699473  0.2505519724893475
  0.5002970786445715  0.9986964983999727  0.7494494538513692
  0.4993646481988421  0.5014879480203902  0.2486473224097168
  0.4993686283766792  0.5014804633478533  0.7513500161876649
  0.2444922111833847  0.0030751375439237  0.0000030710168062
  0.2373741161261478  0.9999284133121904  0.4999997827049398
  0.2460348355618507  0.4970902246103748  0.9999936534030311
  0.2373395612881737  0.5000440919362816  0.4999970301112882
  0.7556090822042236  0.0030672583127469  0.9999977469150210
  0.7642217672235319  0.9999156030119636  0.4999993488092755
  0.7558386833375295  0.4972589927024345  0.0000064906059905
  0.9995556123254872  0.2494153538175183  0.9999996133344737
  0.0025662805893703  0.2439916385826066  0.5000003876342660
  0.9994813773103601  0.7508113657466851  0.9999999639332344
  0.0025611223358339  0.7559996354847556  0.4999997409202237
  0.5003283281125590  0.2489882668139316  0.9999999182639385
  0.9999668487984152  0.9998676093230614  0.2576899044977239
  0.9999671067302387  0.9998771154761243  0.7423094099032497
  0.0073452164486554  0.5002385376314678  0.2547621406787073
  0.0073552472134253  0.5002458492203132  0.7452371922546561
 
  0.00000000E+00  0.00000000E+00  0.00000000E+00
  0.00000000E+00  0.00000000E+00  0.00000000E+00
  0.00000000E+00  0.00000000E+00  0.00000000E+00
  0.00000000E+00  0.00000000E+00  0.00000000E+00
  0.00000000E+00  0.00000000E+00  0.00000000E+00
  0.00000000E+00  0.00000000E+00  0.00000000E+00
  0.00000000E+00  0.00000000E+00  0.00000000E+00
  0.00000000E+00  0.00000000E+00  0.00000000E+00
  0.00000000E+00  0.00000000E+00  0.00000000E+00
  0.00000000E+00  0.00000000E+00  0.00000000E+00
  0.00000000E+00  0.00000000E+00  0.00000000E+00
  0.00000000E+00  0.00000000E+00  0.00000000E+00
  0.00000000E+00  0.00000000E+00  0.00000000E+00
  0.00000000E+00  0.00000000E+00  0.00000000E+00
  0.00000000E+00  0.00000000E+00  0.00000000E+00
  0.00000000E+00  0.00000000E+00  0.00000000E+00
  0.00000000E+00  0.00000000E+00  0.00000000E+00
  0.00000000E+00  0.00000000E+00  0.00000000E+00
  0.00000000E+00  0.00000000E+00  0.00000000E+00
  0.00000000E+00  0.00000000E+00  0.00000000E+00
  0.00000000E+00  0.00000000E+00  0.00000000E+00
  0.00000000E+00  0.00000000E+00  0.00000000E+00
  0.00000000E+00  0.00000000E+00  0.00000000E+00
  0.00000000E+00  0.00000000E+00  0.00000000E+00
  0.00000000E+00  0.00000000E+00  0.00000000E+00
  0.00000000E+00  0.00000000E+00  0.00000000E+00
  0.00000000E+00  0.00000000E+00  0.00000000E+00
  0.00000000E+00  0.00000000E+00  0.00000000E+00
  0.00000000E+00  0.00000000E+00  0.00000000E+00
  0.00000000E+00  0.00000000E+00  0.00000000E+00
  0.00000000E+00  0.00000000E+00  0.00000000E+00
  0.00000000E+00  0.00000000E+00  0.00000000E+00
