TiOF2 2x2x2 config 0406                 
   1.00000000000000     
     7.8858512655950737    0.0002017052450447   -0.0000207820721859
     0.0002016076657814    7.7952557457923426   -0.0000543342291545
    -0.0000181975298966   -0.0000548615125714    7.6940558622921458
   Ti   O    F 
     8     8    16
Direct
  0.0000514789455995  0.0003421562817114 -0.0000003510470689
  0.0010373168436108 -0.0000127645079416  0.4999996589770861
  0.0011224026257175  0.4998660133943578 -0.0000004830061981
 -0.0214576578992436  0.4999956647303562  0.5000000015046119
  0.5000900512377624 -0.0119394918507067  0.0000009810632891
  0.5004605927372801 -0.0002369610372878  0.5000012322294299
  0.5002449905836150  0.5105634747535203  0.0000017643547632
  0.4996932386711073  0.5002389583135414  0.5000006902209494
  0.7603727960633661  0.5000004341666234  0.5000013673583759
  0.4993482375970286  0.2475164293549330  0.5000034088614029
  0.5002871670912474  0.7510970308086443 -0.0000033399740304
  0.4993820928741071  0.7523874173276974  0.5000009095324557
  0.5002995406195018 -0.0012983650300521  0.2505519724893450
  0.5002970786445715 -0.0013035016000272  0.7494494538513712
  0.4993646481988410  0.5014879480203904  0.2486473224097143
  0.4993686283766802  0.5014804633478513  0.7513500161876624
  0.2444922111833878  0.0030751375439203  0.0000030710168040
  0.2373741161261506 -0.0000715866878066  0.4999997827049428
  0.2460348355618516  0.4970902246103778 -0.0000063465969697
  0.2373395612881737  0.5000440919362793  0.4999970301112879
  0.7556090822042266  0.0030672583127451 -0.0000022530849812
  0.7642217672235326 -0.0000843969880343  0.4999993488092789
  0.7558386833375297  0.4972589927024311  0.0000064906059921
 -0.0004443876745111  0.2494153538175151 -0.0000003866655234
  0.0025662805893722  0.2439916385826095  0.5000003876342629
 -0.0005186226896408  0.7508113657466867 -0.0000000360667638
  0.0025611223358362  0.7559996354847590  0.4999997409202266
  0.5003283281125562  0.2489882668139342 -0.0000000817360605
 -0.0000331512015813 -0.0001323906769363  0.2576899044977261
 -0.0000328932697584 -0.0001228845238749  0.7423094099032509
  0.0073452164486553  0.5002385376314707  0.2547621406787065
  0.0073552472134253  0.5002458492203125  0.7452371922546587
 
  0.00000000E+00  0.00000000E+00  0.00000000E+00
  0.00000000E+00  0.00000000E+00  0.00000000E+00
  0.00000000E+00  0.00000000E+00  0.00000000E+00
  0.00000000E+00  0.00000000E+00  0.00000000E+00
  0.00000000E+00  0.00000000E+00  0.00000000E+00
  0.00000000E+00  0.00000000E+00  0.00000000E+00
  0.00000000E+00  0.00000000E+00  0.00000000E+00
  0.00000000E+00  0.00000000E+00  0.00000000E+00
  0.00000000E+00  0.00000000E+00  0.00000000E+00
  0.00000000E+00  0.00000000E+00  0.00000000E+00
  0.00000000E+00  0.00000000E+00  0.00000000E+00
  0.00000000E+00  0.00000000E+00  0.00000000E+00
  0.00000000E+00  0.00000000E+00  0.00000000E+00
  0.00000000E+00  0.00000000E+00  0.00000000E+00
  0.00000000E+00  0.00000000E+00  0.00000000E+00
  0.00000000E+00  0.00000000E+00  0.00000000E+00
  0.00000000E+00  0.00000000E+00  0.00000000E+00
  0.00000000E+00  0.00000000E+00  0.00000000E+00
  0.00000000E+00  0.00000000E+00  0.00000000E+00
  0.00000000E+00  0.00000000E+00  0.00000000E+00
  0.00000000E+00  0.00000000E+00  0.00000000E+00
  0.00000000E+00  0.00000000E+00  0.00000000E+00
  0.00000000E+00  0.00000000E+00  0.00000000E+00
  0.00000000E+00  0.00000000E+00  0.00000000E+00
  0.00000000E+00  0.00000000E+00  0.00000000E+00
  0.00000000E+00  0.00000000E+00  0.00000000E+00
  0.00000000E+00  0.00000000E+00  0.00000000E+00
  0.00000000E+00  0.00000000E+00  0.00000000E+00
  0.00000000E+00  0.00000000E+00  0.00000000E+00
  0.00000000E+00  0.00000000E+00  0.00000000E+00
  0.00000000E+00  0.00000000E+00  0.00000000E+00
  0.00000000E+00  0.00000000E+00  0.00000000E+00
