config 64                               
   1.00000000000000     
    15.4263309999999993    0.0000000000000000    0.0000000000000000
     0.0000000000000000   15.4263309999999993    0.0000000000000000
     0.0000000000000000    0.0000000000000000   15.4263309999999993
   Li   Ti   O    F 
     1    64    64   128
Direct
  0.8774526619874994  0.8044934025296063  0.8769067045153200
  0.9954359242145507  0.9955526281840512  0.9949993936100161
  0.9992062842720582  0.9924681827928589  0.4934620860497375
  0.0058800586874862  0.4956689302750397  0.9977774871644443
  0.9937371386685530  0.5034781431889598  0.5073272992809643
  0.4943143226687154  0.9940307053816321  1.0000525831092046
  0.5012564643736285  0.0081748112675018  0.4996289710945458
  0.5042434046314109  0.4956264136132763  0.9957959331918029
  0.4915677759149920  0.4992594892406206  0.4950637192706796
  0.0069188870952807  0.0032851896554919  0.2563895746388551
  0.0012598632660464  0.0084583684769174  0.7565614390175998
  0.9935585437990796  0.4938388537735001  0.2515032457106848
  0.9922299851096910  0.4995460103999633  0.7420041431842052
  0.5064113820162148  0.0083066289465343  0.2507489335533311
  0.4922224174973813  0.0049785318053889  0.7516282437360613
  0.4927874626112370  0.4966872932300071  0.2571302785049063
  0.5000410971949275  0.5039550234274903  0.7582324481408258
  0.9955553437085877  0.2577998095058529  0.0012748548240810
  0.9986903945158697  0.2486338344517070  0.4911139538855436
  0.0023053843622964  0.7576612857120809  0.0114749151114104
  0.9969203782020941  0.7570586698377821  0.5050221250691347
  0.4951886653420778  0.2581159816242323  0.0010519837447375
  0.5085489686834878  0.2456137593206765  0.4988673571002585
  0.5069744663117669  0.7562002438161354  0.9987928231979832
  0.5067990252405009  0.7529663708208503  0.5087296884888258
 -0.0002151325944306  0.2585179086909317  0.2549314700049130
  0.0063863241470465  0.2428550987353223  0.7474113604437609
  0.0076517807514632  0.7486754748075968  0.2461912831004144
  0.9933152345387999  0.7524197100762772  0.7404849981959956
  0.5082618632056706  0.2417961497447209  0.2516044003116943
  0.5067217730088015  0.2426408324133945  0.7501957024039865
  0.5071666700346597  0.7514082743194324  0.2515233365960777
  0.4994473947060372  0.7418549247690572  0.7435647524321872
  0.2563426128741284  0.9984950571166035  0.0063234227783583
  0.2499612280698566  0.9938538720008523  0.5066875663431136
  0.2437759684584896  0.5077764511231743  0.9976339049859373
  0.2540372889528575  0.4943834247600022  0.5065931983110742
  0.7569872218398781  0.9996379646817138  0.9949781574104772
  0.7505130271293586  0.0065844500692520  0.4936245095299580
  0.7417832545794705  0.5025450729200617  0.0042239011541678
  0.7550976005697194  0.4989247053149458  0.5051374120596080
  0.2449229570862212  0.0023495802008445  0.2440888652744302
  0.2572070884899619  0.9976495418993706  0.7443705019003485
  0.2551201004344175  0.4920610378432244  0.2518004242158779
  0.2470401833177462  0.5063035212777014  0.7410780773441475
  0.7451517952184706  0.0000149672658755  0.2558450452016035
  0.7486313365751177  0.0051859257627779  0.7569619751359882
  0.7556215332021685  0.5000173165269783  0.2422291658043813
  0.7564514562751842  0.4981716690400825  0.7422724078296723
  0.2573683658096820  0.2514024240191120  0.0059544226468029
  0.2532814095654561  0.2567882166916540  0.5054819670146337
  0.2537173356329508  0.7423875616750522  0.9940054465035151
  0.2515732717610277  0.7554173421752056  0.4934467389554399
  0.7573601375646892  0.2505128087569115  0.0066663856138261
  0.7428798417673328  0.2429179347976403  0.4967359313923855
  0.7403734847919918  0.7514990454778973  0.9939617835296958
  0.7413249889922491  0.7531051614177953  0.4917746084076798
  0.2513152957546372  0.2575614301167290  0.2436301438750662
  0.2441391395001382  0.2512673761718619  0.7437320674582882
  0.2447625285013635  0.7479607904642875  0.2563599834032276
  0.2480931587037040  0.7417555503137935  0.7571054197257995
  0.7424234692261884  0.2496271275223575  0.2421081808798582
  0.7448179177775629  0.2413588749589275  0.7511875630848970
  0.7461127427783301  0.7511947808290567  0.2552699288337087
  0.7533149384295968  0.7524604240111503  0.7507833046744560
  0.0082637381555014  0.5043068775371368  0.6247790555731760
  0.9941208788369791  0.0060465439606259  0.3763170863183388
  0.9965014910444797 -0.0006353278615170  0.8728894130784033
  0.4991167932651790  0.4930303883691753  0.3751043206694764
  0.4936868451708255  0.4965053931561054  0.8745260399858320
  0.9983763218697458  0.7453612802659232  0.1282823483026904
  0.9980074486047271  0.7442775000901730  0.6227805936854049
  0.5019639567109376  0.7520498995439387  0.6246885826790926
  0.9943685655677919  0.2477953745751463  0.3762541469953464
  0.2529237328604901  0.0027134752218950  0.1257423860440298
  0.2519386309837840  0.0030648812797297  0.6253176589284011
  0.2385437581770421  0.4957105723064035  0.6257795357832733
  0.7502880359634746  0.5000303959723726  0.1251368564863453
  0.7449803893044383  0.5003645568641178  0.6234016735040719
  0.7528648640523179  0.9928574923973126  0.3756014342622311
  0.7500386120068283  0.9896072431395090  0.8745120975029658
  0.2458100838365224  0.2495022633076154  0.1257301068837787
  0.2518189307249383  0.2494930837045854  0.6250736627799720
  0.7426613497028455  0.2487600929188095  0.1258502130798622
  0.2538556937436837  0.7462452689582934  0.3750265583750257
  0.2521382596248229  0.7525214913489235  0.8756201634589375
  0.7514164772595504  0.7595110381148742  0.3721589340223021
  0.7560570949358135  0.7679269828384649  0.8809089672318373
  0.1244535269585044  0.5057076301857562  0.9946242678563010
  0.6255573505105354  0.5100597682427389  0.9974212811714440
  0.1254673510138981  0.0037354319186231  0.2538069854282769
  0.6252080223070468  0.0017529682525318  0.2520286006791850
  0.6244287776341665  0.2577528319881193  0.4940106491748929
  0.6228602606862347  0.7392730458755026  0.0007771581333440
  0.6239914427417766  0.7628796304861146  0.4951601816983490
  0.1246864585872293  0.2479703729326545  0.7498354129584278
  0.1256816068082954  0.7508535596963136  0.2519878959093774
  0.6256164428023164  0.2441784368044775  0.2619534270153686
  0.6254059285748133  0.2481723006728573  0.7478842799482086
  0.6230341219595881  0.7527637205818649  0.2492105713059566
  0.3758103260794075 -0.0011151140956775  0.9948771995466081
  0.3749782686797235  0.5059476360302618  0.5041924524327044
  0.8733215625158355 -0.0017980760499763  0.0025069768841025
  0.8752312361050659  0.5038986266930937  0.4995459154466212
  0.3755817009190176  0.9924580632191969  0.7540364329602468
  0.3738193982677540  0.4956143391752653  0.2483344374701765
  0.8757346378088895  0.4969935345316507  0.2516665067243432
  0.8750748035564748  0.5015937555685773  0.7458902360880463
  0.3758802802420332  0.2494985015099087  0.0037665450287554
  0.8745967817214411  0.2497363483049166  0.0050036183081556
  0.8780734946970981  0.7621319076054061  0.7565333513501427
  0.5106879077616276  0.1225713431781022  0.4943661011786499
  0.9924601322000456  0.1264435824835555  0.7455283239659233
  0.4943411545309027  0.1249046319649379  0.2627122767428917
  0.4964395770223313  0.1236560754869193  0.7480726668168446
  0.4963690404234885  0.6251565765846155  0.7503122900142638
  1.0016654863751886  0.3757575817953512  0.0045241740968822
  0.0042879628378474  0.8749490572326611  1.0032187336102321
 -0.0048964037913791  0.8751976816986975  0.4989534347514047
  0.5045445629650116  0.3741604905337979  0.0073190717963442
  0.5057154202315430  0.8755346536035007  0.0047047209689043
  0.0075075222821508  0.3740924080211189  0.2468049054521794
  0.2575064732386129  0.6251502828740177  0.0020415886335473
  0.7417238442947685  0.1252459919485308  0.4951494515210635
  0.2529025315261937  0.6247648148619247  0.7500813020168839
  0.7563957015643400  0.1244909699291517  0.7523373207781404
  0.2531777890093505  0.3731624915413523  0.4937512358084842
  0.2532994886274332  0.8756503927445010  0.4996683945795427
  0.2415718601473164  0.3743878255947882  0.2563934522674807
  0.0017561553173807  0.0031744756198523  0.1271146040835779
  0.0049725198863165  0.9995627664711701  0.6235392879534457
  1.0010031151269680  0.5098507174061881  0.1252011828141657
  0.4971011189246056  0.0075267921454213  0.1265855072640899
  0.5006994901568207  0.9960620208444234  0.6229466440311523
  0.5024303446577246  0.5072815216271949  0.1272264347613502
  0.5072855901080566  0.5007374906876129  0.6243377650518155
  0.0029919880593900  0.4960017826586380  0.3760824330512844
  0.9951021657799739  0.4986521487387316  0.8731734128719804
  0.5004422308898852  0.9883802903428308  0.3768766398408646
  0.5115459959001704 -0.0009704868170169  0.8750489462710530
  0.0075322946986277  0.2450862858398704  0.1270532642607475
  1.0001557653762954  0.2571755055392715  0.6213014778296906
  0.5086178411602709  0.2389023351076057  0.1268826863073606
  0.4969101340859150  0.2470941732600898  0.6227055048960095
  0.4953775961292846  0.7453946204528533  0.1267091864966305
  0.9956464280401448  0.2519607058911045  0.8742350802662427
  0.9959542515484706  0.7507192638254511  0.3754426618927527
 -0.0043460376366374  0.7581666285545205  0.8762695381111021
  0.4906398993653588  0.2624618791491526  0.3757807642376506
  0.4998712049919973  0.2520680261532823  0.8746069869308498
  0.4929530432352289  0.7551055115252651  0.3752946373448143
  0.4941272881058558  0.7535951691153419  0.8738504558411743
  0.2440940389362375  0.4947016129840484  0.1248020333575648
  0.7479293688818512  0.0132043531566518  0.1270158536682201
  0.7447437543889777  0.0054198417463060  0.6221205900353933
  0.2545279724006330  0.0014214617258699  0.3758335197591713
  0.2450762732034283  0.9952793960661981  0.8746684564315287
  0.2475229029119095  0.5111226053484154  0.3752378289137749
  0.2587855602459120  0.4975135103606746  0.8736731107981239
  0.7465526623954888  0.4989311842504424  0.3740632728762995
  0.7528270558361189  0.4961830064182238  0.8743991523219926
  0.2520295564135066  0.7545601228418000  0.1253935187991742
  0.2481722628820025  0.7513480565562777  0.6254251810794649
  0.7510255544466897  0.2525948017419122  0.6226245315573203
  0.7550288340916654  0.7414284840341770  0.1263095834468659
  0.7501425106196820  0.7410270352636602  0.6183283997320805
  0.2534903163828168  0.2433914595906112  0.3744888148420885
  0.2520639920297311  0.2508441812044127  0.8753272884959561
  0.7627865702571753  0.2522549750378449  0.3736602092077029
  0.7526094363977418  0.2537685544175316  0.8758587964015021
  0.1259383177677259  0.0037116649552248  0.0003740384211691
  0.1246723844472420  0.0029077993876647  0.4965952548916371
  0.1232323962176235  0.4981852207586915  0.4919476370396489
  0.6254088033058057  0.0039855119743902  0.0051516295334277
  0.6239821628587895  0.9832483015618770  0.4997429946500121
  0.6247916357514578  0.4928214106636999  0.4970471671365897
  0.1270067301732528  0.0070945864684713  0.7497616188473195
  0.1240315195005396  0.5082791046107275  0.2497211346284743
  0.1229840575929444  0.4992791088365462  0.7628851591367591
  0.6232598582396816  1.0022246773761885  0.7450115867044795
  0.6249594136991561  0.5010885242592932  0.2500918919495725
  0.6255394470697013  0.4953840274990259  0.7551268839950271
  0.1248563364828133  0.2484292900623725  0.9947043491128235
  0.1236493796481650  0.2480934047835324  0.4975429369997770
  0.1266603294915663  0.7432488448484348  0.0014670586558981
  0.1237929437717021  0.7518362463811756  0.4976013997162268
  0.6263034658308160  0.2471745431929717  0.9940559798724551
  0.1246036621526811  0.2367139352700024  0.2566846339273608
  0.1230058686303655  0.7474523183402961  0.7527959268676107
  0.6237925529416635  0.7493359198759617  0.7544354722553763
  0.3775419649479396  0.0084404218299265  0.4988306456739872
  0.3732221942887105  0.4938472366233747  0.0076144758884963
  0.8746254461776720  0.0085162427496264  0.5098863805269749
  0.8752299153765090  0.4983156572591148  0.9997739723362273
  0.3773233238733193  0.9951923304969824  0.2541520696445445
  0.3741568928402744  0.4939993548718135  0.7405340138087245
  0.8742657086881152  0.9976023857900852  0.2453544753033971
  0.8749908466878630  0.9879348150440402  0.7414286720143300
  0.3789268305651887  0.2407212165118047  0.4988363201779339
  0.3766340120303597  0.7591486665119112  0.0033277212091397
  0.3768408399034290  0.7426500234539668  0.5024169643253302
  0.8743423590016322  0.2476829514215922  0.5053373857937181
  0.8751234225370906  0.7607432875996551  0.9970570628981918
  0.8725471179611318  0.7419016311856820  0.4978798932666970
  0.3781692858908252  0.2574548305472754  0.2462525197435677
  0.3759473907793687  0.2529661179952048  0.7516081771737215
  0.3768218690804138  0.7497799320407628  0.2477358665426100
  0.3739207533646263  0.7601161477247927  0.7473445548790476
  0.8743349360216696  0.2558752140514158  0.2437963943810811
  0.8746493100561302  0.2578310049232501  0.7463581226670666
  0.8746028666969320  0.7496649412189822  0.2507773965855904
  0.0020076306805707  0.1267892842810683  0.0000250424776675
  1.0002247004467657  0.1259602692739889  0.5081739070340027
  0.9932469666729885  0.6273728697766469  0.9938954114874319
  1.0043203251281496  0.6269504303476569  0.4912250819023415
  0.5031115586051399  0.1245820406670613  0.9970307928178352
  0.4869996536993845  0.6271885512609826 -0.0011485940974541
  0.5085419234626946  0.6266982565515533  0.4956390187545316
  0.9913104167444531  0.1277852038060060  0.2468732471340812
 -0.0020720280739480  0.6237429484954981  0.2585065252789830
  0.0021137529385850  0.6262436639568491  0.7577888628835782
  0.4995718033723880  0.6260844627517917  0.2557630275065634
 -0.0005882299870367  0.3741933235528774  0.4993520552651024
  0.4919935521627088  0.3718774967663203  0.5072412582533729
  0.4869527658129093  0.8781150261628581  0.4999524226350517
  1.0006853543473944  0.3749590010157168  0.7501326406729213
  0.9970879671948361  0.8760377819824221  0.2521855477836321
  0.0113387269179085  0.8771038804564365  0.7451725120607208
  0.5050200162001934  0.3715998799734696  0.2405875225989608
  0.4990088601207462  0.3729480395658034  0.7440498158533397
  0.4974271311534211  0.8761102694883145  0.2452348997815534
  0.5058080346727282  0.8754284189176660  0.7513576402755726
  0.2473956128999470  0.1247926626804814  0.9939354731723704
  0.2480448824713856  0.1243286518864755  0.4969209738236338
  0.2440712465263846  0.6265873755465490  0.5049633056556870
  0.7468650126718843  0.1258666057025523  0.9925754225041356
  0.7633377492596185  0.6266583974675992  0.9942670568838702
  0.7413912946274246  0.6256790223988271  0.4916602681829479
  0.2605377154016446  0.1263369400277197  0.2535426450715658
  0.2555388744542584  0.1245524123387920  0.7571493833641452
  0.2523752031432293  0.6238160294650613  0.2415633464121338
  0.7604324323582367  0.1258262364040011  0.2574248226344271
  0.7488794318770124  0.6256648766382928  0.2546809676956221
  0.7445698127413659  0.6215777360829086  0.7565494247205102
  0.2467804847536658  0.3760521028199775  0.9977092984922775
  0.2435610764287703  0.8739009269658115  0.0028986552517052
  0.7461961331458014  0.3754169841895723  0.9975833496817235
  0.7562305808150430  0.3725805851712049  0.4963492933545412
  0.7427413712502493  0.8764004123755494  0.0210938761541525
  0.7619834240979132  0.8767792542379448  0.5085234248455744
  0.2496879286813282  0.3759940556228266  0.7561932138674486
  0.2535232856507612  0.8755071020358806  0.2520298294498494
  0.2408497205138820  0.8736447830960535  0.7469938669634414
  0.7463560689632103  0.3741531230625419  0.2545865426428243
  0.7500782573220557  0.3730076019645112  0.7497469867844487
  0.7528127460471947  0.8758139553486578  0.2349141137048895
  0.7420975000211903  0.8808387673234587  0.7335991728976606
 
  0.00000000E+00  0.00000000E+00  0.00000000E+00
  0.00000000E+00  0.00000000E+00  0.00000000E+00
  0.00000000E+00  0.00000000E+00  0.00000000E+00
  0.00000000E+00  0.00000000E+00  0.00000000E+00
  0.00000000E+00  0.00000000E+00  0.00000000E+00
  0.00000000E+00  0.00000000E+00  0.00000000E+00
  0.00000000E+00  0.00000000E+00  0.00000000E+00
  0.00000000E+00  0.00000000E+00  0.00000000E+00
  0.00000000E+00  0.00000000E+00  0.00000000E+00
  0.00000000E+00  0.00000000E+00  0.00000000E+00
  0.00000000E+00  0.00000000E+00  0.00000000E+00
  0.00000000E+00  0.00000000E+00  0.00000000E+00
  0.00000000E+00  0.00000000E+00  0.00000000E+00
  0.00000000E+00  0.00000000E+00  0.00000000E+00
  0.00000000E+00  0.00000000E+00  0.00000000E+00
  0.00000000E+00  0.00000000E+00  0.00000000E+00
  0.00000000E+00  0.00000000E+00  0.00000000E+00
  0.00000000E+00  0.00000000E+00  0.00000000E+00
  0.00000000E+00  0.00000000E+00  0.00000000E+00
  0.00000000E+00  0.00000000E+00  0.00000000E+00
  0.00000000E+00  0.00000000E+00  0.00000000E+00
  0.00000000E+00  0.00000000E+00  0.00000000E+00
  0.00000000E+00  0.00000000E+00  0.00000000E+00
  0.00000000E+00  0.00000000E+00  0.00000000E+00
  0.00000000E+00  0.00000000E+00  0.00000000E+00
  0.00000000E+00  0.00000000E+00  0.00000000E+00
  0.00000000E+00  0.00000000E+00  0.00000000E+00
  0.00000000E+00  0.00000000E+00  0.00000000E+00
  0.00000000E+00  0.00000000E+00  0.00000000E+00
  0.00000000E+00  0.00000000E+00  0.00000000E+00
  0.00000000E+00  0.00000000E+00  0.00000000E+00
  0.00000000E+00  0.00000000E+00  0.00000000E+00
  0.00000000E+00  0.00000000E+00  0.00000000E+00
  0.00000000E+00  0.00000000E+00  0.00000000E+00
  0.00000000E+00  0.00000000E+00  0.00000000E+00
  0.00000000E+00  0.00000000E+00  0.00000000E+00
  0.00000000E+00  0.00000000E+00  0.00000000E+00
  0.00000000E+00  0.00000000E+00  0.00000000E+00
  0.00000000E+00  0.00000000E+00  0.00000000E+00
  0.00000000E+00  0.00000000E+00  0.00000000E+00
  0.00000000E+00  0.00000000E+00  0.00000000E+00
  0.00000000E+00  0.00000000E+00  0.00000000E+00
  0.00000000E+00  0.00000000E+00  0.00000000E+00
  0.00000000E+00  0.00000000E+00  0.00000000E+00
  0.00000000E+00  0.00000000E+00  0.00000000E+00
  0.00000000E+00  0.00000000E+00  0.00000000E+00
  0.00000000E+00  0.00000000E+00  0.00000000E+00
  0.00000000E+00  0.00000000E+00  0.00000000E+00
  0.00000000E+00  0.00000000E+00  0.00000000E+00
  0.00000000E+00  0.00000000E+00  0.00000000E+00
  0.00000000E+00  0.00000000E+00  0.00000000E+00
  0.00000000E+00  0.00000000E+00  0.00000000E+00
  0.00000000E+00  0.00000000E+00  0.00000000E+00
  0.00000000E+00  0.00000000E+00  0.00000000E+00
  0.00000000E+00  0.00000000E+00  0.00000000E+00
  0.00000000E+00  0.00000000E+00  0.00000000E+00
  0.00000000E+00  0.00000000E+00  0.00000000E+00
  0.00000000E+00  0.00000000E+00  0.00000000E+00
  0.00000000E+00  0.00000000E+00  0.00000000E+00
  0.00000000E+00  0.00000000E+00  0.00000000E+00
  0.00000000E+00  0.00000000E+00  0.00000000E+00
  0.00000000E+00  0.00000000E+00  0.00000000E+00
  0.00000000E+00  0.00000000E+00  0.00000000E+00
  0.00000000E+00  0.00000000E+00  0.00000000E+00
  0.00000000E+00  0.00000000E+00  0.00000000E+00
  0.00000000E+00  0.00000000E+00  0.00000000E+00
  0.00000000E+00  0.00000000E+00  0.00000000E+00
  0.00000000E+00  0.00000000E+00  0.00000000E+00
  0.00000000E+00  0.00000000E+00  0.00000000E+00
  0.00000000E+00  0.00000000E+00  0.00000000E+00
  0.00000000E+00  0.00000000E+00  0.00000000E+00
  0.00000000E+00  0.00000000E+00  0.00000000E+00
  0.00000000E+00  0.00000000E+00  0.00000000E+00
  0.00000000E+00  0.00000000E+00  0.00000000E+00
  0.00000000E+00  0.00000000E+00  0.00000000E+00
  0.00000000E+00  0.00000000E+00  0.00000000E+00
  0.00000000E+00  0.00000000E+00  0.00000000E+00
  0.00000000E+00  0.00000000E+00  0.00000000E+00
  0.00000000E+00  0.00000000E+00  0.00000000E+00
  0.00000000E+00  0.00000000E+00  0.00000000E+00
  0.00000000E+00  0.00000000E+00  0.00000000E+00
  0.00000000E+00  0.00000000E+00  0.00000000E+00
  0.00000000E+00  0.00000000E+00  0.00000000E+00
  0.00000000E+00  0.00000000E+00  0.00000000E+00
  0.00000000E+00  0.00000000E+00  0.00000000E+00
  0.00000000E+00  0.00000000E+00  0.00000000E+00
  0.00000000E+00  0.00000000E+00  0.00000000E+00
  0.00000000E+00  0.00000000E+00  0.00000000E+00
  0.00000000E+00  0.00000000E+00  0.00000000E+00
  0.00000000E+00  0.00000000E+00  0.00000000E+00
  0.00000000E+00  0.00000000E+00  0.00000000E+00
  0.00000000E+00  0.00000000E+00  0.00000000E+00
  0.00000000E+00  0.00000000E+00  0.00000000E+00
  0.00000000E+00  0.00000000E+00  0.00000000E+00
  0.00000000E+00  0.00000000E+00  0.00000000E+00
  0.00000000E+00  0.00000000E+00  0.00000000E+00
  0.00000000E+00  0.00000000E+00  0.00000000E+00
  0.00000000E+00  0.00000000E+00  0.00000000E+00
  0.00000000E+00  0.00000000E+00  0.00000000E+00
  0.00000000E+00  0.00000000E+00  0.00000000E+00
  0.00000000E+00  0.00000000E+00  0.00000000E+00
  0.00000000E+00  0.00000000E+00  0.00000000E+00
  0.00000000E+00  0.00000000E+00  0.00000000E+00
  0.00000000E+00  0.00000000E+00  0.00000000E+00
  0.00000000E+00  0.00000000E+00  0.00000000E+00
  0.00000000E+00  0.00000000E+00  0.00000000E+00
  0.00000000E+00  0.00000000E+00  0.00000000E+00
  0.00000000E+00  0.00000000E+00  0.00000000E+00
  0.00000000E+00  0.00000000E+00  0.00000000E+00
  0.00000000E+00  0.00000000E+00  0.00000000E+00
  0.00000000E+00  0.00000000E+00  0.00000000E+00
  0.00000000E+00  0.00000000E+00  0.00000000E+00
  0.00000000E+00  0.00000000E+00  0.00000000E+00
  0.00000000E+00  0.00000000E+00  0.00000000E+00
  0.00000000E+00  0.00000000E+00  0.00000000E+00
  0.00000000E+00  0.00000000E+00  0.00000000E+00
  0.00000000E+00  0.00000000E+00  0.00000000E+00
  0.00000000E+00  0.00000000E+00  0.00000000E+00
  0.00000000E+00  0.00000000E+00  0.00000000E+00
  0.00000000E+00  0.00000000E+00  0.00000000E+00
  0.00000000E+00  0.00000000E+00  0.00000000E+00
  0.00000000E+00  0.00000000E+00  0.00000000E+00
  0.00000000E+00  0.00000000E+00  0.00000000E+00
  0.00000000E+00  0.00000000E+00  0.00000000E+00
  0.00000000E+00  0.00000000E+00  0.00000000E+00
  0.00000000E+00  0.00000000E+00  0.00000000E+00
  0.00000000E+00  0.00000000E+00  0.00000000E+00
  0.00000000E+00  0.00000000E+00  0.00000000E+00
  0.00000000E+00  0.00000000E+00  0.00000000E+00
  0.00000000E+00  0.00000000E+00  0.00000000E+00
  0.00000000E+00  0.00000000E+00  0.00000000E+00
  0.00000000E+00  0.00000000E+00  0.00000000E+00
  0.00000000E+00  0.00000000E+00  0.00000000E+00
  0.00000000E+00  0.00000000E+00  0.00000000E+00
  0.00000000E+00  0.00000000E+00  0.00000000E+00
  0.00000000E+00  0.00000000E+00  0.00000000E+00
  0.00000000E+00  0.00000000E+00  0.00000000E+00
  0.00000000E+00  0.00000000E+00  0.00000000E+00
  0.00000000E+00  0.00000000E+00  0.00000000E+00
  0.00000000E+00  0.00000000E+00  0.00000000E+00
  0.00000000E+00  0.00000000E+00  0.00000000E+00
  0.00000000E+00  0.00000000E+00  0.00000000E+00
  0.00000000E+00  0.00000000E+00  0.00000000E+00
  0.00000000E+00  0.00000000E+00  0.00000000E+00
  0.00000000E+00  0.00000000E+00  0.00000000E+00
  0.00000000E+00  0.00000000E+00  0.00000000E+00
  0.00000000E+00  0.00000000E+00  0.00000000E+00
  0.00000000E+00  0.00000000E+00  0.00000000E+00
  0.00000000E+00  0.00000000E+00  0.00000000E+00
  0.00000000E+00  0.00000000E+00  0.00000000E+00
  0.00000000E+00  0.00000000E+00  0.00000000E+00
  0.00000000E+00  0.00000000E+00  0.00000000E+00
  0.00000000E+00  0.00000000E+00  0.00000000E+00
  0.00000000E+00  0.00000000E+00  0.00000000E+00
  0.00000000E+00  0.00000000E+00  0.00000000E+00
  0.00000000E+00  0.00000000E+00  0.00000000E+00
  0.00000000E+00  0.00000000E+00  0.00000000E+00
  0.00000000E+00  0.00000000E+00  0.00000000E+00
  0.00000000E+00  0.00000000E+00  0.00000000E+00
  0.00000000E+00  0.00000000E+00  0.00000000E+00
  0.00000000E+00  0.00000000E+00  0.00000000E+00
  0.00000000E+00  0.00000000E+00  0.00000000E+00
  0.00000000E+00  0.00000000E+00  0.00000000E+00
  0.00000000E+00  0.00000000E+00  0.00000000E+00
  0.00000000E+00  0.00000000E+00  0.00000000E+00
  0.00000000E+00  0.00000000E+00  0.00000000E+00
  0.00000000E+00  0.00000000E+00  0.00000000E+00
  0.00000000E+00  0.00000000E+00  0.00000000E+00
  0.00000000E+00  0.00000000E+00  0.00000000E+00
  0.00000000E+00  0.00000000E+00  0.00000000E+00
  0.00000000E+00  0.00000000E+00  0.00000000E+00
  0.00000000E+00  0.00000000E+00  0.00000000E+00
  0.00000000E+00  0.00000000E+00  0.00000000E+00
  0.00000000E+00  0.00000000E+00  0.00000000E+00
  0.00000000E+00  0.00000000E+00  0.00000000E+00
  0.00000000E+00  0.00000000E+00  0.00000000E+00
  0.00000000E+00  0.00000000E+00  0.00000000E+00
  0.00000000E+00  0.00000000E+00  0.00000000E+00
  0.00000000E+00  0.00000000E+00  0.00000000E+00
  0.00000000E+00  0.00000000E+00  0.00000000E+00
  0.00000000E+00  0.00000000E+00  0.00000000E+00
  0.00000000E+00  0.00000000E+00  0.00000000E+00
  0.00000000E+00  0.00000000E+00  0.00000000E+00
  0.00000000E+00  0.00000000E+00  0.00000000E+00
  0.00000000E+00  0.00000000E+00  0.00000000E+00
  0.00000000E+00  0.00000000E+00  0.00000000E+00
  0.00000000E+00  0.00000000E+00  0.00000000E+00
  0.00000000E+00  0.00000000E+00  0.00000000E+00
  0.00000000E+00  0.00000000E+00  0.00000000E+00
  0.00000000E+00  0.00000000E+00  0.00000000E+00
  0.00000000E+00  0.00000000E+00  0.00000000E+00
  0.00000000E+00  0.00000000E+00  0.00000000E+00
  0.00000000E+00  0.00000000E+00  0.00000000E+00
  0.00000000E+00  0.00000000E+00  0.00000000E+00
  0.00000000E+00  0.00000000E+00  0.00000000E+00
  0.00000000E+00  0.00000000E+00  0.00000000E+00
  0.00000000E+00  0.00000000E+00  0.00000000E+00
  0.00000000E+00  0.00000000E+00  0.00000000E+00
  0.00000000E+00  0.00000000E+00  0.00000000E+00
  0.00000000E+00  0.00000000E+00  0.00000000E+00
  0.00000000E+00  0.00000000E+00  0.00000000E+00
  0.00000000E+00  0.00000000E+00  0.00000000E+00
  0.00000000E+00  0.00000000E+00  0.00000000E+00
  0.00000000E+00  0.00000000E+00  0.00000000E+00
  0.00000000E+00  0.00000000E+00  0.00000000E+00
  0.00000000E+00  0.00000000E+00  0.00000000E+00
  0.00000000E+00  0.00000000E+00  0.00000000E+00
  0.00000000E+00  0.00000000E+00  0.00000000E+00
  0.00000000E+00  0.00000000E+00  0.00000000E+00
  0.00000000E+00  0.00000000E+00  0.00000000E+00
  0.00000000E+00  0.00000000E+00  0.00000000E+00
  0.00000000E+00  0.00000000E+00  0.00000000E+00
  0.00000000E+00  0.00000000E+00  0.00000000E+00
  0.00000000E+00  0.00000000E+00  0.00000000E+00
  0.00000000E+00  0.00000000E+00  0.00000000E+00
  0.00000000E+00  0.00000000E+00  0.00000000E+00
  0.00000000E+00  0.00000000E+00  0.00000000E+00
  0.00000000E+00  0.00000000E+00  0.00000000E+00
  0.00000000E+00  0.00000000E+00  0.00000000E+00
  0.00000000E+00  0.00000000E+00  0.00000000E+00
  0.00000000E+00  0.00000000E+00  0.00000000E+00
  0.00000000E+00  0.00000000E+00  0.00000000E+00
  0.00000000E+00  0.00000000E+00  0.00000000E+00
  0.00000000E+00  0.00000000E+00  0.00000000E+00
  0.00000000E+00  0.00000000E+00  0.00000000E+00
  0.00000000E+00  0.00000000E+00  0.00000000E+00
  0.00000000E+00  0.00000000E+00  0.00000000E+00
  0.00000000E+00  0.00000000E+00  0.00000000E+00
  0.00000000E+00  0.00000000E+00  0.00000000E+00
  0.00000000E+00  0.00000000E+00  0.00000000E+00
  0.00000000E+00  0.00000000E+00  0.00000000E+00
  0.00000000E+00  0.00000000E+00  0.00000000E+00
  0.00000000E+00  0.00000000E+00  0.00000000E+00
  0.00000000E+00  0.00000000E+00  0.00000000E+00
  0.00000000E+00  0.00000000E+00  0.00000000E+00
  0.00000000E+00  0.00000000E+00  0.00000000E+00
  0.00000000E+00  0.00000000E+00  0.00000000E+00
  0.00000000E+00  0.00000000E+00  0.00000000E+00
  0.00000000E+00  0.00000000E+00  0.00000000E+00
  0.00000000E+00  0.00000000E+00  0.00000000E+00
  0.00000000E+00  0.00000000E+00  0.00000000E+00
  0.00000000E+00  0.00000000E+00  0.00000000E+00
  0.00000000E+00  0.00000000E+00  0.00000000E+00
  0.00000000E+00  0.00000000E+00  0.00000000E+00
  0.00000000E+00  0.00000000E+00  0.00000000E+00
  0.00000000E+00  0.00000000E+00  0.00000000E+00
  0.00000000E+00  0.00000000E+00  0.00000000E+00
  0.00000000E+00  0.00000000E+00  0.00000000E+00
  0.00000000E+00  0.00000000E+00  0.00000000E+00
  0.00000000E+00  0.00000000E+00  0.00000000E+00
  0.00000000E+00  0.00000000E+00  0.00000000E+00
  0.00000000E+00  0.00000000E+00  0.00000000E+00
  0.00000000E+00  0.00000000E+00  0.00000000E+00
  0.00000000E+00  0.00000000E+00  0.00000000E+00
  0.00000000E+00  0.00000000E+00  0.00000000E+00
  0.00000000E+00  0.00000000E+00  0.00000000E+00
  0.00000000E+00  0.00000000E+00  0.00000000E+00
