Title                       
0                            ! Automatic Generation scheme
Monkhorst-Pack               ! Generate a Gamma-Point Centered Grid 
4 4 4                        ! Subdivisions N_1, N_2, and N_3 (K-mesh) 
0.0 0.0 0.0                  ! optional shift of the mesh
