config 16                               
   1.00000000000000     
    15.4263309999999993    0.0000000000000000    0.0000000000000000
     0.0000000000000000   15.4263309999999993    0.0000000000000000
     0.0000000000000000    0.0000000000000000   15.4263309999999993
   Li   Ti   O    F 
     1    64    64   128
Direct
  0.1684743966870673  0.8754054552720159  0.8840825012307599
  0.9952036595419044  0.9948001531834662  0.9944877870497555
  0.9995444604018873  0.9918212541332198  0.4934316503693938
  0.0063192772611506  0.4957304981643301  0.9974306359321391
  0.9937584147709942  0.5028436113765664  0.5069256047798671
  0.4947686321336572  0.9933742557691324  0.9995003194790537
  0.5009372292657570  0.0080987723510107  0.4997556550425009
  0.5046134832305843  0.4954829395735037  0.9957585233686443
  0.4914602658231174  0.4992831905581686  0.4952143808205391
  0.0066452690495088  0.0031321846090101  0.2560624190305342
  1.0005084035291034  0.0083226382291411  0.7561849968310302
  0.9935897840023609  0.4938896146554746  0.2512215030640983
  0.9928647834271731  0.4994641536663222  0.7418175018283419
  0.5059178809142945  0.0084068450170963  0.2502059701663019
  0.4924589124185410  0.0051604527110117  0.7524354806261109
  0.4929117541476499  0.4967277888995244  0.2572445890690403
  0.5007814936204282  0.5043094344855522  0.7581557393461857
  0.9957666507641950  0.2577584953600461  0.0011463859105652
  0.9985907331233254  0.2480287747110108  0.4910012467086528
  0.9976204940951435  0.7574368788989571  0.0076194659568563
  0.9968816262294153  0.7564523708087849  0.5061707801403807
  0.4953857008039302  0.2580440396748834  0.0010528039187304
  0.5083263493257294  0.2456092121573503  0.4989497367227556
  0.5078508757847667  0.7556912042484757  0.9998151137907363
  0.5059440056531654  0.7528879670388932  0.5098477756585857
 -0.0002345190521141  0.2583731463989816  0.2548613196914827
  0.0065883726879118  0.2432445403470852  0.7472175872798741
  0.0061754977942797  0.7488780101105543  0.2437187394243959
  0.9922372375043601  0.7505464146568771  0.7435413345813557
  0.5081898118289845  0.2419513082214614  0.2514756379299861
  0.5068591633796095  0.2430269182528771  0.7501890290705524
  0.5066984028043785  0.7514985202808141  0.2515508016815950
  0.5013909353950874  0.7420454781401996  0.7441925709732300
  0.2578430830252658  0.0011549868357607  0.0090857905752589
  0.2504598385280264  0.9938044430745843  0.5055799262311955
  0.2443710264505128  0.5079092897738544  0.9960836497449681
  0.2537427512571482  0.4945454198205937  0.5077463371140772
  0.7566999632915726  0.9995641639726153  0.9938431750786708
  0.7499635730630326  0.0068588552029825  0.4944265370330137
  0.7420698426432704  0.5010600886082931  0.0048741267141565
  0.7552177287493009  0.4980442197841137  0.5053364673225591
  0.2448498978659956  0.0030840269315915  0.2450488620848781
  0.2584163267008979  1.0001356713980383  0.7418990748710584
  0.2552112705039019  0.4922410606466628  0.2508484806708812
  0.2467384053909822  0.5065842767855219  0.7425175735644245
  0.7443543072209601  0.0004839484612742  0.2554957496237871
  0.7471118856073883  0.0066653577194545  0.7560721559704239
  0.7556783716296783  0.4989758174251599  0.2426348750543176
  0.7572979293646664  0.4984138913522161  0.7425946102972778
  0.2573988376018166  0.2515561864899458  0.0056830379386481
  0.2531233675400108  0.2561269136081766  0.5056066891854678
  0.2517875204592828  0.7422506221119949  0.9925573682979568
  0.2513432282296191  0.7551431439929195  0.4919363424709565
  0.7573449006994221  0.2511921199277174  0.0069854762991632
  0.7427293153297509  0.2427479029884687  0.4977147706626200
  0.7411853958174499  0.7491134258861956  0.9950147116658676
  0.7409551670728934  0.7525058621972709  0.4949455791071726
  0.2512449024753572  0.2571745053065542  0.2427125514624580
  0.2440808661863312  0.2510754667349470  0.7433853481069077
  0.2435421230692389  0.7486207025933659  0.2545905842038929
  0.2479727534797492  0.7424960477002556  0.7537484614877088
  0.7423056313073224  0.2508214421351408  0.2422087663425572
  0.7442036305281817  0.2423386978025604  0.7506624460888066
  0.7451296318086562  0.7501592000503114  0.2570318632810349
  0.7567364067888882  0.7506959822921301  0.7576702464790862
  0.0071373139036172  0.5025254177343712  0.6243868791569579
  0.9979720708288263  0.0065320408655231  0.3758770588373941
  0.0052094019343558  0.0006208576349524  0.8726460240583639
  0.4998969890857826  0.4931774948175863  0.3749790550676815
  0.4946126590294266  0.4967540795376826  0.8748340624353391
  0.9920571298216694  0.7480833023513647  0.1265126629839458
 -0.0030226797720171  0.7457188313101230  0.6240336938414406
  0.4949273703986753  0.7526360532906108  0.6248987810186334
  0.9945188816944589  0.2465957837442619  0.3761540628255790
  0.2588878159457873  0.0094026037318058  0.1263893218246980
  0.2584903126682965  0.0086376990395996  0.6247152154062487
  0.2390891385291768  0.5000994018668281  0.6249954844451414
  0.7506789980745536  0.4921576586078252  0.1255053663393154
  0.7462934132940247  0.4939754222383385  0.6240592040261012
  0.7484202031529610  0.9994604325334203  0.3759453851168653
  0.7432247792934512  0.9988615279906364  0.8738571871653951
  0.2459890564961705  0.2428469937169598  0.1251003851870817
  0.2520976756253357  0.2428688788243979  0.6252816242394843
  0.7424162998348813  0.2579385424424486  0.1261420391697152
  0.2504282320099586  0.7513478066268582  0.3731998041608232
  0.2367156970826483  0.7701337634883418  0.8811095162356546
  0.7474544859546551  0.7522804773665784  0.3745178357530094
  0.7431553209077458  0.7520329768121423  0.8763077269019949
  0.1243632082570707  0.5067923570851647  0.9946912956579567
  0.6260313815242119  0.5107568229645009  0.9984048894905245
  0.1257734192925389  0.0040128279947683  0.2496146941104841
  0.6248815272491355  0.0021011783832263  0.2472585018590600
  0.6244003419017954  0.2571544163196794  0.4942897816466152
  0.6245538369801068  0.7381381211543372  0.0096217645999051
  0.6242305679757439  0.7625783774955653  0.5017688631671220
  0.1243106781999964  0.2518211549335646  0.7494797304678675
  0.1248206359573391  0.7514043770003178  0.2468738372765829
  0.6255565718857123  0.2443160744879503  0.2618606897327394
  0.6254329385989978  0.2526915579172314  0.7475530719154825
  0.6227086269432196  0.7529491270277355  0.2464529068975115
  0.3754829730087573  0.9953632059827013  0.9890117447879169
  0.3753480413339119  0.5053687971493116  0.5036419077184539
  0.8732638701544050  0.9957756666036145  0.9975518014794680
  0.8750771917057286  0.5027835769460974  0.4986563806365557
  0.3752550673827185  0.9973970369583515  0.7619448873852277
  0.3738934058678454  0.4954675544986160  0.2484190345010080
  0.8755902517527239  0.4971360667499528  0.2524922701430261
  0.8751767473157206  0.5086965754904018  0.7467243914776641
  0.3759271403924073  0.2507023064409046  0.0035373062903057
  0.8742857045197497  0.2515277483606895  0.0049604229114209
  0.8740253214852950  0.7430920648920104  0.7543714321419441
  0.5102933570236712  0.1225009378504669  0.4952537953365049
  0.9967885053336699  0.1262050572614804  0.7444667634753177
  0.4942054111771189  0.1248862920128033  0.2623107247638787
  0.5016087297100894  0.1233200183073290  0.7478824384619578
  0.5026297848607835  0.6249148170735748  0.7501804179306778
  0.0034008622771459  0.3750985466710460  0.0039350362004717
  0.0114136809336882  0.8746652949293282  0.9985661417636652
 -0.0045631074504482  0.8751321388358833  0.4981222279238822
  0.5061793463805466  0.3737923331670486  0.0071311317012547
  0.5077459119144156  0.8753283803702998  0.0049001343950997
  0.0071853867615903  0.3739017356749785  0.2472443237589246
  0.2600455307291625  0.6241734882805133  0.9902473530947811
  0.7416180872034777  0.1250022691671638  0.5041949215308461
  0.2462042947948366  0.6205890267319889  0.7586620390977676
  0.7505568478700041  0.1247571494114017  0.7443367349257142
  0.2525891548653376  0.3721419174608913  0.4978693465681219
  0.2527842458895989  0.8764926089712307  0.5024461859141106
  0.2413289123139914  0.3741644887241912  0.2497717770134006
 -0.0015479420263484  1.0008896692984079  0.1264143163684468
  0.0014452126227296  0.9980566950955138  0.6236900203705474
  0.9998692011447383  0.5084058272200361  0.1249536442496102
  0.4905773006037469  0.0071160159028231  0.1262113933165642
  0.4920982762907659  0.9961336377460691  0.6231677494787554
  0.5023787456920750  0.5073040358096794  0.1272016819824029
  0.5076627978342915  0.4999238173301785  0.6244533647946607
  0.0035242945649725  0.4965108462409302  0.3757041032598865
  0.9951461477212371  0.4982298636438749  0.8728709192761551
  0.5067514169637414  0.9891966111944759  0.3768024458221529
  0.5175856826100088 -0.0006049117432282  0.8751072572192716
  0.0073596121482683  0.2451391910441611  0.1270109568212538
  0.9993306977473847  0.2575469809711577  0.6211562356376277
  0.5087259981078365  0.2384477450451690  0.1267456020809709
  0.4962823667945473  0.2472095978228178  0.6228673617704676
  0.4905848103268143  0.7459475500225204  0.1268949656125050
  0.9955120690653604  0.2508691046288586  0.8740751151344299
  0.9970716473613226  0.7500509865726590  0.3750750309599789
  0.0048666374363699  0.7515705035564084  0.8752749738370842
  0.4908303770191538  0.2621433072561206  0.3757478599547954
  0.5003393084826452  0.2513571426778822  0.8745987270937033
  0.4982334676038773  0.7552338625956414  0.3754898280543472
  0.5083902034074088  0.7528496065734962  0.8748010613264466
  0.2451520510287875  0.5019479979690247  0.1239490374063668
  0.7516251243049754  0.0033523394386538  0.1262549034647416
  0.7488434780762396  0.9953912566183144  0.6232929060175270
  0.2499404360724753 -0.0021000267743740  0.3753834766631546
  0.2341062184319858  0.9804120079196795  0.8748387272969781
  0.2469044866815417  0.5051697506342733  0.3745064756871297
  0.2586592391669637  0.4864838351364984  0.8737516004140332
  0.7459765021546801  0.5058766423802075  0.3746415791419070
  0.7523704803850079  0.5052319292272308  0.8740895948098031
  0.2574255407786760  0.7507574295810840  0.1249050482730296
  0.2530771873871516  0.7458171428429260  0.6198011932012288
  0.7512587770135658  0.2606797263415189  0.6229036126539613
  0.7567099399626313  0.7486434790379537  0.1263215710632478
  0.7523224900274408  0.7490630746238275  0.6245681690884305
  0.2531083341298143  0.2471469671318917  0.3739796363740790
  0.2517811831236909  0.2560200397041540  0.8752907728780698
  0.7621415270922639  0.2436646310277311  0.3741467777562439
  0.7521586382517267  0.2451102407519938  0.8758747153279272
  0.1268255386310240  0.0067905552096829  0.0034466785401054
  0.1248998523109490  0.0036457102445476  0.5016978133963319
  0.1228714877191552  0.4981107469509359  0.4919739232097333
  0.6249214474036677  0.0055074430286171  0.0097859276702867
  0.6237020715031301  0.9837375825872329  0.5057179436351043
  0.6253003862045801  0.4929522037331472  0.4976229141825957
  0.1264671578927020 -0.0026661130955046  0.7445952749191795
  0.1238511561016806  0.5079029451792583  0.2485889631645267
  0.1222663691765650  0.4892115207648061  0.7618002024703492
  0.6230579440813855  0.9952446911189159  0.7383027140204137
  0.6251614868494693  0.5003357138454503  0.2497728820424009
  0.6264912246055621  0.4918762975192791  0.7550347575077142
  0.1249321446637291  0.2457949912410690  0.9945227944543317
  0.1234392069157810  0.2467204197492145  0.4980219900764772
  0.1238422138590978  0.7382868862116166  0.0106643391269203
  0.1236182052249245  0.7513062099005056  0.4981930788892298
  0.6262197261824783  0.2447032154656689  0.9943113902591041
  0.1245526498204989  0.2364777789137034  0.2564185405645579
  0.1184154331518695  0.7618078479535593  0.7500977829384624
  0.6266146848986351  0.7552149748705493  0.7439706700077010
  0.3774233124208941  0.0077489569454480  0.4912731211629190
  0.3737618417280206  0.4920812124263030  0.0076586209324946
  0.8745354933302015  0.0082006878471982  0.5059979107646089
  0.8746721885655157  0.4947405400763049  0.9989746119010355
  0.3771922821981233  0.9950554917613582  0.2593340749611111
  0.3751342941343380  0.4972348033424218  0.7408189523025579
  0.8740064993718567  0.9984817965850747  0.2485507451604577
  0.8735438997882836  0.9956788904243290  0.7461138707481099
  0.3789347715766028  0.2408382234039067  0.4983950619267821
  0.3769304985420760  0.7612785477388124  0.9951803972834213
  0.3771871086780634  0.7433076132461675  0.4952556314466649
  0.8740975575989341  0.2480960015611436  0.5050688304727708
  0.8719768663992662  0.7611827196257560  0.9953416515834880
  0.8720767099322198  0.7422363757152712  0.4988785905307154
  0.3781616743421491  0.2575830513905784  0.2458413831682137
  0.3760255567797045  0.2469572139673398  0.7521693256638240
  0.3770199133159208  0.7501013712356793  0.2514856432426925
  0.3789395314532470  0.7558172080728985  0.7600307071204161
  0.8741328729387109  0.2556079882520313  0.2443715012744269
  0.8739898742002843  0.2531545022625991  0.7467275369806695
  0.8732394249765082  0.7487304168425861  0.2539677870019922
 -0.0004556794956951  0.1261337369149630  0.0006968222217917
  0.9992988159957555  0.1255134741977247  0.5089527537698306
  0.9895532963279803  0.6258085781235616  0.9950724483182517
  1.0034792014980667  0.6265427855286033  0.4922653626644005
  0.5006585706217548  0.1237688994198806  0.9969368845503559
  0.4868330154300660  0.6274265574887079 -0.0008793132661030
  0.5086989537241038  0.6266915060114149  0.4965009598441869
  0.9912963569049964  0.1274369583177643  0.2456160566078040
 -0.0019238415364169  0.6236844738583992  0.2562821237696090
  0.0121870209837648  0.6247435773353068  0.7555622554102682
  0.4998868114307845  0.6261344308513964  0.2554964750915473
 -0.0000631536738995  0.3736257178990167  0.4982111128109312
  0.4926018001736299  0.3717079789837922  0.5071192122101291
  0.4875876865328084  0.8783510480917094  0.4991941620770848
  0.9934793839972925  0.3743924377580206  0.7500859614055553
  0.9961707426873965  0.8763794927137035  0.2527731744878386
  0.9955053834798109  0.8764387754455927  0.7479270745917719
  0.5050322280478836  0.3715108168243087  0.2403613816326506
  0.4960928661449771  0.3724410721014012  0.7446601412299818
  0.4972767593103479  0.8763948071329825  0.2453275370068470
  0.5032975412075232  0.8761900042540056  0.7520212741712887
  0.2501925604837759  0.1245275133795399  0.9849774511348112
  0.2485198587325368  0.1237803374699835  0.4922742346187977
  0.2446653819867828  0.6261195780548571  0.4975850150255646
  0.7488651379991840  0.1255595683847498  1.0028738958955705
  0.7653805374316144  0.6257670510519044  0.0033089120790623
  0.7419717836420067  0.6256392282319625  0.5016716398313603
  0.2608543463335136  0.1262817457416943  0.2584902977817196
  0.2482540849831741  0.1236136820262402  0.7656362563608813
  0.2520658396497276  0.6239814871332324  0.2456267248860847
  0.7594872464563930  0.1259508440281048  0.2481545064704097
  0.7479695874159978  0.6251409830748204  0.2472900700981152
  0.7382831555334163  0.6248394729115443  0.7475020582838453
  0.2448783605313023  0.3755835594001048  1.0047516050716863
  0.2336429575398436  0.8765950633770700  0.0093277455937149
  0.7438207882526759  0.3749573239673856  0.9883144112236870
  0.7557027440624040  0.3722886787468277  0.4897757311704246
  0.7395710668624891  0.8749471978885652  0.0083290425439294
  0.7622048882450675  0.8766632915615739  0.5030272374792276
  0.2552340707051095  0.3740241955869778  0.7490535930322649
  0.2534211741449926  0.8764535109086917  0.2461134488056213
  0.2444472072783779  0.8757621240874950  0.7423713891054252
  0.7469475287757810  0.3741069761456072  0.2639733741552756
  0.7551979639874771  0.3737683060315122  0.7575387420101162
  0.7533367583901427  0.8754867321429022  0.2437782068457674
  0.7513814116222831  0.8755132333176581  0.7453329023926671
 
  0.00000000E+00  0.00000000E+00  0.00000000E+00
  0.00000000E+00  0.00000000E+00  0.00000000E+00
  0.00000000E+00  0.00000000E+00  0.00000000E+00
  0.00000000E+00  0.00000000E+00  0.00000000E+00
  0.00000000E+00  0.00000000E+00  0.00000000E+00
  0.00000000E+00  0.00000000E+00  0.00000000E+00
  0.00000000E+00  0.00000000E+00  0.00000000E+00
  0.00000000E+00  0.00000000E+00  0.00000000E+00
  0.00000000E+00  0.00000000E+00  0.00000000E+00
  0.00000000E+00  0.00000000E+00  0.00000000E+00
  0.00000000E+00  0.00000000E+00  0.00000000E+00
  0.00000000E+00  0.00000000E+00  0.00000000E+00
  0.00000000E+00  0.00000000E+00  0.00000000E+00
  0.00000000E+00  0.00000000E+00  0.00000000E+00
  0.00000000E+00  0.00000000E+00  0.00000000E+00
  0.00000000E+00  0.00000000E+00  0.00000000E+00
  0.00000000E+00  0.00000000E+00  0.00000000E+00
  0.00000000E+00  0.00000000E+00  0.00000000E+00
  0.00000000E+00  0.00000000E+00  0.00000000E+00
  0.00000000E+00  0.00000000E+00  0.00000000E+00
  0.00000000E+00  0.00000000E+00  0.00000000E+00
  0.00000000E+00  0.00000000E+00  0.00000000E+00
  0.00000000E+00  0.00000000E+00  0.00000000E+00
  0.00000000E+00  0.00000000E+00  0.00000000E+00
  0.00000000E+00  0.00000000E+00  0.00000000E+00
  0.00000000E+00  0.00000000E+00  0.00000000E+00
  0.00000000E+00  0.00000000E+00  0.00000000E+00
  0.00000000E+00  0.00000000E+00  0.00000000E+00
  0.00000000E+00  0.00000000E+00  0.00000000E+00
  0.00000000E+00  0.00000000E+00  0.00000000E+00
  0.00000000E+00  0.00000000E+00  0.00000000E+00
  0.00000000E+00  0.00000000E+00  0.00000000E+00
  0.00000000E+00  0.00000000E+00  0.00000000E+00
  0.00000000E+00  0.00000000E+00  0.00000000E+00
  0.00000000E+00  0.00000000E+00  0.00000000E+00
  0.00000000E+00  0.00000000E+00  0.00000000E+00
  0.00000000E+00  0.00000000E+00  0.00000000E+00
  0.00000000E+00  0.00000000E+00  0.00000000E+00
  0.00000000E+00  0.00000000E+00  0.00000000E+00
  0.00000000E+00  0.00000000E+00  0.00000000E+00
  0.00000000E+00  0.00000000E+00  0.00000000E+00
  0.00000000E+00  0.00000000E+00  0.00000000E+00
  0.00000000E+00  0.00000000E+00  0.00000000E+00
  0.00000000E+00  0.00000000E+00  0.00000000E+00
  0.00000000E+00  0.00000000E+00  0.00000000E+00
  0.00000000E+00  0.00000000E+00  0.00000000E+00
  0.00000000E+00  0.00000000E+00  0.00000000E+00
  0.00000000E+00  0.00000000E+00  0.00000000E+00
  0.00000000E+00  0.00000000E+00  0.00000000E+00
  0.00000000E+00  0.00000000E+00  0.00000000E+00
  0.00000000E+00  0.00000000E+00  0.00000000E+00
  0.00000000E+00  0.00000000E+00  0.00000000E+00
  0.00000000E+00  0.00000000E+00  0.00000000E+00
  0.00000000E+00  0.00000000E+00  0.00000000E+00
  0.00000000E+00  0.00000000E+00  0.00000000E+00
  0.00000000E+00  0.00000000E+00  0.00000000E+00
  0.00000000E+00  0.00000000E+00  0.00000000E+00
  0.00000000E+00  0.00000000E+00  0.00000000E+00
  0.00000000E+00  0.00000000E+00  0.00000000E+00
  0.00000000E+00  0.00000000E+00  0.00000000E+00
  0.00000000E+00  0.00000000E+00  0.00000000E+00
  0.00000000E+00  0.00000000E+00  0.00000000E+00
  0.00000000E+00  0.00000000E+00  0.00000000E+00
  0.00000000E+00  0.00000000E+00  0.00000000E+00
  0.00000000E+00  0.00000000E+00  0.00000000E+00
  0.00000000E+00  0.00000000E+00  0.00000000E+00
  0.00000000E+00  0.00000000E+00  0.00000000E+00
  0.00000000E+00  0.00000000E+00  0.00000000E+00
  0.00000000E+00  0.00000000E+00  0.00000000E+00
  0.00000000E+00  0.00000000E+00  0.00000000E+00
  0.00000000E+00  0.00000000E+00  0.00000000E+00
  0.00000000E+00  0.00000000E+00  0.00000000E+00
  0.00000000E+00  0.00000000E+00  0.00000000E+00
  0.00000000E+00  0.00000000E+00  0.00000000E+00
  0.00000000E+00  0.00000000E+00  0.00000000E+00
  0.00000000E+00  0.00000000E+00  0.00000000E+00
  0.00000000E+00  0.00000000E+00  0.00000000E+00
  0.00000000E+00  0.00000000E+00  0.00000000E+00
  0.00000000E+00  0.00000000E+00  0.00000000E+00
  0.00000000E+00  0.00000000E+00  0.00000000E+00
  0.00000000E+00  0.00000000E+00  0.00000000E+00
  0.00000000E+00  0.00000000E+00  0.00000000E+00
  0.00000000E+00  0.00000000E+00  0.00000000E+00
  0.00000000E+00  0.00000000E+00  0.00000000E+00
  0.00000000E+00  0.00000000E+00  0.00000000E+00
  0.00000000E+00  0.00000000E+00  0.00000000E+00
  0.00000000E+00  0.00000000E+00  0.00000000E+00
  0.00000000E+00  0.00000000E+00  0.00000000E+00
  0.00000000E+00  0.00000000E+00  0.00000000E+00
  0.00000000E+00  0.00000000E+00  0.00000000E+00
  0.00000000E+00  0.00000000E+00  0.00000000E+00
  0.00000000E+00  0.00000000E+00  0.00000000E+00
  0.00000000E+00  0.00000000E+00  0.00000000E+00
  0.00000000E+00  0.00000000E+00  0.00000000E+00
  0.00000000E+00  0.00000000E+00  0.00000000E+00
  0.00000000E+00  0.00000000E+00  0.00000000E+00
  0.00000000E+00  0.00000000E+00  0.00000000E+00
  0.00000000E+00  0.00000000E+00  0.00000000E+00
  0.00000000E+00  0.00000000E+00  0.00000000E+00
  0.00000000E+00  0.00000000E+00  0.00000000E+00
  0.00000000E+00  0.00000000E+00  0.00000000E+00
  0.00000000E+00  0.00000000E+00  0.00000000E+00
  0.00000000E+00  0.00000000E+00  0.00000000E+00
  0.00000000E+00  0.00000000E+00  0.00000000E+00
  0.00000000E+00  0.00000000E+00  0.00000000E+00
  0.00000000E+00  0.00000000E+00  0.00000000E+00
  0.00000000E+00  0.00000000E+00  0.00000000E+00
  0.00000000E+00  0.00000000E+00  0.00000000E+00
  0.00000000E+00  0.00000000E+00  0.00000000E+00
  0.00000000E+00  0.00000000E+00  0.00000000E+00
  0.00000000E+00  0.00000000E+00  0.00000000E+00
  0.00000000E+00  0.00000000E+00  0.00000000E+00
  0.00000000E+00  0.00000000E+00  0.00000000E+00
  0.00000000E+00  0.00000000E+00  0.00000000E+00
  0.00000000E+00  0.00000000E+00  0.00000000E+00
  0.00000000E+00  0.00000000E+00  0.00000000E+00
  0.00000000E+00  0.00000000E+00  0.00000000E+00
  0.00000000E+00  0.00000000E+00  0.00000000E+00
  0.00000000E+00  0.00000000E+00  0.00000000E+00
  0.00000000E+00  0.00000000E+00  0.00000000E+00
  0.00000000E+00  0.00000000E+00  0.00000000E+00
  0.00000000E+00  0.00000000E+00  0.00000000E+00
  0.00000000E+00  0.00000000E+00  0.00000000E+00
  0.00000000E+00  0.00000000E+00  0.00000000E+00
  0.00000000E+00  0.00000000E+00  0.00000000E+00
  0.00000000E+00  0.00000000E+00  0.00000000E+00
  0.00000000E+00  0.00000000E+00  0.00000000E+00
  0.00000000E+00  0.00000000E+00  0.00000000E+00
  0.00000000E+00  0.00000000E+00  0.00000000E+00
  0.00000000E+00  0.00000000E+00  0.00000000E+00
  0.00000000E+00  0.00000000E+00  0.00000000E+00
  0.00000000E+00  0.00000000E+00  0.00000000E+00
  0.00000000E+00  0.00000000E+00  0.00000000E+00
  0.00000000E+00  0.00000000E+00  0.00000000E+00
  0.00000000E+00  0.00000000E+00  0.00000000E+00
  0.00000000E+00  0.00000000E+00  0.00000000E+00
  0.00000000E+00  0.00000000E+00  0.00000000E+00
  0.00000000E+00  0.00000000E+00  0.00000000E+00
  0.00000000E+00  0.00000000E+00  0.00000000E+00
  0.00000000E+00  0.00000000E+00  0.00000000E+00
  0.00000000E+00  0.00000000E+00  0.00000000E+00
  0.00000000E+00  0.00000000E+00  0.00000000E+00
  0.00000000E+00  0.00000000E+00  0.00000000E+00
  0.00000000E+00  0.00000000E+00  0.00000000E+00
  0.00000000E+00  0.00000000E+00  0.00000000E+00
  0.00000000E+00  0.00000000E+00  0.00000000E+00
  0.00000000E+00  0.00000000E+00  0.00000000E+00
  0.00000000E+00  0.00000000E+00  0.00000000E+00
  0.00000000E+00  0.00000000E+00  0.00000000E+00
  0.00000000E+00  0.00000000E+00  0.00000000E+00
  0.00000000E+00  0.00000000E+00  0.00000000E+00
  0.00000000E+00  0.00000000E+00  0.00000000E+00
  0.00000000E+00  0.00000000E+00  0.00000000E+00
  0.00000000E+00  0.00000000E+00  0.00000000E+00
  0.00000000E+00  0.00000000E+00  0.00000000E+00
  0.00000000E+00  0.00000000E+00  0.00000000E+00
  0.00000000E+00  0.00000000E+00  0.00000000E+00
  0.00000000E+00  0.00000000E+00  0.00000000E+00
  0.00000000E+00  0.00000000E+00  0.00000000E+00
  0.00000000E+00  0.00000000E+00  0.00000000E+00
  0.00000000E+00  0.00000000E+00  0.00000000E+00
  0.00000000E+00  0.00000000E+00  0.00000000E+00
  0.00000000E+00  0.00000000E+00  0.00000000E+00
  0.00000000E+00  0.00000000E+00  0.00000000E+00
  0.00000000E+00  0.00000000E+00  0.00000000E+00
  0.00000000E+00  0.00000000E+00  0.00000000E+00
  0.00000000E+00  0.00000000E+00  0.00000000E+00
  0.00000000E+00  0.00000000E+00  0.00000000E+00
  0.00000000E+00  0.00000000E+00  0.00000000E+00
  0.00000000E+00  0.00000000E+00  0.00000000E+00
  0.00000000E+00  0.00000000E+00  0.00000000E+00
  0.00000000E+00  0.00000000E+00  0.00000000E+00
  0.00000000E+00  0.00000000E+00  0.00000000E+00
  0.00000000E+00  0.00000000E+00  0.00000000E+00
  0.00000000E+00  0.00000000E+00  0.00000000E+00
  0.00000000E+00  0.00000000E+00  0.00000000E+00
  0.00000000E+00  0.00000000E+00  0.00000000E+00
  0.00000000E+00  0.00000000E+00  0.00000000E+00
  0.00000000E+00  0.00000000E+00  0.00000000E+00
  0.00000000E+00  0.00000000E+00  0.00000000E+00
  0.00000000E+00  0.00000000E+00  0.00000000E+00
  0.00000000E+00  0.00000000E+00  0.00000000E+00
  0.00000000E+00  0.00000000E+00  0.00000000E+00
  0.00000000E+00  0.00000000E+00  0.00000000E+00
  0.00000000E+00  0.00000000E+00  0.00000000E+00
  0.00000000E+00  0.00000000E+00  0.00000000E+00
  0.00000000E+00  0.00000000E+00  0.00000000E+00
  0.00000000E+00  0.00000000E+00  0.00000000E+00
  0.00000000E+00  0.00000000E+00  0.00000000E+00
  0.00000000E+00  0.00000000E+00  0.00000000E+00
  0.00000000E+00  0.00000000E+00  0.00000000E+00
  0.00000000E+00  0.00000000E+00  0.00000000E+00
  0.00000000E+00  0.00000000E+00  0.00000000E+00
  0.00000000E+00  0.00000000E+00  0.00000000E+00
  0.00000000E+00  0.00000000E+00  0.00000000E+00
  0.00000000E+00  0.00000000E+00  0.00000000E+00
  0.00000000E+00  0.00000000E+00  0.00000000E+00
  0.00000000E+00  0.00000000E+00  0.00000000E+00
  0.00000000E+00  0.00000000E+00  0.00000000E+00
  0.00000000E+00  0.00000000E+00  0.00000000E+00
  0.00000000E+00  0.00000000E+00  0.00000000E+00
  0.00000000E+00  0.00000000E+00  0.00000000E+00
  0.00000000E+00  0.00000000E+00  0.00000000E+00
  0.00000000E+00  0.00000000E+00  0.00000000E+00
  0.00000000E+00  0.00000000E+00  0.00000000E+00
  0.00000000E+00  0.00000000E+00  0.00000000E+00
  0.00000000E+00  0.00000000E+00  0.00000000E+00
  0.00000000E+00  0.00000000E+00  0.00000000E+00
  0.00000000E+00  0.00000000E+00  0.00000000E+00
  0.00000000E+00  0.00000000E+00  0.00000000E+00
  0.00000000E+00  0.00000000E+00  0.00000000E+00
  0.00000000E+00  0.00000000E+00  0.00000000E+00
  0.00000000E+00  0.00000000E+00  0.00000000E+00
  0.00000000E+00  0.00000000E+00  0.00000000E+00
  0.00000000E+00  0.00000000E+00  0.00000000E+00
  0.00000000E+00  0.00000000E+00  0.00000000E+00
  0.00000000E+00  0.00000000E+00  0.00000000E+00
  0.00000000E+00  0.00000000E+00  0.00000000E+00
  0.00000000E+00  0.00000000E+00  0.00000000E+00
  0.00000000E+00  0.00000000E+00  0.00000000E+00
  0.00000000E+00  0.00000000E+00  0.00000000E+00
  0.00000000E+00  0.00000000E+00  0.00000000E+00
  0.00000000E+00  0.00000000E+00  0.00000000E+00
  0.00000000E+00  0.00000000E+00  0.00000000E+00
  0.00000000E+00  0.00000000E+00  0.00000000E+00
  0.00000000E+00  0.00000000E+00  0.00000000E+00
  0.00000000E+00  0.00000000E+00  0.00000000E+00
  0.00000000E+00  0.00000000E+00  0.00000000E+00
  0.00000000E+00  0.00000000E+00  0.00000000E+00
  0.00000000E+00  0.00000000E+00  0.00000000E+00
  0.00000000E+00  0.00000000E+00  0.00000000E+00
  0.00000000E+00  0.00000000E+00  0.00000000E+00
  0.00000000E+00  0.00000000E+00  0.00000000E+00
  0.00000000E+00  0.00000000E+00  0.00000000E+00
  0.00000000E+00  0.00000000E+00  0.00000000E+00
  0.00000000E+00  0.00000000E+00  0.00000000E+00
  0.00000000E+00  0.00000000E+00  0.00000000E+00
  0.00000000E+00  0.00000000E+00  0.00000000E+00
  0.00000000E+00  0.00000000E+00  0.00000000E+00
  0.00000000E+00  0.00000000E+00  0.00000000E+00
  0.00000000E+00  0.00000000E+00  0.00000000E+00
  0.00000000E+00  0.00000000E+00  0.00000000E+00
  0.00000000E+00  0.00000000E+00  0.00000000E+00
  0.00000000E+00  0.00000000E+00  0.00000000E+00
  0.00000000E+00  0.00000000E+00  0.00000000E+00
  0.00000000E+00  0.00000000E+00  0.00000000E+00
  0.00000000E+00  0.00000000E+00  0.00000000E+00
  0.00000000E+00  0.00000000E+00  0.00000000E+00
  0.00000000E+00  0.00000000E+00  0.00000000E+00
  0.00000000E+00  0.00000000E+00  0.00000000E+00
  0.00000000E+00  0.00000000E+00  0.00000000E+00
  0.00000000E+00  0.00000000E+00  0.00000000E+00
  0.00000000E+00  0.00000000E+00  0.00000000E+00
  0.00000000E+00  0.00000000E+00  0.00000000E+00
  0.00000000E+00  0.00000000E+00  0.00000000E+00
  0.00000000E+00  0.00000000E+00  0.00000000E+00
  0.00000000E+00  0.00000000E+00  0.00000000E+00
