config 36
1.0
15.426331 0.000000 0.000000
0.000000 15.426331 0.000000
0.000000 0.000000 15.426331
Li Ti O F
1 64 64 128
direct
0.625000 0.125000 0.875000 Li
0.994974 0.995449 0.994636 Ti
0.000071 0.991744 0.493460 Ti
0.005640 0.495054 0.997973 Ti
0.993722 0.502187 0.507040 Ti
0.493976 0.994656 0.999270 Ti
0.500300 0.008135 0.500292 Ti
0.504217 0.495627 0.995762 Ti
0.491998 0.499345 0.494929 Ti
0.006729 0.002515 0.256290 Ti
0.001031 0.007595 0.756837 Ti
0.993472 0.493953 0.251852 Ti
0.992450 0.498824 0.742362 Ti
0.506420 0.007949 0.250136 Ti
0.492468 0.005224 0.751378 Ti
0.493081 0.497438 0.257385 Ti
0.500978 0.504778 0.758048 Ti
0.995219 0.257080 0.001059 Ti
0.998858 0.247868 0.491349 Ti
0.997959 0.757979 0.006226 Ti
0.998193 0.756549 0.506079 Ti
0.494631 0.257958 0.000187 Ti
0.507980 0.245447 0.499989 Ti
0.507190 0.756836 0.998806 Ti
0.506836 0.752902 0.509030 Ti
0.999513 0.258063 0.255249 Ti
0.006350 0.242193 0.747130 Ti
0.006981 0.748664 0.243125 Ti
0.992912 0.750938 0.743428 Ti
0.508164 0.242339 0.250931 Ti
0.506634 0.242889 0.749572 Ti
0.507032 0.751638 0.251794 Ti
0.501542 0.742543 0.743212 Ti
0.256213 0.998863 0.006112 Ti
0.249125 0.993807 0.506615 Ti
0.243423 0.507596 0.997817 Ti
0.254127 0.494173 0.506399 Ti
0.757252 0.000388 0.994309 Ti
0.751249 0.006505 0.494280 Ti
0.742062 0.500564 0.005161 Ti
0.755681 0.497864 0.505268 Ti
0.244686 0.002115 0.243847 Ti
0.257189 0.997887 0.744256 Ti
0.255373 0.492403 0.251953 Ti
0.247424 0.506346 0.741212 Ti
0.744877 0.999716 0.255930 Ti
0.748405 0.006236 0.756336 Ti
0.756015 0.499497 0.242912 Ti
0.757306 0.498282 0.742860 Ti
0.257330 0.251111 0.005634 Ti
0.252750 0.256716 0.505538 Ti
0.251781 0.742589 0.993400 Ti
0.251312 0.755431 0.492770 Ti
0.757352 0.250216 0.006600 Ti
0.743275 0.242459 0.498107 Ti
0.741917 0.750005 0.994025 Ti
0.741905 0.752016 0.494075 Ti
0.251463 0.257514 0.243572 Ti
0.244028 0.251389 0.743531 Ti
0.243978 0.748282 0.255656 Ti
0.248220 0.741935 0.756670 Ti
0.742564 0.250627 0.242010 Ti
0.744121 0.241959 0.750631 Ti
0.745842 0.750455 0.256713 Ti
0.757373 0.751295 0.756831 Ti
0.004591 0.501212 0.624732 O
0.994326 0.005672 0.376186 O
0.998575 0.002484 0.872927 O
0.502111 0.496632 0.375191 O
0.496462 0.499893 0.874466 O
0.998266 0.746826 0.125817 O
0.000537 0.746598 0.624310 O
0.500329 0.756299 0.624651 O
0.997329 0.246233 0.376534 O
0.253665 0.003610 0.125426 O
0.252536 0.003701 0.625342 O
0.241669 0.496500 0.625727 O
0.753098 0.494808 0.125689 O
0.748756 0.496291 0.624170 O
0.752669 0.996980 0.376088 O
0.747544 0.996684 0.873677 O
0.248559 0.249090 0.125625 O
0.254322 0.248931 0.625135 O
0.745683 0.254910 0.125994 O
0.253810 0.747226 0.374604 O
0.250506 0.753165 0.875103 O
0.751544 0.754339 0.374096 O
0.747385 0.754561 0.875396 O
0.124337 0.501701 0.997471 O
0.625828 0.505589 0.000534 O
0.125382 0.001278 0.253120 O
0.625152 0.998595 0.251658 O
0.624422 0.252237 0.498512 O
0.624708 0.744494 0.004032 O
0.624674 0.757181 0.497096 O
0.124580 0.250029 0.747174 O
0.125604 0.752940 0.251040 O
0.625440 0.247820 0.258528 O
0.625340 0.251047 0.744332 O
0.623106 0.755072 0.250161 O
0.375843 0.001842 0.993424 O
0.375222 0.501568 0.501546 O
0.872965 0.003864 0.001490 O
0.875302 0.498551 0.496665 O
0.375843 0.995924 0.755270 O
0.374047 0.497940 0.251478 O
0.875619 0.499638 0.255105 O
0.875107 0.505840 0.749730 O
0.375677 0.246677 0.000629 O
0.874170 0.246334 0.002221 O
0.874903 0.746432 0.750402 O
0.504841 0.122756 0.499398 O
0.995132 0.125878 0.743661 O
0.497564 0.124925 0.258115 O
0.500035 0.123712 0.744078 O
0.500174 0.625690 0.747355 O
0.998476 0.374866 0.003697 O
0.999580 0.874948 0.000804 O
0.001646 0.874734 0.497934 O
0.501021 0.374168 0.003817 O
0.502335 0.875543 0.000653 O
0.004295 0.373826 0.248264 O
0.253211 0.625161 0.000716 O
0.747494 0.124968 0.501798 O
0.249781 0.624677 0.750851 O
0.752605 0.124601 0.746520 O
0.248717 0.373017 0.494409 O
0.247609 0.875723 0.500268 O
0.243940 0.374506 0.255594 O
0.001020 0.001624 0.126946 F
0.005309 0.997619 0.623558 F
0.997423 0.507321 0.125380 F
0.496078 0.002931 0.126242 F
0.498857 0.991414 0.623050 F
0.500098 0.504771 0.127247 F
0.504977 0.498012 0.624564 F
0.006379 0.496960 0.376139 F
0.998184 0.498198 0.873109 F
0.500677 0.993858 0.376912 F
0.513399 0.003671 0.874699 F
0.004065 0.245882 0.127281 F
0.996742 0.257888 0.621359 F
0.504912 0.243128 0.126520 F
0.492059 0.251935 0.623122 F
0.495419 0.749274 0.126786 F
0.998365 0.249931 0.874171 F
0.995159 0.749514 0.375215 F
0.002509 0.750304 0.874010 F
0.494415 0.258173 0.376118 F
0.503573 0.247767 0.874276 F
0.494100 0.751324 0.375572 F
0.499606 0.750109 0.873778 F
0.247677 0.495506 0.124881 F
0.748048 0.005744 0.126704 F
0.745137 0.997776 0.623066 F
0.253909 0.000541 0.375663 F
0.244201 0.994440 0.874475 F
0.244453 0.510326 0.375243 F
0.256566 0.496550 0.873720 F
0.744031 0.503494 0.374815 F
0.749859 0.503047 0.874103 F
0.253005 0.753490 0.124948 F
0.249873 0.750299 0.624963 F
0.754493 0.258278 0.623132 F
0.753075 0.746332 0.125948 F
0.748629 0.746995 0.624292 F
0.250091 0.243969 0.374614 F
0.249355 0.251757 0.875187 F
0.758656 0.246745 0.374300 F
0.748719 0.247639 0.875747 F
0.125946 0.000124 0.001233 F
0.124667 0.009757 0.496706 F
0.123233 0.502365 0.495281 F
0.625209 0.999837 0.006265 F
0.623970 0.989394 0.500165 F
0.625319 0.497355 0.500246 F
0.126649 0.001450 0.748674 F
0.123993 0.505369 0.246774 F
0.123238 0.494979 0.759897 F
0.623655 0.996301 0.742643 F
0.625277 0.497893 0.247798 F
0.626415 0.494855 0.752554 F
0.124920 0.251217 0.997401 F
0.123444 0.242658 0.501367 F
0.125172 0.747718 0.001636 F
0.124271 0.745408 0.496926 F
0.625934 0.250425 0.997355 F
0.124474 0.239271 0.253667 F
0.123533 0.752224 0.749843 F
0.626278 0.752804 0.748946 F
0.377061 0.001626 0.498121 F
0.373494 0.497619 0.005215 F
0.874980 0.001474 0.510462 F
0.874659 0.499574 0.996803 F
0.377306 0.997738 0.254658 F
0.374702 0.496761 0.743310 F
0.873897 0.000755 0.245783 F
0.874216 0.992318 0.741455 F
0.378628 0.246611 0.495660 F
0.376660 0.754377 0.000660 F
0.377028 0.748295 0.501326 F
0.874266 0.253142 0.502124 F
0.872362 0.751887 0.998198 F
0.872732 0.747157 0.502253 F
0.377982 0.254973 0.249798 F
0.376108 0.250275 0.754609 F
0.377219 0.747558 0.248259 F
0.375127 0.756254 0.749685 F
0.874033 0.252205 0.247616 F
0.874127 0.254797 0.749575 F
0.873821 0.746056 0.249897 F
0.005134 0.126719 0.001604 F
0.994222 0.125464 0.509085 F
0.995725 0.625278 0.995302 F
0.998921 0.626190 0.493512 F
0.505724 0.124546 0.000294 F
0.492066 0.627494 0.001310 F
0.503947 0.626769 0.499868 F
0.994185 0.127288 0.246462 F
0.000717 0.623440 0.256309 F
0.008490 0.624548 0.754790 F
0.502594 0.626227 0.252238 F
0.004507 0.373475 0.497886 F
0.497596 0.372251 0.503643 F
0.493406 0.878071 0.495177 F
0.996960 0.374227 0.751176 F
0.993945 0.875750 0.252028 F
0.001710 0.875741 0.747875 F
0.501854 0.371978 0.243825 F
0.497822 0.373265 0.747732 F
0.495041 0.876069 0.249336 F
0.503469 0.875494 0.755279 F
0.244428 0.124800 0.993002 F
0.253477 0.124284 0.496569 F
0.249106 0.626410 0.504045 F
0.741671 0.125832 0.999698 F
0.758864 0.625624 0.000482 F
0.747346 0.625512 0.499125 F
0.257780 0.126279 0.254162 F
0.252019 0.124445 0.757840 F
0.250081 0.623807 0.242197 F
0.755808 0.125668 0.251694 F
0.745476 0.625278 0.249990 F
0.741400 0.625110 0.749477 F
0.250410 0.375964 0.998604 F
0.247733 0.874037 0.003565 F
0.749634 0.374794 0.991097 F
0.750917 0.372373 0.492382 F
0.748163 0.874958 0.010256 F
0.756995 0.876315 0.505498 F
0.252426 0.375819 0.755021 F
0.255985 0.875537 0.250469 F
0.245639 0.873571 0.745680 F
0.750147 0.374195 0.260795 F
0.752801 0.373734 0.755284 F
0.756286 0.875135 0.241056 F
0.749125 0.875298 0.742312 F

