config 36                               
   1.00000000000000     
    15.4263309999999993    0.0000000000000000    0.0000000000000000
     0.0000000000000000   15.4263309999999993    0.0000000000000000
     0.0000000000000000    0.0000000000000000   15.4263309999999993
   Li   Ti   O    F 
     1    64    64   128
Direct
  0.5773571768996412  0.1433638947765519  0.8773939272928235
  0.9964487622017422  0.9950973085861128  0.9942801736949367
  0.9996479272204443  0.9917016948759689  0.4934618457791201
  0.0062497556066021  0.4953884471211358  0.9976079601529335
  0.9939890246749233  0.5028303031044674  0.5072954705219518
  0.4946082862496345  0.9908752063827856  0.0008197933026886
  0.5013587947105733  0.0088159519304994  0.4981788841737548
  0.5046172191881221  0.4966905227785119  0.9958932492485285
  0.4919618794606715  0.4991308580914990  0.4950829230359570
  0.0071797395521230  0.0028896370429139  0.2558975975819056
  0.0029099660792203  0.0072080670599736  0.7567891542999623
  0.9938768532368698  0.4934925431832545  0.2515440192105483
  0.9925547587951083  0.4993722439556412  0.7420044539734232
  0.5063165924146569  0.0087647802400546  0.2504987080211115
  0.4949451894720871  0.0064043755570602  0.7526898211964819
  0.4931819843115124  0.4960849181608259  0.2570923141806158
  0.5012618306501367  0.5064036754100681  0.7582959541675353
  0.9961819525070787  0.2573469546301389  0.0017643706040085
  0.9978887250943610  0.2479349988924575  0.4913271560443492
  0.9985757852995533  0.7578513531286105  0.0063890494950692
  0.9974331281625413  0.7564863501613540  0.5061228765413417
  0.4937362573536574  0.2607709477121981  0.0039234544284239
  0.5082316045112993  0.2453786245470216  0.4963143226117904
  0.5077975420888816  0.7547086747003057  0.9999252582042697
  0.5069342246698881  0.7530842650883014  0.5088116475674932
  0.9994453530433225  0.2580689272067108  0.2552603731467770
  0.0047470058488439  0.2425276048312367  0.7474493528651145
  0.0070388591168182  0.7483478245914599  0.2432943189967932
  0.9930552471360876  0.7501654725773117  0.7433784214630551
  0.5080689865690329  0.2414935781402771  0.2520166004303601
  0.5019843628912477  0.2490178331183062  0.7479230328734248
  0.5068735590672763  0.7514816728196366  0.2519464510780892
  0.5022801302279108  0.7436833053606651  0.7436838409423401
  0.2572010474655731  0.9985186308931343  0.0059393581443723
  0.2508043415426903  0.9939693066395527  0.5068544159322054
  0.2440939355367814  0.5078326935600289  0.9975781732403735
  0.2543713496425090  0.4944120657677543  0.5065414080204914
  0.7580104736848531  0.9994160534981563  0.9941279903742407
  0.7499192280168392  0.0070254977659289  0.4945617272584677
  0.7421539666232946  0.5000975084536172  0.0051074280991413
  0.7554688687737362  0.4979462443123227  0.5055090961914548
  0.2452375098844133  0.0023276360758006  0.2436646659709588
  0.2594653541514162  0.9985660674704582  0.7447092674562309
  0.2554349965116554  0.4921044137362222  0.2517230922952520
  0.2466425893789974  0.5064513153011815  0.7411290172135961
  0.7447810141786378  0.0004542731492499  0.2557181006304891
  0.7484233201999312  0.0064209026598997  0.7557561721411289
  0.7559302512447058  0.4984778516960744  0.2427704759283391
  0.7574330064775021  0.4985068322380553  0.7426394707359799
  0.2565522866073716  0.2511935804088237  0.0062799850150711
  0.2527611065750341  0.2568030534456148  0.5054336399003083
  0.2524506798754366  0.7424490471652988  0.9935984034006169
  0.2519900366836576  0.7555034993294630  0.4928992256876442
  0.7584334909774841  0.2508026182394348  0.0078789358877421
  0.7418740240486733  0.2427501567040311  0.4973512493039885
  0.7424016939110738  0.7484678978072332  0.9941034979735012
  0.7416319658442850  0.7524332543405891  0.4941659210885738
  0.2509060774531421  0.2575648803499452  0.2436473795790092
  0.2414010387125826  0.2520234489056375  0.7437454241834573
  0.2441514365057880  0.7478762698052176  0.2558547368574567
  0.2478552487723917  0.7421361560176662  0.7566489258109165
  0.7417964043239079  0.2507126217717509  0.2425910031641313
  0.7423227425801778  0.2431009942901238  0.7511853277276351
  0.7458326445540295  0.7497761614156379  0.2569281066258993
  0.7579660888516824  0.7501833566430254  0.7567994626267419
  0.0079665913087766  0.5017158918424324  0.6246785078699516
  0.9983192931085962  0.0057397030436268  0.3759291222974220
  0.0037932775230685  0.0019501391435576  0.8730683288115499
  0.4997659072513948  0.4898602743234515  0.3748750099738785
  0.4944674722013620  0.4956463141180414  0.8752885766494759
  0.9990136139445829  0.7457974540953458  0.1258164826197709
  0.0016580300729394  0.7457142079144015  0.6242939244558100
  0.5021969409884043  0.7499781312852435  0.6243784264050071
  0.9924119160661283  0.2466998438342443  0.3763573742539506
  0.2575797924157656  0.0031565631521005  0.1250902247407925
  0.2573996837840057  0.0038765573112782  0.6248622626072032
  0.2393588971010713  0.4953750774486383  0.6257099173452821
  0.7504181365817326  0.4902085935135923  0.1255367745953735
  0.7459269379207807  0.4931401123263474  0.6242621817321018
  0.7481423675409266  0.9998322596625945  0.3758891387192299
  0.7410306359322957  1.0009019204843310  0.8743978002412969
  0.2436258453385998  0.2493239369557373  0.1254465465594147
  0.2501985922524977  0.2496605214555286  0.6248626010147620
  0.7386081924057769  0.2588320161840948  0.1262199779761414
  0.2548526657617986  0.7462355585037469  0.3745348696789930
  0.2518004368834489  0.7526099483717074  0.8753532288210299
  0.7525100760740426  0.7507871863762996  0.3742327060041212
  0.7487692217009190  0.7503679591760816  0.8757999438568478
  0.1246939406749533  0.5043203820457655  0.9945098703078509
  0.6260345737094850  0.5092159492660606  0.9982214485590115
  0.1258142553415974  0.0041174455867774  0.2494025832002914
  0.6250568790318018  0.0029422933107773  0.2470601400275461
  0.6244386977214501  0.2588579544686002  0.4891752139418095
  0.6247658957861766  0.7395510640160665  0.0031525461451363
  0.6246635867754441  0.7636238809761096  0.4958030290534938
  0.1229409056255287  0.2556977848564421  0.7508245520031734
  0.1255841447397977  0.7503264091537113  0.2518338233778105
  0.6254008990291069  0.2438384688418164  0.2640764538596871
  0.6275998273538981  0.2542220564117108  0.7576743560793424
  0.6230042279562942  0.7522784131439207  0.2512011375238728
  0.3772435201974838 -0.0001994993194904  0.9905696643744448
  0.3754139201362149  0.5060146251292500  0.5036279143409558
  0.8737248422786349  0.0004920605743731  0.9971810030119118
  0.8752118290978608  0.5039843790212460  0.4995524015085462
  0.3763732367080846  0.0020487953552617  0.7588400860880364
  0.3740966364913300  0.4947516312415239  0.2485281550278868
  0.8756952581416411  0.4961726481973912  0.2521613672735239
  0.8752180082399844  0.5108449102591818  0.7463050987113092
  0.3758635571720113  0.2478447464781544  0.0067896563034920
  0.8748024567379579  0.2493090465951879  0.0092481958590969
  0.8751990774197786  0.7405817081039852  0.7495039990756988
  0.5115825817881439  0.1224247610360168  0.4852117317736518
  0.9997951126069484  0.1258129385561512  0.7442360833298913
  0.4939668946589013  0.1250276166346534  0.2675799166461028
  0.5131515671594233  0.1195074311984366  0.7663154950084906
  0.5044896584771599  0.6270917811120303  0.7533261971128370
  0.0018174681726122  0.3748548033696374  0.0040483354979253
  0.0033638684502207  0.8748065718617352  0.0015215282606259
  0.9940314914274777  0.8747567397081477  0.4983590762150324
  0.5049118103874310  0.3751059311007002  0.0126830927433118
  0.5052662243657491  0.8737072630734504  0.0105604248515375
  0.0077985798933734  0.3737104274535569  0.2477920849535879
  0.2567359350181734  0.6249764218106565  0.0019699320901311
  0.7396452225902620  0.1248745558196335  0.5046034175266019
  0.2440684261128128  0.6248989629956173  0.7502828512942540
  0.7465853384647918  0.1234816586502999  0.7445475222737801
  0.2532734929085471  0.3731905169947020  0.4933356359877121
  0.2543474433508002  0.8756204645570689  0.4995204338741481
  0.2413491165589096  0.3742239804244754  0.2561709336253625
  0.9980566927588707  0.0024241687401281  0.1266855617266241
  0.0009343363818158  0.9976616318015300  0.6235929031626559
  0.0006743907474414  0.5079507265116653  0.1251969574378884
  0.4924594021444180  0.0157094106525801  0.1257403053429757
  0.4948411510385017  0.0059744488874145  0.6224433168416026
  0.5025443451832052  0.5107475945466096  0.1275257402157928
  0.5082154541596822  0.5072756726112385  0.6235280183179224
  0.0032828882007650  0.4962680491556493  0.3760934339060896
  0.9950366090371944  0.4978822515764049  0.8730361384515309
  0.5065642305391884  0.9829359134472354  0.3758222526540750
  0.5218611539369251  0.9890844035064230  0.8767860240662295
  0.0097258763063921  0.2452837097433338  0.1274780247282923
  1.0001340913497259  0.2576661183526066  0.6212134424537222
  0.5125913872825394  0.2308740023520347  0.1264455878387309
  0.5004226632289633  0.2367587295703483  0.6182418822674171
  0.4963113062544589  0.7410034736685146  0.1272163270324246
  0.9932690582894534  0.2502316478713753  0.8747142010217078
  0.9943625154322137  0.7498476458238560  0.3752051521517647
  0.0015738094832005  0.7503719589129353  0.8742062506618088
  0.4878099425088193  0.2688063148478082  0.3739760799155841
  0.5002909343633802  0.2544698224348625  0.8789137138377763
  0.4926983781871118  0.7592446671333467  0.3753679171708544
  0.4985287028570251  0.7554218010012040  0.8750374785843203
  0.2445313994936105  0.4942254529850497  0.1246814949432373
  0.7523891223486638  0.0019403487886708  0.1264312200880640
  0.7507440396604845  0.9942846144101611  0.6229883916906230
  0.2507137342871777  0.0012076534616506  0.3750839410462645
  0.2419697708010656  0.9949581189284735  0.8747528610647360
  0.2474277086355972  0.5112161249199961  0.3750143240045340
  0.2593352807030563  0.4975528336308409  0.8736776274145164
  0.7466531355958663  0.5064186169799985  0.3747137908713755
  0.7530237143410045  0.5056853861965053  0.8743876356921250
  0.2522209315551118  0.7544623911788210  0.1249520075984264
  0.2489230945060169  0.7509441956471424  0.6249703076315515
  0.7467753404215030  0.2607147721600678  0.6228172754565418
  0.7524481772904971  0.7489342863277778  0.1259670945999409
  0.7476367516753002  0.7496192815664373  0.6244748699344688
  0.2540092746080851  0.2435087217306885  0.3738953482596800
  0.2521942317398129  0.2512688512033982  0.8756180612192846
  0.7644200310349951  0.2427328108273511  0.3738991597780664
  0.7578621824268907  0.2417004832766892  0.8772304633375442
  0.1269870623531245  0.0027306223318217  0.0046483906268515
  0.1249479421814000  0.0017763546594688  0.5012802422580402
  0.1232769286160627  0.4976884419792010  0.4922111011633902
  0.6253870494820748  0.0034857065685570  0.0107940291705266
  0.6239378882906196  0.9825914603229929  0.5056224714907050
  0.6254825604268592  0.4919590945680474  0.4970924355514539
  0.1273632583101359  0.9961159474574592  0.7442622458875793
  0.1241221188767790  0.5082256692298432  0.2494000797079505
  0.1231178008961070  0.4904372425081991  0.7625403204137280
  0.6250479711737500  0.9870523313777538  0.7372260303993102
  0.6253238229655569  0.5007462601426538  0.2501322267347935
  0.6268889542418024  0.4926566401008225  0.7558846122236063
  0.1251341429145356  0.2484770071914111  0.9936538409667440
  0.1230032440646049  0.2485397947638613  0.4964838078762109
  0.1255357022732007  0.7442242843831671  0.0008091052803032
  0.1242091450678886  0.7521884459085643  0.4958996661100747
  0.6260152088757570  0.2425650069995744  0.9867192170873491
  0.1243872701628129  0.2361017484081084  0.2579902672664236
  0.1234662783395704  0.7575167146028472  0.7511021074616400
  0.6268762150222627  0.7579548250858392  0.7506681938359329
  0.3777996885351668  0.0092996175885532  0.4917196504352020
  0.3737125501347553  0.4942346113991544  0.0077633194540710
  0.8745988518666280  0.0099268564109209  0.5048155012448020
  0.8747756704214605  0.4958746655229715  0.9995473422254449
  0.3778243507415586  0.9946643772007351  0.2573190468105021
  0.3744068117352833  0.5038746230107913  0.7412983030581366
  0.8739820049063466  0.9976015258569474  0.2492680817179824
  0.8749030672333945  0.9967266111630323  0.7471461642450539
  0.3785393039221935  0.2405277390105368  0.4982655847297636
  0.3770221239164916  0.7573305242933002  0.0021115746325576
  0.3773274930356314  0.7419221356950274  0.5022541575068554
  0.8735731407077405  0.2464642822451702  0.5071232925398153
  0.8725553253733759  0.7553552869750626  0.9993418560254296
  0.8724284045829660  0.7406143038395191  0.5033423385639206
  0.3782398806465691  0.2575105875995662  0.2425802379329177
  0.3731885822220613  0.2448209466983282  0.7511814020164135
  0.3772184514551380  0.7501738067571758  0.2472386970272901
  0.3750475859298726  0.7514634058330164  0.7484236481765871
  0.8738247010178642  0.2565141332833754  0.2418628094997995
  0.8744685170531602  0.2510240148359590  0.7446548670704356
  0.8738547848660928  0.7492129296477472  0.2490393443350063
  0.0031253087426164  0.1267491827394086  0.0012480827805636
  1.0008646378817749  0.1254713711011634  0.5088948567289850
  0.9929902542986216  0.6250725126083954  0.9948327170629707
  0.0046615983392669  0.6263940956319562  0.4925867424749965
  0.5099086208594704  0.1231568403687850  0.9812679588480370
  0.4879406487837492  0.6270376562958766 -0.0022412075521048
  0.5094239791811931  0.6270611501250999  0.4917851878521705
  0.9905741158349797  0.1274633780404747  0.2464318644752260
  0.9974116545822883  0.6232503197356636  0.2569708097830407
  0.0136967454100022  0.6244140196562521  0.7556059025851836
  0.4994285701959207  0.6259846161800987  0.2591819654831917
 -0.0016044176064058  0.3736765046491354  0.4982049589962849
  0.4921966644983670  0.3719103401289028  0.5114410031987936
  0.4865775119391266  0.8786688569188649  0.5036355608532321
  0.9919070137746133  0.3747511171825313  0.7508328251925849
  0.9969751117569945  0.8758710565212212  0.2513862348771210
  0.9967836426800561  0.8753105171606800  0.7475680012206478
  0.5057816572002372  0.3711481995997632  0.2353207433486449
  0.4938644933253492  0.3803287600994066  0.7371581348230365
  0.4982655753881736  0.8763694868430544  0.2398415377873734
  0.4984253439979870  0.8742762317170213  0.7498398495497066
  0.2474512611087940  0.1247109206896097  0.9932205124526645
  0.2472735044893070  0.1245291757194110  0.4962595779712793
  0.2440145783086442  0.6263971682564763  0.5046811075270048
  0.7450268164336465  0.1255082527726897  0.0043367823399886
  0.7631318895802784  0.6248268902862829  0.0049716643755578
  0.7408988348179549  0.6255491768224599  0.5024276668891530
  0.2613367795549024  0.1263393753509899  0.2531135332016764
  0.2450520728477910  0.1248139682430485  0.7571998110905234
  0.2529801002826433  0.6235599735286073  0.2409099402203445
  0.7601417015231462  0.1259897548645268  0.2468985099642292
  0.7489232951480376  0.6247822306879136  0.2459108714790063
  0.7370917914488231  0.6249174738067527  0.7465478197306705
  0.2482653328621860  0.3757191285884977  0.9975833271900653
  0.2457815364855038  0.8740441596339151  0.0029514678838373
  0.7450026662922272  0.3740695293243194  0.9871151593197008
  0.7573519619207774  0.3722849681208385  0.4895898575415960
  0.7440550573820270  0.8741499249157170  0.0068156714602609
  0.7634845619329550  0.8763325545936718  0.5021460704413828
  0.2568854405674640  0.3760933917080241  0.7557606348762770
  0.2534472429784314  0.8755667448046737  0.2510512929604256
  0.2508149233803433  0.8737101092544254  0.7463074411919497
  0.7461451492824923  0.3738863943086239  0.2651760848625284
  0.7581205565271392  0.3741957270210053  0.7584776770281039
  0.7524572744133455  0.8751544907095157  0.2445825621136288
  0.7561232269118400  0.8745673556447645  0.7464538527984990
 
  0.00000000E+00  0.00000000E+00  0.00000000E+00
  0.00000000E+00  0.00000000E+00  0.00000000E+00
  0.00000000E+00  0.00000000E+00  0.00000000E+00
  0.00000000E+00  0.00000000E+00  0.00000000E+00
  0.00000000E+00  0.00000000E+00  0.00000000E+00
  0.00000000E+00  0.00000000E+00  0.00000000E+00
  0.00000000E+00  0.00000000E+00  0.00000000E+00
  0.00000000E+00  0.00000000E+00  0.00000000E+00
  0.00000000E+00  0.00000000E+00  0.00000000E+00
  0.00000000E+00  0.00000000E+00  0.00000000E+00
  0.00000000E+00  0.00000000E+00  0.00000000E+00
  0.00000000E+00  0.00000000E+00  0.00000000E+00
  0.00000000E+00  0.00000000E+00  0.00000000E+00
  0.00000000E+00  0.00000000E+00  0.00000000E+00
  0.00000000E+00  0.00000000E+00  0.00000000E+00
  0.00000000E+00  0.00000000E+00  0.00000000E+00
  0.00000000E+00  0.00000000E+00  0.00000000E+00
  0.00000000E+00  0.00000000E+00  0.00000000E+00
  0.00000000E+00  0.00000000E+00  0.00000000E+00
  0.00000000E+00  0.00000000E+00  0.00000000E+00
  0.00000000E+00  0.00000000E+00  0.00000000E+00
  0.00000000E+00  0.00000000E+00  0.00000000E+00
  0.00000000E+00  0.00000000E+00  0.00000000E+00
  0.00000000E+00  0.00000000E+00  0.00000000E+00
  0.00000000E+00  0.00000000E+00  0.00000000E+00
  0.00000000E+00  0.00000000E+00  0.00000000E+00
  0.00000000E+00  0.00000000E+00  0.00000000E+00
  0.00000000E+00  0.00000000E+00  0.00000000E+00
  0.00000000E+00  0.00000000E+00  0.00000000E+00
  0.00000000E+00  0.00000000E+00  0.00000000E+00
  0.00000000E+00  0.00000000E+00  0.00000000E+00
  0.00000000E+00  0.00000000E+00  0.00000000E+00
  0.00000000E+00  0.00000000E+00  0.00000000E+00
  0.00000000E+00  0.00000000E+00  0.00000000E+00
  0.00000000E+00  0.00000000E+00  0.00000000E+00
  0.00000000E+00  0.00000000E+00  0.00000000E+00
  0.00000000E+00  0.00000000E+00  0.00000000E+00
  0.00000000E+00  0.00000000E+00  0.00000000E+00
  0.00000000E+00  0.00000000E+00  0.00000000E+00
  0.00000000E+00  0.00000000E+00  0.00000000E+00
  0.00000000E+00  0.00000000E+00  0.00000000E+00
  0.00000000E+00  0.00000000E+00  0.00000000E+00
  0.00000000E+00  0.00000000E+00  0.00000000E+00
  0.00000000E+00  0.00000000E+00  0.00000000E+00
  0.00000000E+00  0.00000000E+00  0.00000000E+00
  0.00000000E+00  0.00000000E+00  0.00000000E+00
  0.00000000E+00  0.00000000E+00  0.00000000E+00
  0.00000000E+00  0.00000000E+00  0.00000000E+00
  0.00000000E+00  0.00000000E+00  0.00000000E+00
  0.00000000E+00  0.00000000E+00  0.00000000E+00
  0.00000000E+00  0.00000000E+00  0.00000000E+00
  0.00000000E+00  0.00000000E+00  0.00000000E+00
  0.00000000E+00  0.00000000E+00  0.00000000E+00
  0.00000000E+00  0.00000000E+00  0.00000000E+00
  0.00000000E+00  0.00000000E+00  0.00000000E+00
  0.00000000E+00  0.00000000E+00  0.00000000E+00
  0.00000000E+00  0.00000000E+00  0.00000000E+00
  0.00000000E+00  0.00000000E+00  0.00000000E+00
  0.00000000E+00  0.00000000E+00  0.00000000E+00
  0.00000000E+00  0.00000000E+00  0.00000000E+00
  0.00000000E+00  0.00000000E+00  0.00000000E+00
  0.00000000E+00  0.00000000E+00  0.00000000E+00
  0.00000000E+00  0.00000000E+00  0.00000000E+00
  0.00000000E+00  0.00000000E+00  0.00000000E+00
  0.00000000E+00  0.00000000E+00  0.00000000E+00
  0.00000000E+00  0.00000000E+00  0.00000000E+00
  0.00000000E+00  0.00000000E+00  0.00000000E+00
  0.00000000E+00  0.00000000E+00  0.00000000E+00
  0.00000000E+00  0.00000000E+00  0.00000000E+00
  0.00000000E+00  0.00000000E+00  0.00000000E+00
  0.00000000E+00  0.00000000E+00  0.00000000E+00
  0.00000000E+00  0.00000000E+00  0.00000000E+00
  0.00000000E+00  0.00000000E+00  0.00000000E+00
  0.00000000E+00  0.00000000E+00  0.00000000E+00
  0.00000000E+00  0.00000000E+00  0.00000000E+00
  0.00000000E+00  0.00000000E+00  0.00000000E+00
  0.00000000E+00  0.00000000E+00  0.00000000E+00
  0.00000000E+00  0.00000000E+00  0.00000000E+00
  0.00000000E+00  0.00000000E+00  0.00000000E+00
  0.00000000E+00  0.00000000E+00  0.00000000E+00
  0.00000000E+00  0.00000000E+00  0.00000000E+00
  0.00000000E+00  0.00000000E+00  0.00000000E+00
  0.00000000E+00  0.00000000E+00  0.00000000E+00
  0.00000000E+00  0.00000000E+00  0.00000000E+00
  0.00000000E+00  0.00000000E+00  0.00000000E+00
  0.00000000E+00  0.00000000E+00  0.00000000E+00
  0.00000000E+00  0.00000000E+00  0.00000000E+00
  0.00000000E+00  0.00000000E+00  0.00000000E+00
  0.00000000E+00  0.00000000E+00  0.00000000E+00
  0.00000000E+00  0.00000000E+00  0.00000000E+00
  0.00000000E+00  0.00000000E+00  0.00000000E+00
  0.00000000E+00  0.00000000E+00  0.00000000E+00
  0.00000000E+00  0.00000000E+00  0.00000000E+00
  0.00000000E+00  0.00000000E+00  0.00000000E+00
  0.00000000E+00  0.00000000E+00  0.00000000E+00
  0.00000000E+00  0.00000000E+00  0.00000000E+00
  0.00000000E+00  0.00000000E+00  0.00000000E+00
  0.00000000E+00  0.00000000E+00  0.00000000E+00
  0.00000000E+00  0.00000000E+00  0.00000000E+00
  0.00000000E+00  0.00000000E+00  0.00000000E+00
  0.00000000E+00  0.00000000E+00  0.00000000E+00
  0.00000000E+00  0.00000000E+00  0.00000000E+00
  0.00000000E+00  0.00000000E+00  0.00000000E+00
  0.00000000E+00  0.00000000E+00  0.00000000E+00
  0.00000000E+00  0.00000000E+00  0.00000000E+00
  0.00000000E+00  0.00000000E+00  0.00000000E+00
  0.00000000E+00  0.00000000E+00  0.00000000E+00
  0.00000000E+00  0.00000000E+00  0.00000000E+00
  0.00000000E+00  0.00000000E+00  0.00000000E+00
  0.00000000E+00  0.00000000E+00  0.00000000E+00
  0.00000000E+00  0.00000000E+00  0.00000000E+00
  0.00000000E+00  0.00000000E+00  0.00000000E+00
  0.00000000E+00  0.00000000E+00  0.00000000E+00
  0.00000000E+00  0.00000000E+00  0.00000000E+00
  0.00000000E+00  0.00000000E+00  0.00000000E+00
  0.00000000E+00  0.00000000E+00  0.00000000E+00
  0.00000000E+00  0.00000000E+00  0.00000000E+00
  0.00000000E+00  0.00000000E+00  0.00000000E+00
  0.00000000E+00  0.00000000E+00  0.00000000E+00
  0.00000000E+00  0.00000000E+00  0.00000000E+00
  0.00000000E+00  0.00000000E+00  0.00000000E+00
  0.00000000E+00  0.00000000E+00  0.00000000E+00
  0.00000000E+00  0.00000000E+00  0.00000000E+00
  0.00000000E+00  0.00000000E+00  0.00000000E+00
  0.00000000E+00  0.00000000E+00  0.00000000E+00
  0.00000000E+00  0.00000000E+00  0.00000000E+00
  0.00000000E+00  0.00000000E+00  0.00000000E+00
  0.00000000E+00  0.00000000E+00  0.00000000E+00
  0.00000000E+00  0.00000000E+00  0.00000000E+00
  0.00000000E+00  0.00000000E+00  0.00000000E+00
  0.00000000E+00  0.00000000E+00  0.00000000E+00
  0.00000000E+00  0.00000000E+00  0.00000000E+00
  0.00000000E+00  0.00000000E+00  0.00000000E+00
  0.00000000E+00  0.00000000E+00  0.00000000E+00
  0.00000000E+00  0.00000000E+00  0.00000000E+00
  0.00000000E+00  0.00000000E+00  0.00000000E+00
  0.00000000E+00  0.00000000E+00  0.00000000E+00
  0.00000000E+00  0.00000000E+00  0.00000000E+00
  0.00000000E+00  0.00000000E+00  0.00000000E+00
  0.00000000E+00  0.00000000E+00  0.00000000E+00
  0.00000000E+00  0.00000000E+00  0.00000000E+00
  0.00000000E+00  0.00000000E+00  0.00000000E+00
  0.00000000E+00  0.00000000E+00  0.00000000E+00
  0.00000000E+00  0.00000000E+00  0.00000000E+00
  0.00000000E+00  0.00000000E+00  0.00000000E+00
  0.00000000E+00  0.00000000E+00  0.00000000E+00
  0.00000000E+00  0.00000000E+00  0.00000000E+00
  0.00000000E+00  0.00000000E+00  0.00000000E+00
  0.00000000E+00  0.00000000E+00  0.00000000E+00
  0.00000000E+00  0.00000000E+00  0.00000000E+00
  0.00000000E+00  0.00000000E+00  0.00000000E+00
  0.00000000E+00  0.00000000E+00  0.00000000E+00
  0.00000000E+00  0.00000000E+00  0.00000000E+00
  0.00000000E+00  0.00000000E+00  0.00000000E+00
  0.00000000E+00  0.00000000E+00  0.00000000E+00
  0.00000000E+00  0.00000000E+00  0.00000000E+00
  0.00000000E+00  0.00000000E+00  0.00000000E+00
  0.00000000E+00  0.00000000E+00  0.00000000E+00
  0.00000000E+00  0.00000000E+00  0.00000000E+00
  0.00000000E+00  0.00000000E+00  0.00000000E+00
  0.00000000E+00  0.00000000E+00  0.00000000E+00
  0.00000000E+00  0.00000000E+00  0.00000000E+00
  0.00000000E+00  0.00000000E+00  0.00000000E+00
  0.00000000E+00  0.00000000E+00  0.00000000E+00
  0.00000000E+00  0.00000000E+00  0.00000000E+00
  0.00000000E+00  0.00000000E+00  0.00000000E+00
  0.00000000E+00  0.00000000E+00  0.00000000E+00
  0.00000000E+00  0.00000000E+00  0.00000000E+00
  0.00000000E+00  0.00000000E+00  0.00000000E+00
  0.00000000E+00  0.00000000E+00  0.00000000E+00
  0.00000000E+00  0.00000000E+00  0.00000000E+00
  0.00000000E+00  0.00000000E+00  0.00000000E+00
  0.00000000E+00  0.00000000E+00  0.00000000E+00
  0.00000000E+00  0.00000000E+00  0.00000000E+00
  0.00000000E+00  0.00000000E+00  0.00000000E+00
  0.00000000E+00  0.00000000E+00  0.00000000E+00
  0.00000000E+00  0.00000000E+00  0.00000000E+00
  0.00000000E+00  0.00000000E+00  0.00000000E+00
  0.00000000E+00  0.00000000E+00  0.00000000E+00
  0.00000000E+00  0.00000000E+00  0.00000000E+00
  0.00000000E+00  0.00000000E+00  0.00000000E+00
  0.00000000E+00  0.00000000E+00  0.00000000E+00
  0.00000000E+00  0.00000000E+00  0.00000000E+00
  0.00000000E+00  0.00000000E+00  0.00000000E+00
  0.00000000E+00  0.00000000E+00  0.00000000E+00
  0.00000000E+00  0.00000000E+00  0.00000000E+00
  0.00000000E+00  0.00000000E+00  0.00000000E+00
  0.00000000E+00  0.00000000E+00  0.00000000E+00
  0.00000000E+00  0.00000000E+00  0.00000000E+00
  0.00000000E+00  0.00000000E+00  0.00000000E+00
  0.00000000E+00  0.00000000E+00  0.00000000E+00
  0.00000000E+00  0.00000000E+00  0.00000000E+00
  0.00000000E+00  0.00000000E+00  0.00000000E+00
  0.00000000E+00  0.00000000E+00  0.00000000E+00
  0.00000000E+00  0.00000000E+00  0.00000000E+00
  0.00000000E+00  0.00000000E+00  0.00000000E+00
  0.00000000E+00  0.00000000E+00  0.00000000E+00
  0.00000000E+00  0.00000000E+00  0.00000000E+00
  0.00000000E+00  0.00000000E+00  0.00000000E+00
  0.00000000E+00  0.00000000E+00  0.00000000E+00
  0.00000000E+00  0.00000000E+00  0.00000000E+00
  0.00000000E+00  0.00000000E+00  0.00000000E+00
  0.00000000E+00  0.00000000E+00  0.00000000E+00
  0.00000000E+00  0.00000000E+00  0.00000000E+00
  0.00000000E+00  0.00000000E+00  0.00000000E+00
  0.00000000E+00  0.00000000E+00  0.00000000E+00
  0.00000000E+00  0.00000000E+00  0.00000000E+00
  0.00000000E+00  0.00000000E+00  0.00000000E+00
  0.00000000E+00  0.00000000E+00  0.00000000E+00
  0.00000000E+00  0.00000000E+00  0.00000000E+00
  0.00000000E+00  0.00000000E+00  0.00000000E+00
  0.00000000E+00  0.00000000E+00  0.00000000E+00
  0.00000000E+00  0.00000000E+00  0.00000000E+00
  0.00000000E+00  0.00000000E+00  0.00000000E+00
  0.00000000E+00  0.00000000E+00  0.00000000E+00
  0.00000000E+00  0.00000000E+00  0.00000000E+00
  0.00000000E+00  0.00000000E+00  0.00000000E+00
  0.00000000E+00  0.00000000E+00  0.00000000E+00
  0.00000000E+00  0.00000000E+00  0.00000000E+00
  0.00000000E+00  0.00000000E+00  0.00000000E+00
  0.00000000E+00  0.00000000E+00  0.00000000E+00
  0.00000000E+00  0.00000000E+00  0.00000000E+00
  0.00000000E+00  0.00000000E+00  0.00000000E+00
  0.00000000E+00  0.00000000E+00  0.00000000E+00
  0.00000000E+00  0.00000000E+00  0.00000000E+00
  0.00000000E+00  0.00000000E+00  0.00000000E+00
  0.00000000E+00  0.00000000E+00  0.00000000E+00
  0.00000000E+00  0.00000000E+00  0.00000000E+00
  0.00000000E+00  0.00000000E+00  0.00000000E+00
  0.00000000E+00  0.00000000E+00  0.00000000E+00
  0.00000000E+00  0.00000000E+00  0.00000000E+00
  0.00000000E+00  0.00000000E+00  0.00000000E+00
  0.00000000E+00  0.00000000E+00  0.00000000E+00
  0.00000000E+00  0.00000000E+00  0.00000000E+00
  0.00000000E+00  0.00000000E+00  0.00000000E+00
  0.00000000E+00  0.00000000E+00  0.00000000E+00
  0.00000000E+00  0.00000000E+00  0.00000000E+00
  0.00000000E+00  0.00000000E+00  0.00000000E+00
  0.00000000E+00  0.00000000E+00  0.00000000E+00
  0.00000000E+00  0.00000000E+00  0.00000000E+00
  0.00000000E+00  0.00000000E+00  0.00000000E+00
  0.00000000E+00  0.00000000E+00  0.00000000E+00
  0.00000000E+00  0.00000000E+00  0.00000000E+00
  0.00000000E+00  0.00000000E+00  0.00000000E+00
  0.00000000E+00  0.00000000E+00  0.00000000E+00
  0.00000000E+00  0.00000000E+00  0.00000000E+00
  0.00000000E+00  0.00000000E+00  0.00000000E+00
  0.00000000E+00  0.00000000E+00  0.00000000E+00
  0.00000000E+00  0.00000000E+00  0.00000000E+00
  0.00000000E+00  0.00000000E+00  0.00000000E+00
  0.00000000E+00  0.00000000E+00  0.00000000E+00
  0.00000000E+00  0.00000000E+00  0.00000000E+00
  0.00000000E+00  0.00000000E+00  0.00000000E+00
  0.00000000E+00  0.00000000E+00  0.00000000E+00
  0.00000000E+00  0.00000000E+00  0.00000000E+00
  0.00000000E+00  0.00000000E+00  0.00000000E+00
  0.00000000E+00  0.00000000E+00  0.00000000E+00
