TiOF2 2x2x2 config 2000                 
   1.00000000000000     
     7.8151359580204431   -0.0221064113081530   -0.0019555547266979
    -0.0217373253428875    7.8173019291737873    0.0030787708316772
    -0.0008828861276440    0.0031085317323008    7.7195711473654951
   Ti   O    F 
     8     8    16
Direct
  0.9994688992403820  0.0006515593155207  0.0007822774911638
  0.9992344988165639  0.0009464338644690  0.4997655428369197
  0.9993686063156572  0.5006273993830086  0.9809953861916345
  0.0087467738223964  0.5008405786800372  0.5021805374829957
  0.4994487859269537  0.0003902894402661  0.9806498284068390
  0.4993360691525985  0.9900426552277168  0.5020299287960284
  0.4996425815616964  0.4999339038548108  0.9987812499413434
  0.5089437705335819  0.4913616260748122  0.4967290105983098
  0.2385270558273860  0.5005617080215018  0.4987424422739440
  0.7579686632397062  0.5002059306889083  0.4995483713576419
  0.5002038620647709  0.2428351423910414  0.4990349543954756
  0.4998889170986661  0.7612236780130389  0.4982201964115055
  0.9997790286557838  0.4998564430139169  0.7564890333332759
  0.4998585166925072  0.0003646136155162  0.7557248766131439
  0.5015569121214023  0.4976990279727718  0.2437432033345308
  0.5005010607688970  0.4991017482735565  0.7631538447076596
  0.2499865107112409  0.9945284831638058  0.0037592631548473
  0.2388711693212917  0.0006684160127638  0.4983728743728146
  0.2442726100080235  0.4988925242603539  0.0082067571342332
  0.7488433057617860  0.0057323530122083  0.0047360188615110
  0.7598190073986419  0.0007875280544114  0.4977411311667583
  0.7547974003401116  0.5035121155924391  0.0066658706077307
  0.9946796740948463  0.2502516891347382  0.0049776836945747
  0.9993058592507832  0.2401475598564300  0.4973616785797686
  0.0046108067748897  0.7510870137393162  0.0030560083047095
  0.9992759771304570  0.7615342473244971  0.4989112242460790
  0.4959417672015203  0.2449374338581478  0.0063057493352221
  0.5017164859467694  0.7554561706927287  0.0080966234229301
  0.9996083355681251  0.0001553674559482  0.2568094074866591
  0.9990871936013265  0.0015787862860386  0.7437442158817891
  0.9977214298569576  0.5014515011943582  0.2422078719734053
  0.4989884651942801  0.0026360725308992  0.2424769376045510
 
  0.00000000E+00  0.00000000E+00  0.00000000E+00
  0.00000000E+00  0.00000000E+00  0.00000000E+00
  0.00000000E+00  0.00000000E+00  0.00000000E+00
  0.00000000E+00  0.00000000E+00  0.00000000E+00
  0.00000000E+00  0.00000000E+00  0.00000000E+00
  0.00000000E+00  0.00000000E+00  0.00000000E+00
  0.00000000E+00  0.00000000E+00  0.00000000E+00
  0.00000000E+00  0.00000000E+00  0.00000000E+00
  0.00000000E+00  0.00000000E+00  0.00000000E+00
  0.00000000E+00  0.00000000E+00  0.00000000E+00
  0.00000000E+00  0.00000000E+00  0.00000000E+00
  0.00000000E+00  0.00000000E+00  0.00000000E+00
  0.00000000E+00  0.00000000E+00  0.00000000E+00
  0.00000000E+00  0.00000000E+00  0.00000000E+00
  0.00000000E+00  0.00000000E+00  0.00000000E+00
  0.00000000E+00  0.00000000E+00  0.00000000E+00
  0.00000000E+00  0.00000000E+00  0.00000000E+00
  0.00000000E+00  0.00000000E+00  0.00000000E+00
  0.00000000E+00  0.00000000E+00  0.00000000E+00
  0.00000000E+00  0.00000000E+00  0.00000000E+00
  0.00000000E+00  0.00000000E+00  0.00000000E+00
  0.00000000E+00  0.00000000E+00  0.00000000E+00
  0.00000000E+00  0.00000000E+00  0.00000000E+00
  0.00000000E+00  0.00000000E+00  0.00000000E+00
  0.00000000E+00  0.00000000E+00  0.00000000E+00
  0.00000000E+00  0.00000000E+00  0.00000000E+00
  0.00000000E+00  0.00000000E+00  0.00000000E+00
  0.00000000E+00  0.00000000E+00  0.00000000E+00
  0.00000000E+00  0.00000000E+00  0.00000000E+00
  0.00000000E+00  0.00000000E+00  0.00000000E+00
  0.00000000E+00  0.00000000E+00  0.00000000E+00
  0.00000000E+00  0.00000000E+00  0.00000000E+00
