TiOF2 2x2x2 config 0047                 
   1.00000000000000     
     7.9644619977028395   -0.0000001064145819   -0.0000020598868936
    -0.0000001056735949    7.6894005494611619   -0.0000032353352142
    -0.0000019800356642   -0.0000032351175115    7.6894270584485129
   Ti   O    F 
     8     8    16
Direct
  0.0000000007359162  0.0000000954696660  0.9999999873798373
  0.0000000002978169  0.0000000900135575  0.4999999815447893
  0.0000000004259633  0.4999999170987053  0.0000000107202922
  0.0000000029934171  0.4999999312717378  0.4999999911675204
  0.5000000001923581  0.9999982092065736  0.9999991618816750
  0.4999999997598223  0.0000003152597898  0.5000008628119730
  0.4999999989772874  0.5000018875510150  0.0000013739840767
  0.5000000002936531  0.4999995265334078  0.4999987045622092
  0.5000000012202435  0.2499997774043550  0.9999996192237504
  0.4999999947697873  0.2499998364735490  0.5000003921057612
  0.4999999977885778  0.7500002351018935  0.9999997021769147
  0.5000000059248322  0.7500000882087363  0.5000003101093355
  0.4999999977428615  0.0000005596955859  0.2499998033536883
  0.5000000016941328  0.0000006026432047  0.7500001548642032
  0.5000000003201990  0.4999994015929374  0.2499999277647760
  0.4999999992269011  0.4999994202926032  0.7500001139999384
  0.2362143377029540  0.9999998965321240  0.0000000705927903
  0.2362153669390850  0.9999997794062736  0.4999999638182118
  0.2362158750177912  0.5000001037429627  0.0000001251396924
  0.2362155225484912  0.5000001655062860  0.4999999244924425
  0.7637856636501397  0.9999999026924442  0.0000000700134137
  0.7637846313565504  0.9999998926447375  0.4999998272215151
  0.7637841229255145  0.5000001377654542  0.0000000478433151
  0.7637844780791667  0.5000001703738803  0.4999999267685951
  0.0000000188761717  0.2499998580984837  0.9999999984183745
  0.0000000050225779  0.2500005017806046  0.5000000137145122
  0.9999999816715572  0.7500001588330321  0.9999999755833926
  0.9999999950252274  0.7499995163415605  0.4999999908733557
  0.9999999862103692  0.0000000040281591  0.2499999237175174
  0.0000000130172637  0.0000000370342050  0.7500000434329408
  0.0000000494388814  0.4999999859029245  0.2500004963350193
  0.9999999501544963  0.4999999954995573  0.7499995043841778
 
  0.00000000E+00  0.00000000E+00  0.00000000E+00
  0.00000000E+00  0.00000000E+00  0.00000000E+00
  0.00000000E+00  0.00000000E+00  0.00000000E+00
  0.00000000E+00  0.00000000E+00  0.00000000E+00
  0.00000000E+00  0.00000000E+00  0.00000000E+00
  0.00000000E+00  0.00000000E+00  0.00000000E+00
  0.00000000E+00  0.00000000E+00  0.00000000E+00
  0.00000000E+00  0.00000000E+00  0.00000000E+00
  0.00000000E+00  0.00000000E+00  0.00000000E+00
  0.00000000E+00  0.00000000E+00  0.00000000E+00
  0.00000000E+00  0.00000000E+00  0.00000000E+00
  0.00000000E+00  0.00000000E+00  0.00000000E+00
  0.00000000E+00  0.00000000E+00  0.00000000E+00
  0.00000000E+00  0.00000000E+00  0.00000000E+00
  0.00000000E+00  0.00000000E+00  0.00000000E+00
  0.00000000E+00  0.00000000E+00  0.00000000E+00
  0.00000000E+00  0.00000000E+00  0.00000000E+00
  0.00000000E+00  0.00000000E+00  0.00000000E+00
  0.00000000E+00  0.00000000E+00  0.00000000E+00
  0.00000000E+00  0.00000000E+00  0.00000000E+00
  0.00000000E+00  0.00000000E+00  0.00000000E+00
  0.00000000E+00  0.00000000E+00  0.00000000E+00
  0.00000000E+00  0.00000000E+00  0.00000000E+00
  0.00000000E+00  0.00000000E+00  0.00000000E+00
  0.00000000E+00  0.00000000E+00  0.00000000E+00
  0.00000000E+00  0.00000000E+00  0.00000000E+00
  0.00000000E+00  0.00000000E+00  0.00000000E+00
  0.00000000E+00  0.00000000E+00  0.00000000E+00
  0.00000000E+00  0.00000000E+00  0.00000000E+00
  0.00000000E+00  0.00000000E+00  0.00000000E+00
  0.00000000E+00  0.00000000E+00  0.00000000E+00
  0.00000000E+00  0.00000000E+00  0.00000000E+00
