Ti27 O27 F54                            
   1.00000000000000     
    11.5911916615023305    0.0018460187212393    0.0005043167815567
     0.0018542904893572   11.5946061214819007   -0.0003180498993235
     0.0004973611397327   -0.0003062610779476   11.5869124863603759
   Ti   O    F 
    27    27    54
Direct
  0.0095145050760808  0.0015139285496349 -0.0126045526810479
 -0.0122665435652329  0.0000879903589026  0.3328597951320180
  0.0097873421408038 -0.0077471884707632  0.6759410530188645
  0.0064751092586811  0.3443358124503685 -0.0009054437840370
 -0.0092038091618039  0.3436619430679039  0.3400501091844126
  0.0082961153813165  0.3329315406256104  0.6548581039749235
 -0.0086985444223342  0.6598771503754723  0.0110247873668932
  0.0108087229189789  0.6566155914468593  0.3241857044155401
 -0.0093846387675556  0.6780231048072015  0.6671311229241660
  0.3231370353788606 -0.0098194291092557 -0.0005480936130535
  0.3322721277822827 -0.0118335652379773  0.3438391808889356
  0.3226070766639957 -0.0047089281039294  0.6576257061134804
  0.3212258908378172  0.3326821037769484  0.0002340206166157
  0.3346902329027344  0.3320642224312096  0.3454249091226538
  0.3224479128626175  0.3330504764534892  0.6603695988453695
  0.3339004160915430  0.6762734315669152  0.0121207762820306
  0.3209731927102574  0.6749702067243615  0.3257256817983277
  0.3337448712877635  0.6788161542013273  0.6667963219883474
  0.6671834804905494  0.0009761868114817 -0.0114877834182910
  0.6724952311694977  0.0133265559761330  0.3325257751615437
  0.6670955832312347  0.0107716231857808  0.6731112667907247
  0.6654825915719385  0.3473347304306683 -0.0000813318008073
  0.6778852029333745  0.3246418813670896  0.3416852441016524
  0.6658280369354711  0.3258686880489052  0.6545336975759884
  0.6774570033903887  0.6623680335892466 -0.0102602988008289
  0.6655062147666686  0.6673398734048247  0.3338627081334565
  0.6765893847096697  0.6681324398515944  0.6794970164652121
 -0.0021040656876276  0.4970674715172585  0.0010626399216247
 -0.0034287879993423  0.4991253031576070  0.3288378177367891
  0.0056813321195418  0.8327554975271531  0.6633394004469803
  0.3339618876666876  0.8341208346931570 -0.0015907752933697
  0.3361066145750732  0.8334364564075952  0.3363300298846741
  0.3298296083041672  0.8306671883692975  0.6666413076132872
  0.6599344527072706  0.1653050389940581  0.3354340683936400
  0.6679665516189793  0.1661056263376403  0.6643416493588649
  0.6678014808652194  0.4986633429652012  0.0007876778705267
  0.1674911870834965  0.0074885785398404 -0.0046743179245078
  0.1673441695873548  0.0104990659297135  0.6727939475683706
  0.1689797129630734  0.3288752772260067 -0.0046006484099503
  0.1683482457587387  0.3272840539977684  0.6737459326748666
  0.1671416850830296  0.6660604235845667  0.3413222728483645
  0.8332270013056353  0.0000086999555079  0.3339223906491297
  0.8324189853903141  0.3287115188623324  0.3295347270884891
  0.8321880888658876  0.6727946033392556 -0.0014747644663630
  0.8323405907330229  0.6666821707769910  0.6684795768229054
 -0.0123425207708344  0.0027988656281691  0.8341662005772026
  0.0036775183279408  0.3321769767959428  0.5008544973451183
  0.0011865040386892  0.6743708804568944  0.1667935352009329
  0.3334794823780481  0.0082265534502052  0.4993306706347936
  0.3342429090173670  0.3283663934802616  0.4989856045044803
  0.3323392417894278  0.6621028564056390  0.1660636567823348
  0.6730711067221630 -0.0037256475636831  0.8350042685471928
  0.6635535601131104  0.3413316961507513  0.5006133943384823
  0.6593678893819120  0.6756763069407050  0.8331861316998876
 -0.0089505666636257  0.1669265696987013  0.0055381207692149
  0.0066034941537026  0.1646569395680114  0.3281981685924730
 -0.0138388688987064  0.1666899260236049  0.6659729157466031
  0.0022283475526421  0.4998261660727635  0.6719160379158535
  0.0057034921008013  0.8340858552104582 -0.0039530875966572
 -0.0009154358647369  0.8348177567915580  0.3430436585382438
  0.3424131727859235  0.1678799016207441  0.0015411536911084
  0.3376268570811036  0.1677040222467812  0.3237187320870843
  0.3468790027813918  0.1681036236379344  0.6746920477454823
  0.3368801856129823  0.4982752896228389 -0.0045402281137264
  0.3361741147385084  0.4976536100928350  0.3349679233604577
  0.3353723987440608  0.4991198381812223  0.6685410979572470
  0.6680192221762321  0.1667002478194491  0.0023540928618390
  0.6681916177975004  0.5037080580682699  0.3253217836203352
  0.6627383046132176  0.4999301789906193  0.6734515913288432
  0.6582935930229715  0.8355111358789571  0.0097774686623063
  0.6613335015571518  0.8306186510463829  0.3350027319077552
  0.6625642343186517  0.8341746867135368  0.6570603031248325
  0.1644630836358168  0.0004092265181469  0.3286285025043751
  0.1699092328181062  0.3311518610983931  0.3259897691059143
  0.1679169825611529  0.6629710945124156 -0.0077349584184018
  0.1681960511634775  0.6566296606840470  0.6629522170204417
  0.5017666111436702  0.0052179704391985  0.0021816653041092
  0.5011564201048726 -0.0033316403297575  0.3284525627601425
  0.5012855982121499 -0.0030489943551985  0.6685856720732185
  0.4997892137317170  0.3310257026483476  0.0000933662488232
  0.4997698655004488  0.3391817780298071  0.3270846235990354
  0.4995928206538827  0.3372361061914824  0.6724517283202032
  0.5012143843674810  0.6645717529142240  0.0038354521306726
  0.5028296217664152  0.6616785712843339  0.3360215323203883
  0.5005044320260590  0.6646178115046453  0.6602355824346564
  0.8317130115369782 -0.0046357794622260  0.0123346152021893
  0.8317839352907256 -0.0055108488013955  0.6534405672534791
  0.8315128828332269  0.3268205031796367  0.0041778544556267
  0.8326889751445139  0.3410806753582648  0.6708903115907354
  0.8282160994285294  0.6727552972108920  0.3358394594164554
  0.0005637377218388 -0.0061711213761749  0.1669789997223667
  0.0040031459009296  0.0076039904774282  0.4982704932678796
  0.0040784482016289  0.3253173034362753  0.1656257016627783
 -0.0077045355360540  0.3269221895174914  0.8334448144660546
 -0.0053093025300073  0.6619848422353479  0.5000929723525732
  0.0067757829527599  0.6670892747510254  0.8333850357306046
  0.3348585000838477  0.0047767674159509  0.1667937065968561
  0.3447386123075064  0.0049553866942189  0.8334964001964029
  0.3356947541619309  0.3373800537490937  0.1659880550924544
  0.3423591107850713  0.3334634262979377  0.8344873704924719
  0.3400307051779453  0.6572460276389130  0.5010427295798864
  0.3382620746683584  0.6604034934902345  0.8324123366559544
  0.6640923574465331 -0.0018720339217921  0.1658242223586887
  0.6596555224547552 -0.0069425036007616  0.4990904902115419
  0.6609719734561323  0.3321786451815530  0.1659589054455333
  0.6672246235410872  0.3302640732284904  0.8345936512298309
  0.6637351449934634  0.6707247693518783  0.1703848503069777
  0.6646892781693435  0.6609416170171281  0.4973182608919545
 
  0.00000000E+00  0.00000000E+00  0.00000000E+00
  0.00000000E+00  0.00000000E+00  0.00000000E+00
  0.00000000E+00  0.00000000E+00  0.00000000E+00
  0.00000000E+00  0.00000000E+00  0.00000000E+00
  0.00000000E+00  0.00000000E+00  0.00000000E+00
  0.00000000E+00  0.00000000E+00  0.00000000E+00
  0.00000000E+00  0.00000000E+00  0.00000000E+00
  0.00000000E+00  0.00000000E+00  0.00000000E+00
  0.00000000E+00  0.00000000E+00  0.00000000E+00
  0.00000000E+00  0.00000000E+00  0.00000000E+00
  0.00000000E+00  0.00000000E+00  0.00000000E+00
  0.00000000E+00  0.00000000E+00  0.00000000E+00
  0.00000000E+00  0.00000000E+00  0.00000000E+00
  0.00000000E+00  0.00000000E+00  0.00000000E+00
  0.00000000E+00  0.00000000E+00  0.00000000E+00
  0.00000000E+00  0.00000000E+00  0.00000000E+00
  0.00000000E+00  0.00000000E+00  0.00000000E+00
  0.00000000E+00  0.00000000E+00  0.00000000E+00
  0.00000000E+00  0.00000000E+00  0.00000000E+00
  0.00000000E+00  0.00000000E+00  0.00000000E+00
  0.00000000E+00  0.00000000E+00  0.00000000E+00
  0.00000000E+00  0.00000000E+00  0.00000000E+00
  0.00000000E+00  0.00000000E+00  0.00000000E+00
  0.00000000E+00  0.00000000E+00  0.00000000E+00
  0.00000000E+00  0.00000000E+00  0.00000000E+00
  0.00000000E+00  0.00000000E+00  0.00000000E+00
  0.00000000E+00  0.00000000E+00  0.00000000E+00
  0.00000000E+00  0.00000000E+00  0.00000000E+00
  0.00000000E+00  0.00000000E+00  0.00000000E+00
  0.00000000E+00  0.00000000E+00  0.00000000E+00
  0.00000000E+00  0.00000000E+00  0.00000000E+00
  0.00000000E+00  0.00000000E+00  0.00000000E+00
  0.00000000E+00  0.00000000E+00  0.00000000E+00
  0.00000000E+00  0.00000000E+00  0.00000000E+00
  0.00000000E+00  0.00000000E+00  0.00000000E+00
  0.00000000E+00  0.00000000E+00  0.00000000E+00
  0.00000000E+00  0.00000000E+00  0.00000000E+00
  0.00000000E+00  0.00000000E+00  0.00000000E+00
  0.00000000E+00  0.00000000E+00  0.00000000E+00
  0.00000000E+00  0.00000000E+00  0.00000000E+00
  0.00000000E+00  0.00000000E+00  0.00000000E+00
  0.00000000E+00  0.00000000E+00  0.00000000E+00
  0.00000000E+00  0.00000000E+00  0.00000000E+00
  0.00000000E+00  0.00000000E+00  0.00000000E+00
  0.00000000E+00  0.00000000E+00  0.00000000E+00
  0.00000000E+00  0.00000000E+00  0.00000000E+00
  0.00000000E+00  0.00000000E+00  0.00000000E+00
  0.00000000E+00  0.00000000E+00  0.00000000E+00
  0.00000000E+00  0.00000000E+00  0.00000000E+00
  0.00000000E+00  0.00000000E+00  0.00000000E+00
  0.00000000E+00  0.00000000E+00  0.00000000E+00
  0.00000000E+00  0.00000000E+00  0.00000000E+00
  0.00000000E+00  0.00000000E+00  0.00000000E+00
  0.00000000E+00  0.00000000E+00  0.00000000E+00
  0.00000000E+00  0.00000000E+00  0.00000000E+00
  0.00000000E+00  0.00000000E+00  0.00000000E+00
  0.00000000E+00  0.00000000E+00  0.00000000E+00
  0.00000000E+00  0.00000000E+00  0.00000000E+00
  0.00000000E+00  0.00000000E+00  0.00000000E+00
  0.00000000E+00  0.00000000E+00  0.00000000E+00
  0.00000000E+00  0.00000000E+00  0.00000000E+00
  0.00000000E+00  0.00000000E+00  0.00000000E+00
  0.00000000E+00  0.00000000E+00  0.00000000E+00
  0.00000000E+00  0.00000000E+00  0.00000000E+00
  0.00000000E+00  0.00000000E+00  0.00000000E+00
  0.00000000E+00  0.00000000E+00  0.00000000E+00
  0.00000000E+00  0.00000000E+00  0.00000000E+00
  0.00000000E+00  0.00000000E+00  0.00000000E+00
  0.00000000E+00  0.00000000E+00  0.00000000E+00
  0.00000000E+00  0.00000000E+00  0.00000000E+00
  0.00000000E+00  0.00000000E+00  0.00000000E+00
  0.00000000E+00  0.00000000E+00  0.00000000E+00
  0.00000000E+00  0.00000000E+00  0.00000000E+00
  0.00000000E+00  0.00000000E+00  0.00000000E+00
  0.00000000E+00  0.00000000E+00  0.00000000E+00
  0.00000000E+00  0.00000000E+00  0.00000000E+00
  0.00000000E+00  0.00000000E+00  0.00000000E+00
  0.00000000E+00  0.00000000E+00  0.00000000E+00
  0.00000000E+00  0.00000000E+00  0.00000000E+00
  0.00000000E+00  0.00000000E+00  0.00000000E+00
  0.00000000E+00  0.00000000E+00  0.00000000E+00
  0.00000000E+00  0.00000000E+00  0.00000000E+00
  0.00000000E+00  0.00000000E+00  0.00000000E+00
  0.00000000E+00  0.00000000E+00  0.00000000E+00
  0.00000000E+00  0.00000000E+00  0.00000000E+00
  0.00000000E+00  0.00000000E+00  0.00000000E+00
  0.00000000E+00  0.00000000E+00  0.00000000E+00
  0.00000000E+00  0.00000000E+00  0.00000000E+00
  0.00000000E+00  0.00000000E+00  0.00000000E+00
  0.00000000E+00  0.00000000E+00  0.00000000E+00
  0.00000000E+00  0.00000000E+00  0.00000000E+00
  0.00000000E+00  0.00000000E+00  0.00000000E+00
  0.00000000E+00  0.00000000E+00  0.00000000E+00
  0.00000000E+00  0.00000000E+00  0.00000000E+00
  0.00000000E+00  0.00000000E+00  0.00000000E+00
  0.00000000E+00  0.00000000E+00  0.00000000E+00
  0.00000000E+00  0.00000000E+00  0.00000000E+00
  0.00000000E+00  0.00000000E+00  0.00000000E+00
  0.00000000E+00  0.00000000E+00  0.00000000E+00
  0.00000000E+00  0.00000000E+00  0.00000000E+00
  0.00000000E+00  0.00000000E+00  0.00000000E+00
  0.00000000E+00  0.00000000E+00  0.00000000E+00
  0.00000000E+00  0.00000000E+00  0.00000000E+00
  0.00000000E+00  0.00000000E+00  0.00000000E+00
  0.00000000E+00  0.00000000E+00  0.00000000E+00
  0.00000000E+00  0.00000000E+00  0.00000000E+00
  0.00000000E+00  0.00000000E+00  0.00000000E+00
  0.00000000E+00  0.00000000E+00  0.00000000E+00
