TiOF2 2x2x2 config 1102                 
   1.00000000000000     
     7.8389508742172493    0.0000074244693506    0.0000173191779690
     0.0000252085428383    7.8135509615370813    0.0000049462320221
     0.0000064528565713    0.0000047476439008    7.6571827269652211
   Ti   O    F 
     8     8    16
Direct
  0.0009790998698378  0.9999994945291064  0.0000010564529092
  0.0011720010280811  0.9999978599263670  0.5000010801137904
  0.9793240693823435  0.4999982288777005  0.9999969090840182
  0.9810730392465530  0.4999969100119230  0.4999966669956422
  0.5003448159296084  0.9999821325462506  0.9999294062958199
  0.5007312288994683  0.0001626962261980  0.4999401716904970
  0.5009528004485091  0.5000063381938986  0.0000811193114671
  0.4997455994992208  0.4999701194483492  0.5000454546390074
  0.7583256634700888  0.4999942982924281  0.9999991272464968
  0.7628402476075991  0.4999886262538169  0.4999926478189494
  0.4998424074372920  0.2470261520358292  0.5000100350131333
  0.4998345505909683  0.7529226673154668  0.5000095826222264
  0.5010171539182480  0.9999487526024069  0.2451024578640499
  0.5010211669774947  0.9999507353635266  0.7549563551528919
  0.4987585138156874  0.5000421383011044  0.2464524853334780
  0.4987580348730845  0.5000413667328445  0.7534877117370655
  0.2451463442997408  0.0000136391350907  0.0000026605930472
  0.2376176797087268  0.0000100224929511  0.5000090883181798
  0.2414285806283729  0.5000000563534428  0.9999938163648068
  0.2368619922307076  0.4999793685416236  0.4999899135501877
  0.7563797344862948  0.9999935903540091  0.0000076973551089
  0.7643033525793612  0.9999974603865951  0.5000023082626868
  0.0042053237908988  0.2534740036584324  0.0000003813267071
  0.0026797390332192  0.2441170520991562  0.4999994849474447
  0.0041987419510505  0.7465242804632410  0.9999985175678248
  0.0026895649045429  0.7558768945891146  0.5000004530367477
  0.4978857012023781  0.2483941005854930  0.9999989430023675
  0.4978801174408076  0.7515953287708825  0.9999980264830199
  0.9997907589365838  0.9999983612213228  0.2570582036756335
  0.9997845381680150  0.0000005256541442  0.7429444477233886
  0.0122144186321478  0.4999990595786770  0.2503240588283617
  0.0122130190130605  0.4999977394585997  0.7496697315930589
 
  0.00000000E+00  0.00000000E+00  0.00000000E+00
  0.00000000E+00  0.00000000E+00  0.00000000E+00
  0.00000000E+00  0.00000000E+00  0.00000000E+00
  0.00000000E+00  0.00000000E+00  0.00000000E+00
  0.00000000E+00  0.00000000E+00  0.00000000E+00
  0.00000000E+00  0.00000000E+00  0.00000000E+00
  0.00000000E+00  0.00000000E+00  0.00000000E+00
  0.00000000E+00  0.00000000E+00  0.00000000E+00
  0.00000000E+00  0.00000000E+00  0.00000000E+00
  0.00000000E+00  0.00000000E+00  0.00000000E+00
  0.00000000E+00  0.00000000E+00  0.00000000E+00
  0.00000000E+00  0.00000000E+00  0.00000000E+00
  0.00000000E+00  0.00000000E+00  0.00000000E+00
  0.00000000E+00  0.00000000E+00  0.00000000E+00
  0.00000000E+00  0.00000000E+00  0.00000000E+00
  0.00000000E+00  0.00000000E+00  0.00000000E+00
  0.00000000E+00  0.00000000E+00  0.00000000E+00
  0.00000000E+00  0.00000000E+00  0.00000000E+00
  0.00000000E+00  0.00000000E+00  0.00000000E+00
  0.00000000E+00  0.00000000E+00  0.00000000E+00
  0.00000000E+00  0.00000000E+00  0.00000000E+00
  0.00000000E+00  0.00000000E+00  0.00000000E+00
  0.00000000E+00  0.00000000E+00  0.00000000E+00
  0.00000000E+00  0.00000000E+00  0.00000000E+00
  0.00000000E+00  0.00000000E+00  0.00000000E+00
  0.00000000E+00  0.00000000E+00  0.00000000E+00
  0.00000000E+00  0.00000000E+00  0.00000000E+00
  0.00000000E+00  0.00000000E+00  0.00000000E+00
  0.00000000E+00  0.00000000E+00  0.00000000E+00
  0.00000000E+00  0.00000000E+00  0.00000000E+00
  0.00000000E+00  0.00000000E+00  0.00000000E+00
  0.00000000E+00  0.00000000E+00  0.00000000E+00
