TiOF2 2x2x2 config 1237                 
   1.00000000000000     
     7.7593353830633793    0.0000037636661792    0.0025161581878678
     0.0000037736164797    7.7627192983090012    0.0000013636836583
     0.0025920805344745    0.0000013463869123    7.6701493802623242
   Ti   O    F 
     8     8    16
Direct
  0.0003080662986043  0.0013232736195431  0.9800547512528665
  0.0001571970590608  0.9811482918296449  0.5018644550408905
  0.9873172704618187  0.5008588523878409  0.9848794006865067
  0.9874566815056182  0.5040454893361015  0.5083115075553915
  0.4996917717343273  0.0013232543667347  0.0199455744755762
  0.4998426866849776  0.9811480554546104  0.4981353075903265
  0.5126827286313803  0.5008589390647441  0.0151207983789075
  0.5125436663232673  0.5040452276952035  0.4916885755371862
  0.7499998718392222  0.5018568851451169  1.0000000203082657
  0.7500001225587889  0.4972740010827174  0.5000002626896125
  0.0006384265807827  0.7546648710214209  0.4953467899294507
  0.4993614995715203  0.7546659166129379  0.5046526453317376
  0.9993597454482922  0.0013701651171066  0.7529872665328512
  0.0043600175157349  0.4986494245188235  0.7522475400730426
  0.5006400924251401  0.0013699981132015  0.2470131610836330
  0.4956402457398483  0.4986492963702336  0.2477523083472110
  0.2499999930459847  0.0003138268746689  0.0000001608886213
  0.2499998823573051  0.0090917242446761  0.5000000656525324
  0.2499999908292575  0.5019401758473735  0.9999999945903213
  0.2500000597344298  0.4958696628329535  0.5000000969409103
  0.7499998858826504  0.0002361944289760  0.0000001084553701
  0.7499999050425545  0.0107830812004109  0.5000000652990564
  0.0032637459894815  0.2466369401804430  0.0092632715295930
  0.0024074955524353  0.2453130205942025  0.4935258843288576
  0.0032841198900905  0.7554898144575336  0.0110342519799689
  0.4967362724285840  0.2466368855170970  0.9907361684762130
  0.4975928563077224  0.2453131931506767  0.5064737961001179
  0.4967154876291151  0.7554896851656969  0.9889660907236122
  0.9991740161018725  0.0041423896524258  0.2440410294598962
  0.0093342482475940  0.4976748298978834  0.2469833453610613
  0.5008256800050190  0.0041414922483122  0.7559588066295783
  0.4906662705775123  0.4976751419706879  0.7530164987708120
 
  0.00000000E+00  0.00000000E+00  0.00000000E+00
  0.00000000E+00  0.00000000E+00  0.00000000E+00
  0.00000000E+00  0.00000000E+00  0.00000000E+00
  0.00000000E+00  0.00000000E+00  0.00000000E+00
  0.00000000E+00  0.00000000E+00  0.00000000E+00
  0.00000000E+00  0.00000000E+00  0.00000000E+00
  0.00000000E+00  0.00000000E+00  0.00000000E+00
  0.00000000E+00  0.00000000E+00  0.00000000E+00
  0.00000000E+00  0.00000000E+00  0.00000000E+00
  0.00000000E+00  0.00000000E+00  0.00000000E+00
  0.00000000E+00  0.00000000E+00  0.00000000E+00
  0.00000000E+00  0.00000000E+00  0.00000000E+00
  0.00000000E+00  0.00000000E+00  0.00000000E+00
  0.00000000E+00  0.00000000E+00  0.00000000E+00
  0.00000000E+00  0.00000000E+00  0.00000000E+00
  0.00000000E+00  0.00000000E+00  0.00000000E+00
  0.00000000E+00  0.00000000E+00  0.00000000E+00
  0.00000000E+00  0.00000000E+00  0.00000000E+00
  0.00000000E+00  0.00000000E+00  0.00000000E+00
  0.00000000E+00  0.00000000E+00  0.00000000E+00
  0.00000000E+00  0.00000000E+00  0.00000000E+00
  0.00000000E+00  0.00000000E+00  0.00000000E+00
  0.00000000E+00  0.00000000E+00  0.00000000E+00
  0.00000000E+00  0.00000000E+00  0.00000000E+00
  0.00000000E+00  0.00000000E+00  0.00000000E+00
  0.00000000E+00  0.00000000E+00  0.00000000E+00
  0.00000000E+00  0.00000000E+00  0.00000000E+00
  0.00000000E+00  0.00000000E+00  0.00000000E+00
  0.00000000E+00  0.00000000E+00  0.00000000E+00
  0.00000000E+00  0.00000000E+00  0.00000000E+00
  0.00000000E+00  0.00000000E+00  0.00000000E+00
  0.00000000E+00  0.00000000E+00  0.00000000E+00
