Ti27 O27 F54                            
   1.00000000000000     
    11.5870522679572971   -0.0008539172675784    0.0047227375674088
    -0.0008494690044546   11.6003417596163736    0.0065983201281263
     0.0047216431483166    0.0065566499478159   11.5792876751511731
   Ti   O    F 
    27    27    54
Direct
  0.0098706104243718  0.9888637265345537  0.9997578472552675
  0.0081848346974240  0.9888705879378179  0.3419297836127342
  0.9918073132971728  0.9920202074521143  0.6560591420006148
  0.0119907292531281  0.3336313883355686  0.9930485753430958
  0.9985384686008629  0.3334638141089670  0.3344018054088167
  0.9990111826963286  0.3338264518420715  0.6800744076357432
  0.0084056257126406  0.6756206161817602  0.0102016588066789
  0.9911518495394986  0.6774556059672321  0.3238029451209954
  0.0085932139557983  0.6784115745901289  0.6679395447559244
  0.3248204527245804  0.0078352098901746  0.0103188092348319
  0.3227347283758562  0.0004533404051017  0.3216065843806248
  0.3348880588223722  0.9881092237182543  0.6666176248565989
  0.3259522984513623  0.3219907198590732  0.9922764610794061
  0.3402804215449819  0.3445894269534691  0.3348563591718587
  0.3419900283088353  0.3325366532614211  0.6776088634113151
  0.3209508098897942  0.6662254635132498  0.0072850348377926
  0.3334882402947414  0.6596103946364096  0.3222903903284333
  0.3233478236727905  0.6731989230666713  0.6664206270389030
  0.6664144503249148  0.9928377959365235  0.0104275060898473
  0.6659271282895247  0.9882353979845604  0.3252465505870532
  0.6786340639479960  0.9902755335236080  0.6679769915808080
  0.6673329635916758  0.3345249391679630  0.9878418002540457
  0.6530988118199232  0.3327218180288156  0.3329142290893330
  0.6550298465175430  0.3334604037819275  0.6730652902982044
  0.6664610067667951  0.6787654945952326  0.9988840585384722
  0.6784136455751977  0.6745210251482519  0.3419135141132656
  0.6657599916471639  0.6764162655588777  0.6550650805806981
  0.9914325086427098  0.8338270530486440  0.9966450913232805
  0.9960561350622470  0.8336966011574987  0.3332560966194507
  0.0018328853223792  0.8320403899596585  0.6703006316294449
  0.3372166586237668  0.1673479532356907  0.0010263475957117
  0.3296252617940993  0.4985924953821979  0.3348316740342057
  0.3377888199494734  0.8343247437235632  0.6672040499386256
  0.6711153143639805  0.8318911439194991  0.9961674704117200
  0.6674341834467086  0.8346808266338712  0.3319244145866520
  0.6624549840367280  0.8332637924102357  0.6711083229173056
  0.1659984593410115  0.9977168355525521  0.0044004593297942
  0.1674954241688340  0.0027508757630699  0.3266101275201549
  0.1645545354726252  0.3358410405152412  0.0040116615802859
  0.1681447737931592  0.6652041629947050  0.9889571311470107
  0.1685691121749215  0.6630200337486727  0.6703104555301280
  0.5009634527905149  0.3309702484784296  0.3387519002817712
  0.5010279837069618  0.3334240298641689  0.6584591963074686
  0.8324671755789055  0.0028827718500750  0.6696989155264390
  0.8331530326894949  0.6571138529534863  0.3314220798559901
  0.0019605790654325  0.0058457785836481  0.5003835441531450
  0.9966529186014270  0.3338494939869605  0.8322391030933005
  0.0075398500923072  0.6606263013601961  0.1665823014542056
  0.3449027099366972  0.9919620809222707  0.1672328160765062
  0.3351909354351861  0.3369860813318297  0.8314569008879573
  0.3288676142727596  0.6732352594665727  0.1672886652315171
  0.6629045409645684  0.0038785290277588  0.1653342079251985
  0.6676188194980810  0.3337335955777405  0.8343714863609080
  0.6636658184498785  0.6629987418545156  0.5010462222887782
  0.9944472085348721  0.1690249501549417  0.0056682738949618
  0.9937171673938252  0.1722262005705986  0.3282025198057781
  0.0058978338845179  0.1700469989361935  0.6654768320199906
  0.9913786314313811  0.4979855291507391  0.0003258455882005
  0.0097953093478225  0.4946302540069709  0.3398648480236730
  0.9958492189492887  0.4970052184406626  0.6597621214181046
  0.3326697517168213  0.1696917213947629  0.3318593220386035
  0.3288867779485329  0.1660524117434790  0.6660264572291510
  0.3401742061857789  0.4990602736430816  0.0051645020195252
  0.3334848925877907  0.4990317274665088  0.6572143597690356
  0.3412881457372094  0.8322023016495592  0.9872433755283581
  0.3385637555079484  0.8324823659838501  0.3453343782982259
  0.6624638542251304  0.1691807943660564  0.0006744622617845
  0.6733225913466327  0.1697365988229791  0.3370396390370800
  0.6668676558196367  0.1683850104076257  0.6621951372560417
  0.6670628393706721  0.4990072824327925  0.0050132791613464
  0.6637945776936505  0.4969887356537939  0.3268409884535401
  0.6725446901852692  0.4984013915418757  0.6678429453001655
  0.1692768404056437  0.0035941779782362  0.6708681225507434
  0.1629254575896795  0.3256620195491067  0.3295364031982544
  0.1651613585186169  0.3373822992524609  0.6619592387347026
  0.1678016945604668  0.6684951325885677  0.3458652331276824
  0.5014186426756808  0.9978855702267069  0.9905185634969911
  0.5002997409484635  0.0082773093068766  0.3434685003593145
  0.4998960855552710  0.0101367762373386  0.6652370982831215
  0.5026278697598201  0.3378893685303410  0.0083797999469439
  0.5015951120624607  0.6639148227417948  0.9979365400398166
  0.5006046857852553  0.6625856178882543  0.3299985775878227
  0.4994290980917171  0.6564151833165468  0.6713015274724015
  0.8313104494324932  0.0097508559902408  0.9933428739450392
  0.8320003518759833  0.0089962933151142  0.3348349651077953
  0.8319482971792098  0.3319760171372792  0.0068194480592538
  0.8348633385953335  0.3402717612075534  0.3339899378100242
  0.8337343850429519  0.3292087647748048  0.6601107796506582
  0.8307286057692025  0.6579416755591794  0.0012065718823848
  0.8337718257409250  0.6623262814919855  0.6678391165140596
  0.9879226408521617  0.0069422388626634  0.1664788386685387
  0.0028434890103313  0.0119006425550907  0.8327619097820005
  0.9944103572682934  0.3385722747512574  0.1701951599686637
  0.0001377604919810  0.3287070062902018  0.4977941404842383
  0.9991502317602681  0.6601663684544903  0.5013558055188767
  0.9912794162025875  0.6545125637629710  0.8330116370928025
  0.3327982564380321  0.0048913381720723  0.5012608126942268
  0.3359044823490578  0.0028567373971384  0.8315768510020334
  0.3339570870721928  0.3339798622123169  0.1684833415549321
  0.3225482911915307  0.3275938401511951  0.4999801956627081
  0.3406804549350611  0.6667502814248181  0.5002871839825787
  0.3432974876191324  0.6574499374149383  0.8324288584623218
  0.6658297915249065  0.0051460549657065  0.4998419655140793
  0.6622729173791626  0.0106517789769853  0.8344511508617174
  0.6696323330412710  0.3295330894483612  0.1673400954272495
  0.6767748877089375  0.3377914512117641  0.4984738485276523
  0.6617041490663880  0.6624311711905051  0.1643907910791285
  0.6675399326145950  0.6560969540160997  0.8340720698273572
 
  0.00000000E+00  0.00000000E+00  0.00000000E+00
  0.00000000E+00  0.00000000E+00  0.00000000E+00
  0.00000000E+00  0.00000000E+00  0.00000000E+00
  0.00000000E+00  0.00000000E+00  0.00000000E+00
  0.00000000E+00  0.00000000E+00  0.00000000E+00
  0.00000000E+00  0.00000000E+00  0.00000000E+00
  0.00000000E+00  0.00000000E+00  0.00000000E+00
  0.00000000E+00  0.00000000E+00  0.00000000E+00
  0.00000000E+00  0.00000000E+00  0.00000000E+00
  0.00000000E+00  0.00000000E+00  0.00000000E+00
  0.00000000E+00  0.00000000E+00  0.00000000E+00
  0.00000000E+00  0.00000000E+00  0.00000000E+00
  0.00000000E+00  0.00000000E+00  0.00000000E+00
  0.00000000E+00  0.00000000E+00  0.00000000E+00
  0.00000000E+00  0.00000000E+00  0.00000000E+00
  0.00000000E+00  0.00000000E+00  0.00000000E+00
  0.00000000E+00  0.00000000E+00  0.00000000E+00
  0.00000000E+00  0.00000000E+00  0.00000000E+00
  0.00000000E+00  0.00000000E+00  0.00000000E+00
  0.00000000E+00  0.00000000E+00  0.00000000E+00
  0.00000000E+00  0.00000000E+00  0.00000000E+00
  0.00000000E+00  0.00000000E+00  0.00000000E+00
  0.00000000E+00  0.00000000E+00  0.00000000E+00
  0.00000000E+00  0.00000000E+00  0.00000000E+00
  0.00000000E+00  0.00000000E+00  0.00000000E+00
  0.00000000E+00  0.00000000E+00  0.00000000E+00
  0.00000000E+00  0.00000000E+00  0.00000000E+00
  0.00000000E+00  0.00000000E+00  0.00000000E+00
  0.00000000E+00  0.00000000E+00  0.00000000E+00
  0.00000000E+00  0.00000000E+00  0.00000000E+00
  0.00000000E+00  0.00000000E+00  0.00000000E+00
  0.00000000E+00  0.00000000E+00  0.00000000E+00
  0.00000000E+00  0.00000000E+00  0.00000000E+00
  0.00000000E+00  0.00000000E+00  0.00000000E+00
  0.00000000E+00  0.00000000E+00  0.00000000E+00
  0.00000000E+00  0.00000000E+00  0.00000000E+00
  0.00000000E+00  0.00000000E+00  0.00000000E+00
  0.00000000E+00  0.00000000E+00  0.00000000E+00
  0.00000000E+00  0.00000000E+00  0.00000000E+00
  0.00000000E+00  0.00000000E+00  0.00000000E+00
  0.00000000E+00  0.00000000E+00  0.00000000E+00
  0.00000000E+00  0.00000000E+00  0.00000000E+00
  0.00000000E+00  0.00000000E+00  0.00000000E+00
  0.00000000E+00  0.00000000E+00  0.00000000E+00
  0.00000000E+00  0.00000000E+00  0.00000000E+00
  0.00000000E+00  0.00000000E+00  0.00000000E+00
  0.00000000E+00  0.00000000E+00  0.00000000E+00
  0.00000000E+00  0.00000000E+00  0.00000000E+00
  0.00000000E+00  0.00000000E+00  0.00000000E+00
  0.00000000E+00  0.00000000E+00  0.00000000E+00
  0.00000000E+00  0.00000000E+00  0.00000000E+00
  0.00000000E+00  0.00000000E+00  0.00000000E+00
  0.00000000E+00  0.00000000E+00  0.00000000E+00
  0.00000000E+00  0.00000000E+00  0.00000000E+00
  0.00000000E+00  0.00000000E+00  0.00000000E+00
  0.00000000E+00  0.00000000E+00  0.00000000E+00
  0.00000000E+00  0.00000000E+00  0.00000000E+00
  0.00000000E+00  0.00000000E+00  0.00000000E+00
  0.00000000E+00  0.00000000E+00  0.00000000E+00
  0.00000000E+00  0.00000000E+00  0.00000000E+00
  0.00000000E+00  0.00000000E+00  0.00000000E+00
  0.00000000E+00  0.00000000E+00  0.00000000E+00
  0.00000000E+00  0.00000000E+00  0.00000000E+00
  0.00000000E+00  0.00000000E+00  0.00000000E+00
  0.00000000E+00  0.00000000E+00  0.00000000E+00
  0.00000000E+00  0.00000000E+00  0.00000000E+00
  0.00000000E+00  0.00000000E+00  0.00000000E+00
  0.00000000E+00  0.00000000E+00  0.00000000E+00
  0.00000000E+00  0.00000000E+00  0.00000000E+00
  0.00000000E+00  0.00000000E+00  0.00000000E+00
  0.00000000E+00  0.00000000E+00  0.00000000E+00
  0.00000000E+00  0.00000000E+00  0.00000000E+00
  0.00000000E+00  0.00000000E+00  0.00000000E+00
  0.00000000E+00  0.00000000E+00  0.00000000E+00
  0.00000000E+00  0.00000000E+00  0.00000000E+00
  0.00000000E+00  0.00000000E+00  0.00000000E+00
  0.00000000E+00  0.00000000E+00  0.00000000E+00
  0.00000000E+00  0.00000000E+00  0.00000000E+00
  0.00000000E+00  0.00000000E+00  0.00000000E+00
  0.00000000E+00  0.00000000E+00  0.00000000E+00
  0.00000000E+00  0.00000000E+00  0.00000000E+00
  0.00000000E+00  0.00000000E+00  0.00000000E+00
  0.00000000E+00  0.00000000E+00  0.00000000E+00
  0.00000000E+00  0.00000000E+00  0.00000000E+00
  0.00000000E+00  0.00000000E+00  0.00000000E+00
  0.00000000E+00  0.00000000E+00  0.00000000E+00
  0.00000000E+00  0.00000000E+00  0.00000000E+00
  0.00000000E+00  0.00000000E+00  0.00000000E+00
  0.00000000E+00  0.00000000E+00  0.00000000E+00
  0.00000000E+00  0.00000000E+00  0.00000000E+00
  0.00000000E+00  0.00000000E+00  0.00000000E+00
  0.00000000E+00  0.00000000E+00  0.00000000E+00
  0.00000000E+00  0.00000000E+00  0.00000000E+00
  0.00000000E+00  0.00000000E+00  0.00000000E+00
  0.00000000E+00  0.00000000E+00  0.00000000E+00
  0.00000000E+00  0.00000000E+00  0.00000000E+00
  0.00000000E+00  0.00000000E+00  0.00000000E+00
  0.00000000E+00  0.00000000E+00  0.00000000E+00
  0.00000000E+00  0.00000000E+00  0.00000000E+00
  0.00000000E+00  0.00000000E+00  0.00000000E+00
  0.00000000E+00  0.00000000E+00  0.00000000E+00
  0.00000000E+00  0.00000000E+00  0.00000000E+00
  0.00000000E+00  0.00000000E+00  0.00000000E+00
  0.00000000E+00  0.00000000E+00  0.00000000E+00
  0.00000000E+00  0.00000000E+00  0.00000000E+00
  0.00000000E+00  0.00000000E+00  0.00000000E+00
  0.00000000E+00  0.00000000E+00  0.00000000E+00
  0.00000000E+00  0.00000000E+00  0.00000000E+00
