Li1 Ti64 O64 F128                       
   1.00000000000000     
    15.4263309999999993    0.0000000000000000    0.0000000000000000
     0.0000000000000000   15.4263309999999993    0.0000000000000000
     0.0000000000000000    0.0000000000000000   15.4263309999999993
   Li   Ti   O    F 
     1    64    64   128
Direct
  0.1757414011597505  0.1332084366542106  0.6085667004824413
  0.9945591906850912  0.9953586509928862  0.9949060502395696
  0.9977804508930989  0.9929650831016480  0.4932338546601377
  0.0057337977479971  0.4952309392792755  0.9970426253083825
  0.9940001609248211  0.5021825212946694  0.5067044116256009
  0.4938008379377772  0.9942802045739700  0.0006646001914686
  0.5015911585955524  0.0088130717091765  0.4989028557629784
  0.5043129001827993  0.4955791376053638  0.9962931430840839
  0.4921222207939816  0.4996108416832258  0.4951032999320167
  0.0058101685144922  0.0033956450262284  0.2569311753619847
  0.9992244782559934  0.0065199826599089  0.7569250676517778
  0.9944001075028612  0.4919954759622620  0.2517451624397816
  0.9932537720606816  0.4968661789045057  0.7416524091744523
  0.5056153032373211  0.0089964325862721  0.2515500051129287
  0.4921353304417119  0.0050706864136100  0.7499986218788870
  0.4930818602753089  0.4965792228136923  0.2571775319171989
  0.5005475505239172  0.5041541200666319  0.7586044990181616
  0.9958355339485354  0.2570403475526238  0.0017357814627786
  0.9994286961937136  0.2470180712413664  0.4945098928835404
  0.9980730951248329  0.7581181992898444  0.0056118727758946
  0.9966057688590375  0.7575414640720871  0.5056043986154920
  0.4950298069914505  0.2582356422632197  0.0005907017394221
  0.5097551920700190  0.2464704298358333  0.4990868321127049
  0.5071180946572946  0.7564802804842129  0.9995283814674507
  0.5069360398122729  0.7534469846332719  0.5088421978715666
  0.9999093548098691  0.2563133855203704  0.2586973062611393
  0.0060003008772376  0.2403751927877119  0.7474739240400295
  0.0062937524250067  0.7484506268480096  0.2430247988497331
  0.9928936613289935  0.7506247211234123  0.7431796552483946
  0.5077233312665311  0.2419466489326014  0.2512969544460955
  0.5072038130295299  0.2431140229922979  0.7497167503874450
  0.5063728704128182  0.7516779401284823  0.2519899733132372
  0.5009889046527253  0.7420077292662016  0.7437352268759104
  0.2553434478069778  0.9993749924409084  0.0069675562435938
  0.2503656422352202  0.9914603339483390  0.5066541682828534
  0.2436815304713652  0.5080509377961425  0.9966163185744725
  0.2546140642510922  0.4977395612958453  0.5079005054200653
  0.7572625385824324  0.0003688899721375  0.9949783331470626
  0.7500478695489786  0.0069895333448925  0.4949557455640685
  0.7418250026029990  0.5001622919055579  0.0051954206528186
  0.7555383151208487  0.4978925421810915  0.5052679245111054
  0.2438784589468591  0.0036957773881107  0.2441729695812846
  0.2564675025613497  0.9975096417770600  0.7438455850246760
  0.2551546137594379  0.4922229705948057  0.2510824265622716
  0.2476956016105666  0.5083398322804191  0.7425563331834016
  0.7447475531640347  0.0007910722733120  0.2567672650685979
  0.7489007047731383  0.0059523891368716  0.7561452100824297
  0.7563389940305756  0.4983331567667982  0.2428493310598792
  0.7572099974452644  0.4965976788978371  0.7425327843002346
  0.2575591178653545  0.2510657091299059  0.0054037494095729
  0.2555807698932868  0.2596555284731932  0.5045944391483085
  0.2519370243906183  0.7434755917532767  0.9926211341948884
  0.2520046605181366  0.7551893061934832  0.4934057165934981
  0.7576241231121756  0.2511678386948760  0.0061227705368060
  0.7438115239298534  0.2420658497145226  0.4981881274591642
  0.7417206939130384  0.7488233713139006  0.9941103040171917
  0.7414612265449422  0.7522430145599669  0.4941655098944144
  0.2509104188496332  0.2570905721107523  0.2423608208775986
  0.2455372341899468  0.2512348327667348  0.7441807950504412
  0.2435360439628581  0.7492646746302200  0.2557877132702819
  0.2485154799987968  0.7430215076463095  0.7574709394078145
  0.7429522539446434  0.2511459847679144  0.2411411192329272
  0.7448993237129525  0.2409176805063317  0.7500422550939777
  0.7453972413145830  0.7496652041965989  0.2568451908485857
  0.7571609527401165  0.7503317383011567  0.7567484349380433
  0.0082119122866196  0.4963668371246148  0.6248929243667061
  0.9894246162761391  0.0108695135949043  0.3762922690126256
  0.9923801926257616  0.0066867220044338  0.8728151236485623
  0.4990163747380096  0.4907613514696747  0.3754276552709326
  0.4940213218934764  0.4945051227138920  0.8746670642529770
  0.9993279890378465  0.7513471518493526  0.1255791399439180
  0.0013130683795525  0.7516217680027119  0.6245679329186292
  0.5017085549512220  0.7497856558596603  0.6246962500069195
  0.0008092877950205  0.2389737867825111  0.3727593112204824
  0.2480124691237845  0.0102183119960907  0.1257196212177357
  0.2364554393965468  0.0184991951044500  0.6253846577176065
  0.2396541722300435  0.5065809712607647  0.6264992134794795
  0.7498031231587230  0.4894427179161268  0.1251444591089635
  0.7454822394138862  0.4918568087040347  0.6243409508983800
  0.7569233121873935  0.0018860247877421  0.3763003676016005
  0.7526593073820014  0.0010364829239956  0.8736433940508973
  0.2518009948801254  0.2430808352273979  0.1250517473207116
  0.2568933846205966  0.2344163279201531  0.6255260153182670
  0.7466558882967215  0.2613735757191411  0.1252175120086623
  0.2544217934104456  0.7556167839091866  0.3757507424291479
  0.2515312830187054  0.7621668813253195  0.8747712663982203
  0.7518932338867180  0.7495745558652956  0.3743390309999811
  0.7484511901488896  0.7495958121934361  0.8755912978826760
  0.1248722240193306  0.5049086135604255  0.9941446662134479
  0.6253873658288059  0.5086825923009666  0.9980232468584969
  0.1253668284121307  0.0048819623322899  0.2585936246288911
  0.6244223979084037  0.0030333220003037  0.2575629512246322
  0.6241893038379598  0.2605638091894698  0.5000559722504999
  0.6242004778616036  0.7405034454554823  0.0028616719298694
  0.6241869909679502  0.7653891215453443  0.4959502694450614
  0.1260488996371923  0.2400835170532024  0.7405924105609297
  0.1256782787077294  0.7501647331715950  0.2521520905253459
  0.6250277913218998  0.2427280941530832  0.2551489332905784
  0.6253863337627644  0.2475978565041771  0.7439983691364868
  0.6224724870179130  0.7516408843191811  0.2512458879739455
  0.3751066446008452  0.9988847066312796  0.9996076743293794
  0.3751042897268592  0.5090108319774000  0.5041955151586361
  0.8727349098613393  0.0003305534625234  0.0062274811851030
  0.8744325286732620  0.5065421746098552  0.5000257022773699
  0.3745299508498334  0.9924888128237590  0.7415564901008040
  0.3739112074628367  0.4946488323257861  0.2484156335209655
  0.8749088287979838  0.4955322712691986  0.2521879261855622
  0.8754274763185095  0.5001173922177984  0.7463484391439599
  0.3756326509595090  0.2494302184543089  0.9973602983726758
  0.8743998398278928  0.2493499081243308  0.9997596142560395
  0.8745544339404747  0.7487153777979312  0.7491713720781531
  0.5127243020079464  0.1226541065168987  0.4908625439777767
  0.9915272811584932  0.1246250489463555  0.7370677472869829
  0.4926765953677982  0.1251854326342204  0.2658892101116295
  0.4962178314717019  0.1233768993466744  0.7508848763305650
  0.4967380927420980  0.6254090719816513  0.7528343673640377
  0.0018881329069077  0.3749827304228223  0.9978772533781848
  0.0029732296665730  0.8749770874307718  0.9961064184759867
  0.9896725316705198  0.8750285337306999  0.4938350780969066
  0.5036981177804407  0.3741015075577187  0.0096520025841453
  0.5053483576185734  0.8755347143868726  0.0072148180855676
  0.0087250079976993  0.3748167629163957  0.2526569150409642
  0.2567285581296778  0.6258807987330505  0.9920505060561525
  0.7358243907749236  0.1241259305135379  0.5061743586988590
  0.2538410881907266  0.6254996044438190  0.7598369104005193
  0.7559611386280608  0.1239223091567008  0.7412715297589628
  0.2557279851199597  0.3746683134507732  0.5041624452546104
  0.2584554574956898  0.8758170878393012  0.5110696375634537
  0.2405029230818546  0.3743290434500249  0.2491480715252479
  0.0056285317110803  0.9961960745182650  0.1269648497655667
  0.0122192376538116  0.9891700360544669  0.6249798330233104
  0.0007757644188229  0.5035114075890557  0.1244938447473312
  0.5019899570453522  0.0112365319610250  0.1267262502790465
  0.5106395859728003  0.9994290865776817  0.6224679373554175
  0.5017200434366433  0.5098804939518278  0.1273689156279273
  0.5067098240877190  0.5031867555172207  0.6247055803038318
  0.0033893633703407  0.5059078528266825  0.3758119766677377
  0.9953265307948532  0.5032544619042612  0.8726978308660646
  0.4904795558244441  0.9863437920779661  0.3770225289920717
  0.5022195445548656  0.9955324000427159  0.8741779937840188
  0.0030624810780252  0.2513548565784050  0.1262842964995910
  0.9929215332261081  0.2639300407449349  0.6244056678246497
  0.5009993954177262  0.2358594161944734  0.1265088787925939
  0.4913912345167055  0.2434346376838376  0.6227866806686330
  0.4957183536835029  0.7429438982348129  0.1270822801333826
  0.0027820553397721  0.2428997314068986  0.8741061851490550
  0.9947346855776269  0.7454239474368500  0.3752224700078389
  0.0013300180436410  0.7458518434421951  0.8740723014846395
  0.4967125475441654  0.2663094034356633  0.3757200971225207
  0.5047128501484036  0.2553756737033671  0.8739848403313546
  0.4923048786694286  0.7584059476923002  0.3757589811118330
  0.4973453854034969  0.7561202931714558  0.8741309056849013
  0.2451697239884460  0.5038148749258667  0.1244282788555802
  0.7426494656156108  0.0002418721555649  0.1267705286917778
  0.7385048595209637  0.9925624945621887  0.6230687667491127
  0.2606139014118404  0.9959897376540964  0.3778681960335979
  0.2507087971887248  0.9884798553014106  0.8728928456772737
  0.2479994659021792  0.5029170183145456  0.3757496594927789
  0.2592330578846589  0.4878520203021785  0.8732518761085944
  0.7454882917693467  0.5076747892592057  0.3747668177574554
  0.7523543767872766  0.5069899853182624  0.8739503856865217
  0.2518346676000140  0.7482026684585034  0.1249617212182894
  0.2488317252891287  0.7430504716057753  0.6253784712089924
  0.7541280487424599  0.2620107487467089  0.6237036651312148
  0.7517965866168026  0.7508300542190742  0.1259555313842403
  0.7465957945089092  0.7505211117072567  0.6245331911821235
  0.2476690282543730  0.2501176226825728  0.3762615612020354
  0.2468103142884227  0.2586009714887073  0.8739131261047252
  0.7546623369088451  0.2407458364372217  0.3735626107993043
  0.7475121654139326  0.2411292591499911  0.8754996242336071
  0.1259985863636443  0.0033040482475967  0.9952534239829894
  0.1253768448028889  0.9946589628227989  0.4888718650650461
  0.1246484327688479  0.4993547615649218  0.4928729725872715
  0.6245389953074392  0.0034260307936857  0.9998402802626679
  0.6233521684803716  0.9802013756290271  0.4914901716563502
  0.6241823578119452  0.4914757169998926  0.4981451349775046
  0.1259332942153879  0.0073224164266169  0.7562372176599652
  0.1247701175156851  0.5098690867174950  0.2492722760770201
  0.1240161039192936  0.4985373272582529  0.7632321084809328
  0.6231823832369936  0.9993823050422117  0.7504711779412712
  0.6243940089246908  0.5020145733459500  0.2499407781296106
  0.6260680724270377  0.4964715104295132  0.7553215807394480
  0.1258312697515916  0.2480381303802725  0.9982644518806880
  0.1297832615172752  0.2440615959716286  0.5139168494685608
  0.1252303191762192  0.7440438695817976  0.0004200443802248
  0.1244826119788728  0.7562950946192276  0.4967337525653204
  0.6256739973819802  0.2470671499391321  0.9980128018600961
  0.1258219717422079  0.2347508155355722  0.2492358197877877
  0.1237022465946189  0.7488212175744080  0.7511214127277710
  0.6256858704853445  0.7500237186647331  0.7512552080583155
  0.3770998982673937  0.0125437049770239  0.5109590240436979
  0.3732507898768275  0.4951070401534606  0.0073570748316095
  0.8738476205767882  0.0115876477745515  0.5161488220218056
  0.8745828454728105  0.4964061240505998  0.9989907444782784
  0.3764937766916802  0.9949132090682997  0.2486993841205676
  0.3743119660381954  0.4930960419843778  0.7411943037556707
  0.8735259722691247  0.9966241879293926  0.2420510816065727
  0.8737393239395296  0.9880345376426546  0.7359513691131200
  0.3791324304941311  0.2382612273154985  0.4929144842647433
  0.3762365633940207  0.7586528380296533  0.0024266981481201
  0.3770035340823166  0.7403634298635525  0.5024381446920037
  0.8690345663689599  0.2425227626833936  0.5014069045365858
  0.8720477569618276  0.7558075308304141  0.9995675233464213
  0.8717394712301996  0.7387189271823674  0.5036737466708571
  0.3774709339062802  0.2588269286814027  0.2523770989850168
  0.3760316730693040  0.2542164143480570  0.7558447277875086
  0.3765449897055668  0.7515812961639857  0.2476727832148371
  0.3747113573781893  0.7604566686414499  0.7478432000497542
  0.8730066848468268  0.2570669596703438  0.2480947108387248
  0.8746690231881546  0.2568577409133779  0.7529424276695957
  0.8735198373861575  0.7503518356614860  0.2490263982958038
  0.0026774469433725  0.1261610807622692  0.0057009230975836
  0.0099879544994467  0.1187528113007376  0.5206190418934707
  0.9926744800497358  0.6255120634214152  0.9986179134977639
  0.0064369505806187  0.6273299661146818  0.4992870867547176
  0.5026070266324218  0.1243994304809533  0.9936295469311486
  0.4883048309671515  0.6275949543240406  0.9967415233546204
  0.5104428425424666  0.6271810997433137  0.4932087256501813
  0.9900410767499218  0.1262651174270465  0.2380147544408216
  0.9964076732562264  0.6239022144458458  0.2502847269344100
  0.0052533828080940  0.6237990926286074  0.7501039940199321
  0.4978364893411844  0.6263549481710754  0.2588550519123929
  0.9985695137744923  0.3784831575209562  0.4912024564754493
  0.4885740818906385  0.3721682781738289  0.5103615335578556
  0.4841949686354987  0.8786690454952801  0.5031489438206560
  0.0039103852060826  0.3726091818117757  0.7576499609323071
  0.9974260681572572  0.8759768490273034  0.2569248491891788
  0.0049296157660216  0.8752024182889855  0.7544931141398601
  0.5054927916847985  0.3717523826319701  0.2378483669782514
  0.4999665967384131  0.3728825472120717  0.7415606611840680
  0.4984932377063839  0.8765215305189477  0.2428033653381292
  0.5051413408227495  0.8756152420799106  0.7491276935678013
  0.2477715943511165  0.1248394662549124  0.9859209047204086
  0.2407169270475708  0.1235712874110642  0.4952551940763211
  0.2428202592065318  0.6276880726401842  0.4969650369255532
  0.7453644151134138  0.1258637910928816  0.0062849068591610
  0.7622294140553439  0.6252318553295491  0.0059273148520031
  0.7381693692923702  0.6256798726701582  0.5036083702207933
  0.2617937534885220  0.1266971530642844  0.2612368582742459
  0.2563574945039976  0.1240864749302648  0.7647624302055757
  0.2540791559354280  0.6245974560011036  0.2502478763185781
  0.7601514808399558  0.1258583325416484  0.2442077903404781
  0.7491645666101941  0.6250345643746816  0.2444602558471431
  0.7441004207766178  0.6242070567827089  0.7452420858895712
  0.2472626016016797  0.3761236461865422  0.0051671023122161
  0.2434322980828674  0.8746711751184113  0.0097330776364477
  0.7456934372518924  0.3747018802226483  0.9846769828651963
  0.7564447240020826  0.3725247408662015  0.4879897821778665
  0.7430417186960647  0.8747567384873336  0.0048577338446244
  0.7645499814367162  0.8761904091468702  0.5014773315370546
  0.2471132531583792  0.3754430157400191  0.7438470038645620
  0.2521005441515771  0.8766579434290851  0.2452072723147346
  0.2407959578013411  0.8744777008560530  0.7355250458686928
  0.7438094000875709  0.3740015285545313  0.2662134845513952
  0.7498183745065744  0.3724276052059793  0.7599333454701412
  0.7510806589920255  0.8753046190119638  0.2466259999556812
  0.7457934062625136  0.8748799323028772  0.7469041777633709
 
  0.00000000E+00  0.00000000E+00  0.00000000E+00
  0.00000000E+00  0.00000000E+00  0.00000000E+00
  0.00000000E+00  0.00000000E+00  0.00000000E+00
  0.00000000E+00  0.00000000E+00  0.00000000E+00
  0.00000000E+00  0.00000000E+00  0.00000000E+00
  0.00000000E+00  0.00000000E+00  0.00000000E+00
  0.00000000E+00  0.00000000E+00  0.00000000E+00
  0.00000000E+00  0.00000000E+00  0.00000000E+00
  0.00000000E+00  0.00000000E+00  0.00000000E+00
  0.00000000E+00  0.00000000E+00  0.00000000E+00
  0.00000000E+00  0.00000000E+00  0.00000000E+00
  0.00000000E+00  0.00000000E+00  0.00000000E+00
  0.00000000E+00  0.00000000E+00  0.00000000E+00
  0.00000000E+00  0.00000000E+00  0.00000000E+00
  0.00000000E+00  0.00000000E+00  0.00000000E+00
  0.00000000E+00  0.00000000E+00  0.00000000E+00
  0.00000000E+00  0.00000000E+00  0.00000000E+00
  0.00000000E+00  0.00000000E+00  0.00000000E+00
  0.00000000E+00  0.00000000E+00  0.00000000E+00
  0.00000000E+00  0.00000000E+00  0.00000000E+00
  0.00000000E+00  0.00000000E+00  0.00000000E+00
  0.00000000E+00  0.00000000E+00  0.00000000E+00
  0.00000000E+00  0.00000000E+00  0.00000000E+00
  0.00000000E+00  0.00000000E+00  0.00000000E+00
  0.00000000E+00  0.00000000E+00  0.00000000E+00
  0.00000000E+00  0.00000000E+00  0.00000000E+00
  0.00000000E+00  0.00000000E+00  0.00000000E+00
  0.00000000E+00  0.00000000E+00  0.00000000E+00
  0.00000000E+00  0.00000000E+00  0.00000000E+00
  0.00000000E+00  0.00000000E+00  0.00000000E+00
  0.00000000E+00  0.00000000E+00  0.00000000E+00
  0.00000000E+00  0.00000000E+00  0.00000000E+00
  0.00000000E+00  0.00000000E+00  0.00000000E+00
  0.00000000E+00  0.00000000E+00  0.00000000E+00
  0.00000000E+00  0.00000000E+00  0.00000000E+00
  0.00000000E+00  0.00000000E+00  0.00000000E+00
  0.00000000E+00  0.00000000E+00  0.00000000E+00
  0.00000000E+00  0.00000000E+00  0.00000000E+00
  0.00000000E+00  0.00000000E+00  0.00000000E+00
  0.00000000E+00  0.00000000E+00  0.00000000E+00
  0.00000000E+00  0.00000000E+00  0.00000000E+00
  0.00000000E+00  0.00000000E+00  0.00000000E+00
  0.00000000E+00  0.00000000E+00  0.00000000E+00
  0.00000000E+00  0.00000000E+00  0.00000000E+00
  0.00000000E+00  0.00000000E+00  0.00000000E+00
  0.00000000E+00  0.00000000E+00  0.00000000E+00
  0.00000000E+00  0.00000000E+00  0.00000000E+00
  0.00000000E+00  0.00000000E+00  0.00000000E+00
  0.00000000E+00  0.00000000E+00  0.00000000E+00
  0.00000000E+00  0.00000000E+00  0.00000000E+00
  0.00000000E+00  0.00000000E+00  0.00000000E+00
  0.00000000E+00  0.00000000E+00  0.00000000E+00
  0.00000000E+00  0.00000000E+00  0.00000000E+00
  0.00000000E+00  0.00000000E+00  0.00000000E+00
  0.00000000E+00  0.00000000E+00  0.00000000E+00
  0.00000000E+00  0.00000000E+00  0.00000000E+00
  0.00000000E+00  0.00000000E+00  0.00000000E+00
  0.00000000E+00  0.00000000E+00  0.00000000E+00
  0.00000000E+00  0.00000000E+00  0.00000000E+00
  0.00000000E+00  0.00000000E+00  0.00000000E+00
  0.00000000E+00  0.00000000E+00  0.00000000E+00
  0.00000000E+00  0.00000000E+00  0.00000000E+00
  0.00000000E+00  0.00000000E+00  0.00000000E+00
  0.00000000E+00  0.00000000E+00  0.00000000E+00
  0.00000000E+00  0.00000000E+00  0.00000000E+00
  0.00000000E+00  0.00000000E+00  0.00000000E+00
  0.00000000E+00  0.00000000E+00  0.00000000E+00
  0.00000000E+00  0.00000000E+00  0.00000000E+00
  0.00000000E+00  0.00000000E+00  0.00000000E+00
  0.00000000E+00  0.00000000E+00  0.00000000E+00
  0.00000000E+00  0.00000000E+00  0.00000000E+00
  0.00000000E+00  0.00000000E+00  0.00000000E+00
  0.00000000E+00  0.00000000E+00  0.00000000E+00
  0.00000000E+00  0.00000000E+00  0.00000000E+00
  0.00000000E+00  0.00000000E+00  0.00000000E+00
  0.00000000E+00  0.00000000E+00  0.00000000E+00
  0.00000000E+00  0.00000000E+00  0.00000000E+00
  0.00000000E+00  0.00000000E+00  0.00000000E+00
  0.00000000E+00  0.00000000E+00  0.00000000E+00
  0.00000000E+00  0.00000000E+00  0.00000000E+00
  0.00000000E+00  0.00000000E+00  0.00000000E+00
  0.00000000E+00  0.00000000E+00  0.00000000E+00
  0.00000000E+00  0.00000000E+00  0.00000000E+00
  0.00000000E+00  0.00000000E+00  0.00000000E+00
  0.00000000E+00  0.00000000E+00  0.00000000E+00
  0.00000000E+00  0.00000000E+00  0.00000000E+00
  0.00000000E+00  0.00000000E+00  0.00000000E+00
  0.00000000E+00  0.00000000E+00  0.00000000E+00
  0.00000000E+00  0.00000000E+00  0.00000000E+00
  0.00000000E+00  0.00000000E+00  0.00000000E+00
  0.00000000E+00  0.00000000E+00  0.00000000E+00
  0.00000000E+00  0.00000000E+00  0.00000000E+00
  0.00000000E+00  0.00000000E+00  0.00000000E+00
  0.00000000E+00  0.00000000E+00  0.00000000E+00
  0.00000000E+00  0.00000000E+00  0.00000000E+00
  0.00000000E+00  0.00000000E+00  0.00000000E+00
  0.00000000E+00  0.00000000E+00  0.00000000E+00
  0.00000000E+00  0.00000000E+00  0.00000000E+00
  0.00000000E+00  0.00000000E+00  0.00000000E+00
  0.00000000E+00  0.00000000E+00  0.00000000E+00
  0.00000000E+00  0.00000000E+00  0.00000000E+00
  0.00000000E+00  0.00000000E+00  0.00000000E+00
  0.00000000E+00  0.00000000E+00  0.00000000E+00
  0.00000000E+00  0.00000000E+00  0.00000000E+00
  0.00000000E+00  0.00000000E+00  0.00000000E+00
  0.00000000E+00  0.00000000E+00  0.00000000E+00
  0.00000000E+00  0.00000000E+00  0.00000000E+00
  0.00000000E+00  0.00000000E+00  0.00000000E+00
  0.00000000E+00  0.00000000E+00  0.00000000E+00
  0.00000000E+00  0.00000000E+00  0.00000000E+00
  0.00000000E+00  0.00000000E+00  0.00000000E+00
  0.00000000E+00  0.00000000E+00  0.00000000E+00
  0.00000000E+00  0.00000000E+00  0.00000000E+00
  0.00000000E+00  0.00000000E+00  0.00000000E+00
  0.00000000E+00  0.00000000E+00  0.00000000E+00
  0.00000000E+00  0.00000000E+00  0.00000000E+00
  0.00000000E+00  0.00000000E+00  0.00000000E+00
  0.00000000E+00  0.00000000E+00  0.00000000E+00
  0.00000000E+00  0.00000000E+00  0.00000000E+00
  0.00000000E+00  0.00000000E+00  0.00000000E+00
  0.00000000E+00  0.00000000E+00  0.00000000E+00
  0.00000000E+00  0.00000000E+00  0.00000000E+00
  0.00000000E+00  0.00000000E+00  0.00000000E+00
  0.00000000E+00  0.00000000E+00  0.00000000E+00
  0.00000000E+00  0.00000000E+00  0.00000000E+00
  0.00000000E+00  0.00000000E+00  0.00000000E+00
  0.00000000E+00  0.00000000E+00  0.00000000E+00
  0.00000000E+00  0.00000000E+00  0.00000000E+00
  0.00000000E+00  0.00000000E+00  0.00000000E+00
  0.00000000E+00  0.00000000E+00  0.00000000E+00
  0.00000000E+00  0.00000000E+00  0.00000000E+00
  0.00000000E+00  0.00000000E+00  0.00000000E+00
  0.00000000E+00  0.00000000E+00  0.00000000E+00
  0.00000000E+00  0.00000000E+00  0.00000000E+00
  0.00000000E+00  0.00000000E+00  0.00000000E+00
  0.00000000E+00  0.00000000E+00  0.00000000E+00
  0.00000000E+00  0.00000000E+00  0.00000000E+00
  0.00000000E+00  0.00000000E+00  0.00000000E+00
  0.00000000E+00  0.00000000E+00  0.00000000E+00
  0.00000000E+00  0.00000000E+00  0.00000000E+00
  0.00000000E+00  0.00000000E+00  0.00000000E+00
  0.00000000E+00  0.00000000E+00  0.00000000E+00
  0.00000000E+00  0.00000000E+00  0.00000000E+00
  0.00000000E+00  0.00000000E+00  0.00000000E+00
  0.00000000E+00  0.00000000E+00  0.00000000E+00
  0.00000000E+00  0.00000000E+00  0.00000000E+00
  0.00000000E+00  0.00000000E+00  0.00000000E+00
  0.00000000E+00  0.00000000E+00  0.00000000E+00
  0.00000000E+00  0.00000000E+00  0.00000000E+00
  0.00000000E+00  0.00000000E+00  0.00000000E+00
  0.00000000E+00  0.00000000E+00  0.00000000E+00
  0.00000000E+00  0.00000000E+00  0.00000000E+00
  0.00000000E+00  0.00000000E+00  0.00000000E+00
  0.00000000E+00  0.00000000E+00  0.00000000E+00
  0.00000000E+00  0.00000000E+00  0.00000000E+00
  0.00000000E+00  0.00000000E+00  0.00000000E+00
  0.00000000E+00  0.00000000E+00  0.00000000E+00
  0.00000000E+00  0.00000000E+00  0.00000000E+00
  0.00000000E+00  0.00000000E+00  0.00000000E+00
  0.00000000E+00  0.00000000E+00  0.00000000E+00
  0.00000000E+00  0.00000000E+00  0.00000000E+00
  0.00000000E+00  0.00000000E+00  0.00000000E+00
  0.00000000E+00  0.00000000E+00  0.00000000E+00
  0.00000000E+00  0.00000000E+00  0.00000000E+00
  0.00000000E+00  0.00000000E+00  0.00000000E+00
  0.00000000E+00  0.00000000E+00  0.00000000E+00
  0.00000000E+00  0.00000000E+00  0.00000000E+00
  0.00000000E+00  0.00000000E+00  0.00000000E+00
  0.00000000E+00  0.00000000E+00  0.00000000E+00
  0.00000000E+00  0.00000000E+00  0.00000000E+00
  0.00000000E+00  0.00000000E+00  0.00000000E+00
  0.00000000E+00  0.00000000E+00  0.00000000E+00
  0.00000000E+00  0.00000000E+00  0.00000000E+00
  0.00000000E+00  0.00000000E+00  0.00000000E+00
  0.00000000E+00  0.00000000E+00  0.00000000E+00
  0.00000000E+00  0.00000000E+00  0.00000000E+00
  0.00000000E+00  0.00000000E+00  0.00000000E+00
  0.00000000E+00  0.00000000E+00  0.00000000E+00
  0.00000000E+00  0.00000000E+00  0.00000000E+00
  0.00000000E+00  0.00000000E+00  0.00000000E+00
  0.00000000E+00  0.00000000E+00  0.00000000E+00
  0.00000000E+00  0.00000000E+00  0.00000000E+00
  0.00000000E+00  0.00000000E+00  0.00000000E+00
  0.00000000E+00  0.00000000E+00  0.00000000E+00
  0.00000000E+00  0.00000000E+00  0.00000000E+00
  0.00000000E+00  0.00000000E+00  0.00000000E+00
  0.00000000E+00  0.00000000E+00  0.00000000E+00
  0.00000000E+00  0.00000000E+00  0.00000000E+00
  0.00000000E+00  0.00000000E+00  0.00000000E+00
  0.00000000E+00  0.00000000E+00  0.00000000E+00
  0.00000000E+00  0.00000000E+00  0.00000000E+00
  0.00000000E+00  0.00000000E+00  0.00000000E+00
  0.00000000E+00  0.00000000E+00  0.00000000E+00
  0.00000000E+00  0.00000000E+00  0.00000000E+00
  0.00000000E+00  0.00000000E+00  0.00000000E+00
  0.00000000E+00  0.00000000E+00  0.00000000E+00
  0.00000000E+00  0.00000000E+00  0.00000000E+00
  0.00000000E+00  0.00000000E+00  0.00000000E+00
  0.00000000E+00  0.00000000E+00  0.00000000E+00
  0.00000000E+00  0.00000000E+00  0.00000000E+00
  0.00000000E+00  0.00000000E+00  0.00000000E+00
  0.00000000E+00  0.00000000E+00  0.00000000E+00
  0.00000000E+00  0.00000000E+00  0.00000000E+00
  0.00000000E+00  0.00000000E+00  0.00000000E+00
  0.00000000E+00  0.00000000E+00  0.00000000E+00
  0.00000000E+00  0.00000000E+00  0.00000000E+00
  0.00000000E+00  0.00000000E+00  0.00000000E+00
  0.00000000E+00  0.00000000E+00  0.00000000E+00
  0.00000000E+00  0.00000000E+00  0.00000000E+00
  0.00000000E+00  0.00000000E+00  0.00000000E+00
  0.00000000E+00  0.00000000E+00  0.00000000E+00
  0.00000000E+00  0.00000000E+00  0.00000000E+00
  0.00000000E+00  0.00000000E+00  0.00000000E+00
  0.00000000E+00  0.00000000E+00  0.00000000E+00
  0.00000000E+00  0.00000000E+00  0.00000000E+00
  0.00000000E+00  0.00000000E+00  0.00000000E+00
  0.00000000E+00  0.00000000E+00  0.00000000E+00
  0.00000000E+00  0.00000000E+00  0.00000000E+00
  0.00000000E+00  0.00000000E+00  0.00000000E+00
  0.00000000E+00  0.00000000E+00  0.00000000E+00
  0.00000000E+00  0.00000000E+00  0.00000000E+00
  0.00000000E+00  0.00000000E+00  0.00000000E+00
  0.00000000E+00  0.00000000E+00  0.00000000E+00
  0.00000000E+00  0.00000000E+00  0.00000000E+00
  0.00000000E+00  0.00000000E+00  0.00000000E+00
  0.00000000E+00  0.00000000E+00  0.00000000E+00
  0.00000000E+00  0.00000000E+00  0.00000000E+00
  0.00000000E+00  0.00000000E+00  0.00000000E+00
  0.00000000E+00  0.00000000E+00  0.00000000E+00
  0.00000000E+00  0.00000000E+00  0.00000000E+00
  0.00000000E+00  0.00000000E+00  0.00000000E+00
  0.00000000E+00  0.00000000E+00  0.00000000E+00
  0.00000000E+00  0.00000000E+00  0.00000000E+00
  0.00000000E+00  0.00000000E+00  0.00000000E+00
  0.00000000E+00  0.00000000E+00  0.00000000E+00
  0.00000000E+00  0.00000000E+00  0.00000000E+00
  0.00000000E+00  0.00000000E+00  0.00000000E+00
  0.00000000E+00  0.00000000E+00  0.00000000E+00
  0.00000000E+00  0.00000000E+00  0.00000000E+00
  0.00000000E+00  0.00000000E+00  0.00000000E+00
  0.00000000E+00  0.00000000E+00  0.00000000E+00
  0.00000000E+00  0.00000000E+00  0.00000000E+00
  0.00000000E+00  0.00000000E+00  0.00000000E+00
  0.00000000E+00  0.00000000E+00  0.00000000E+00
  0.00000000E+00  0.00000000E+00  0.00000000E+00
  0.00000000E+00  0.00000000E+00  0.00000000E+00
  0.00000000E+00  0.00000000E+00  0.00000000E+00
  0.00000000E+00  0.00000000E+00  0.00000000E+00
  0.00000000E+00  0.00000000E+00  0.00000000E+00
  0.00000000E+00  0.00000000E+00  0.00000000E+00
  0.00000000E+00  0.00000000E+00  0.00000000E+00
  0.00000000E+00  0.00000000E+00  0.00000000E+00
  0.00000000E+00  0.00000000E+00  0.00000000E+00
  0.00000000E+00  0.00000000E+00  0.00000000E+00
  0.00000000E+00  0.00000000E+00  0.00000000E+00
  0.00000000E+00  0.00000000E+00  0.00000000E+00
  0.00000000E+00  0.00000000E+00  0.00000000E+00
