TiOF2 2x2x2 config 0012                 
   1.00000000000000     
     7.8825771141303589   -0.0000000004601311    0.0000000044905059
     0.0000000014479979    7.7830719275406040   -0.0000023194433856
     0.0000000081619279   -0.0000020753494694    7.5081168785415757
   Ti   O    F 
     8     8    16
Direct
  0.0000000002297114  0.0002286852942035  0.0003408700657559
  0.9999999997558930  0.0002287597555153  0.4996578386773152
  0.9999999997769038  0.4997713259728584  0.9996589343020688
  0.0000000002379821  0.4997712224415096  0.5003419914966329
  0.5000000008530279  0.9870891622323086  0.9892494403451266
  0.4999999991210942  0.9870913828630705  0.5107549350934804
  0.4999999991615312  0.5129106576587006  0.0107501991847343
  0.5000000008591385  0.5129084373244410  0.4892448179668349
  0.5000000000101821  0.7500001385711741  0.9999999990091766
  0.4999999999991616  0.7499996756104323  0.4999999976473930
  0.9999999999886029  0.9996150905496179  0.2500009817002535
  0.0000000000074465  0.9995707095359236  0.7499996403037841
  0.9999999999979963  0.5004292539146462  0.2500006766521992
  0.0000000000116316  0.5003861785173243  0.7499992631643693
  0.4999999999899032  0.0067018444513920  0.7499930587610280
  0.5000000000088463  0.4932980094173018  0.2500074370053440
  0.2506316565556972  0.0020018846915377  0.0043634819577534
  0.2506328666089317  0.0020013971277919  0.4956375350728592
  0.2506316225819276  0.4979980487707891  0.9956364855140691
  0.2506328966497193  0.4979984366933436  0.5043624179830317
  0.7493683438222121  0.0020018833537350  0.0043635069325489
  0.7493671329966176  0.0020013984722880  0.4956375601476850
  0.7493683770497697  0.4979980473637795  0.9956365104882892
  0.7493671037407665  0.4979984380649185  0.5043624430633500
  0.0000000000085763  0.2500000258410893  0.9999999635925008
  0.9999999999903366  0.2500000480877276  0.5000001432120342
  0.9999999999807088  0.7500000664009718  0.0000001517480896
  0.9999999999954525  0.7500000120534338  0.4999999592917632
  0.5000000000060467  0.2499998566594002  0.9999999730034190
  0.5000000000078657  0.2500000966555405  0.4999999619447806
  0.4999999999967955  0.0128162301930672  0.2500015379947627
  0.4999999999995381  0.4871835954601735  0.7499982866775525
 
  0.00000000E+00  0.00000000E+00  0.00000000E+00
  0.00000000E+00  0.00000000E+00  0.00000000E+00
  0.00000000E+00  0.00000000E+00  0.00000000E+00
  0.00000000E+00  0.00000000E+00  0.00000000E+00
  0.00000000E+00  0.00000000E+00  0.00000000E+00
  0.00000000E+00  0.00000000E+00  0.00000000E+00
  0.00000000E+00  0.00000000E+00  0.00000000E+00
  0.00000000E+00  0.00000000E+00  0.00000000E+00
  0.00000000E+00  0.00000000E+00  0.00000000E+00
  0.00000000E+00  0.00000000E+00  0.00000000E+00
  0.00000000E+00  0.00000000E+00  0.00000000E+00
  0.00000000E+00  0.00000000E+00  0.00000000E+00
  0.00000000E+00  0.00000000E+00  0.00000000E+00
  0.00000000E+00  0.00000000E+00  0.00000000E+00
  0.00000000E+00  0.00000000E+00  0.00000000E+00
  0.00000000E+00  0.00000000E+00  0.00000000E+00
  0.00000000E+00  0.00000000E+00  0.00000000E+00
  0.00000000E+00  0.00000000E+00  0.00000000E+00
  0.00000000E+00  0.00000000E+00  0.00000000E+00
  0.00000000E+00  0.00000000E+00  0.00000000E+00
  0.00000000E+00  0.00000000E+00  0.00000000E+00
  0.00000000E+00  0.00000000E+00  0.00000000E+00
  0.00000000E+00  0.00000000E+00  0.00000000E+00
  0.00000000E+00  0.00000000E+00  0.00000000E+00
  0.00000000E+00  0.00000000E+00  0.00000000E+00
  0.00000000E+00  0.00000000E+00  0.00000000E+00
  0.00000000E+00  0.00000000E+00  0.00000000E+00
  0.00000000E+00  0.00000000E+00  0.00000000E+00
  0.00000000E+00  0.00000000E+00  0.00000000E+00
  0.00000000E+00  0.00000000E+00  0.00000000E+00
  0.00000000E+00  0.00000000E+00  0.00000000E+00
  0.00000000E+00  0.00000000E+00  0.00000000E+00
