Ti27 O27 F54                            
   1.00000000000000     
    11.6019866885373659    0.0037958957809606   -0.0020224525111879
     0.0037635889326413   11.5961000056850203   -0.0030089851872527
    -0.0019704192229986   -0.0030792044289594   11.6020973291901086
   Ti   O    F 
    27    27    54
Direct
 -0.0128475215738891 -0.0013359551224695 -0.0008448436346622
  0.0095581270129736  0.0076381314502162  0.3425228196484602
  0.0019385106245457 -0.0119225186908453  0.6554468599309784
 -0.0115073805579007  0.3406672708063319  0.0093066019656978
 -0.0012189767545277  0.3218663004494255  0.3219515191092690
  0.0128855009987377  0.3333770737922134  0.6669156362423357
 -0.0083884317796963  0.6536451801920962  0.0002933433986145
  0.0102120962887349  0.6668607660319645  0.3449235734063644
  0.0106141190752475  0.6757833853568064  0.6579420313089853
  0.3318387438825584 -0.0106788550621022  0.0122506301450637
  0.3224729570240321 -0.0089380686877222  0.3240955068095595
  0.3470163149274835  0.0010029168440398  0.6668625233155577
  0.3329125322203813  0.3329361140921034  0.0005159199060654
  0.3417073156942045  0.3336205740801748  0.3462054237875926
  0.3279277382119246  0.3449520424160245  0.6576728612648899
  0.3342096794963710  0.6777944454834378 -0.0108361563965900
  0.3225582624284773  0.6780852908561154  0.3325467448999913
  0.3236462387153584  0.6571188926355992  0.6747349412229174
  0.6720091097057150  0.0106334862017983 -0.0098182749209262
  0.6670299331050563  0.0131175103419784  0.3335927035238371
  0.6618625577703572  0.0096021325368820  0.6775379392657551
  0.6769401864762487  0.3238463906116280 -0.0086839045992668
  0.6561379627654845  0.3257158225809973  0.3336408839155381
  0.6682468205546107  0.3224124134071390  0.6780585006998125
  0.6764967295032183  0.6670867325949532 -0.0075649291323913
  0.6663859454850507  0.6672784214852218  0.3340811076454083
  0.6659992900660189  0.6669599591536332  0.6798533364826739
 -0.0063264307076198  0.1671256024809027  0.3349942871969619
  0.0043951828842781  0.5004826371984623 -0.0027146353978385
  0.0009043699078307  0.8335080324091277  0.6730917656894722
  0.3416625911239894  0.4990771915773793  0.6682613610700224
  0.3322908133875979  0.8331752552580832  0.0048817979663884
  0.3429009289117851  0.8317549586968369  0.3311127657501426
  0.6617304586365024  0.1665276486559443  0.0056530071284094
  0.6724108972079482  0.1661704471930776  0.3336078407188794
  0.6702887493320565  0.1669913054097654  0.6615838981633883
  0.1665242856112822 -0.0036519679757914  0.3331582129240463
  0.1654015147435824  0.3338634155988170  0.6705996873337289
  0.1666844276383407  0.6692017784257559  0.3353471552911806
  0.1673033047434616  0.6620375658758400  0.6634135618507396
  0.4993029032633148 -0.0030722372099457  0.6634646009781934
  0.5012506515064734  0.3346610374555052  0.3297382714532141
  0.8349929682355272 -0.0036484190964719  0.0032010633401600
  0.8329353321289035  0.3333811248974356 -0.0001309134944779
  0.8307694699254110  0.6687095664611572  0.0014115635311064
 -0.0028282277932117 -0.0044966474690874  0.5002798620294800
  0.0045987143134802  0.3322576281670083  0.1664281384999820
 -0.0089258887023014  0.6670477859338416  0.4984226353080374
  0.3365854493923550  0.0078504632803308  0.1655252490454239
  0.3334726468614952  0.3311494704043573  0.4991919839511373
  0.3390827959592371  0.6680576585089734  0.8347146538245075
  0.6670154898250040 -0.0054848786983772  0.8333502269844730
  0.6621002063005264  0.3388077441375779  0.8325782177733342
  0.6601291903313139  0.6672332322421231  0.8326164784985230
  0.0051615340957306  0.1653217083964355 -0.0013344594823885
 -0.0049482037515426  0.1677234155177066  0.6649307600105421
 -0.0040675607729764  0.5002231807749702  0.3315301123121390
 -0.0061614317226576  0.4990134482598836  0.6731092626981906
  0.0083199384922981  0.8329964943722195 -0.0032120527534956
 -0.0091865905972259  0.8325713173089921  0.3248371070351709
  0.3370645712114214  0.1696541701140641 -0.0057944326576094
  0.3342030208213265  0.1674848921862882  0.3318793302148648
  0.3352261437351622  0.1675475200360628  0.6742287276069171
  0.3284117019059160  0.4963212398485761  0.0016452187889974
  0.3342288016691488  0.5001512937266369  0.3299575374213046
  0.3293284862289751  0.8352671019511289  0.6616964746482629
  0.6605097269236773  0.5014297895187689  0.0071558513930797
  0.6706977316820776  0.5036112456102060  0.3340911187803229
  0.6607491642706087  0.5024874804679528  0.6587909657427371
  0.6575181377663526  0.8319675570508669  0.0082402767343183
  0.6601666491143576  0.8302383763316016  0.3341374041616298
  0.6738483405536972  0.8311278887003624  0.6583090995242530
  0.1657449616963946  0.0049108954295829 -0.0029083824717877
  0.1694598449192024  0.0062035598576582  0.6681984985021142
  0.1705205582073761  0.3281223311221475 -0.0091377363373092
  0.1678827052751107  0.3360860356741087  0.3346955729690195
  0.1665182181817802  0.6664127356139998  0.0033039685130999
  0.4985257657725387 -0.0001696198145483 -0.0038145763077846
  0.5022583304297045  0.0038532311784110  0.3423763715418382
  0.4955220709385328  0.3384974891155383  0.0098272163433539
  0.5004577849204032  0.3283689507952893  0.6635280432879658
  0.5007393319399409  0.6613915552441492  0.0086866249102500
  0.5041724445178400  0.6579734250632716  0.3351758591726492
  0.5026468169570777  0.6766095452862978  0.6565436167832389
  0.8303506140985826 -0.0099358143910044  0.3240640466084111
  0.8338703441455764 -0.0007002433903443  0.6689748446265043
  0.8306722244188257  0.3417749881734212  0.3346669882523453
  0.8349785104471754  0.3386377146787869  0.6651182787156532
  0.8284868757994686  0.6686084355831270  0.3253750983645053
  0.8305642770615892  0.6611878546163481  0.6700123688197424
  0.0031542791208118 -0.0016178457591362  0.1644301884383982
  0.0015458134542603  0.0061682000501589  0.8333049376647503
 -0.0001743606860854  0.3394551224539367  0.5005381634671787
 -0.0013740279005811  0.3271272781578006  0.8329304831228839
 -0.0018658592193490  0.6676688135233941  0.1673101167572643
 -0.0014071340429568  0.6663920949747566  0.8336837603822100
  0.3316461511559899  0.0074309235769293  0.5007625127794497
  0.3322157987709399  0.0001755028476998  0.8334898836767005
  0.3246503948106090  0.3302176871535289  0.1637303930599747
  0.3423726759041955  0.3332884532078918  0.8371771924077501
  0.3367631686882554  0.6570130875541864  0.1660305882356141
  0.3420017138277616  0.6644443599938075  0.4987938168809670
  0.6578484133611465 -0.0077297401694320  0.1695110707138061
  0.6746146099111017 -0.0078207316221141  0.4974897063423688
  0.6682766699951956  0.3416295180784444  0.1683022156676826
  0.6678454173206259  0.3414303316483213  0.4992831160100483
  0.6620717044545958  0.6669785450955510  0.1704757792984553
  0.6720755733846748  0.6669339535690305  0.4968850340013069
 
  0.00000000E+00  0.00000000E+00  0.00000000E+00
  0.00000000E+00  0.00000000E+00  0.00000000E+00
  0.00000000E+00  0.00000000E+00  0.00000000E+00
  0.00000000E+00  0.00000000E+00  0.00000000E+00
  0.00000000E+00  0.00000000E+00  0.00000000E+00
  0.00000000E+00  0.00000000E+00  0.00000000E+00
  0.00000000E+00  0.00000000E+00  0.00000000E+00
  0.00000000E+00  0.00000000E+00  0.00000000E+00
  0.00000000E+00  0.00000000E+00  0.00000000E+00
  0.00000000E+00  0.00000000E+00  0.00000000E+00
  0.00000000E+00  0.00000000E+00  0.00000000E+00
  0.00000000E+00  0.00000000E+00  0.00000000E+00
  0.00000000E+00  0.00000000E+00  0.00000000E+00
  0.00000000E+00  0.00000000E+00  0.00000000E+00
  0.00000000E+00  0.00000000E+00  0.00000000E+00
  0.00000000E+00  0.00000000E+00  0.00000000E+00
  0.00000000E+00  0.00000000E+00  0.00000000E+00
  0.00000000E+00  0.00000000E+00  0.00000000E+00
  0.00000000E+00  0.00000000E+00  0.00000000E+00
  0.00000000E+00  0.00000000E+00  0.00000000E+00
  0.00000000E+00  0.00000000E+00  0.00000000E+00
  0.00000000E+00  0.00000000E+00  0.00000000E+00
  0.00000000E+00  0.00000000E+00  0.00000000E+00
  0.00000000E+00  0.00000000E+00  0.00000000E+00
  0.00000000E+00  0.00000000E+00  0.00000000E+00
  0.00000000E+00  0.00000000E+00  0.00000000E+00
  0.00000000E+00  0.00000000E+00  0.00000000E+00
  0.00000000E+00  0.00000000E+00  0.00000000E+00
  0.00000000E+00  0.00000000E+00  0.00000000E+00
  0.00000000E+00  0.00000000E+00  0.00000000E+00
  0.00000000E+00  0.00000000E+00  0.00000000E+00
  0.00000000E+00  0.00000000E+00  0.00000000E+00
  0.00000000E+00  0.00000000E+00  0.00000000E+00
  0.00000000E+00  0.00000000E+00  0.00000000E+00
  0.00000000E+00  0.00000000E+00  0.00000000E+00
  0.00000000E+00  0.00000000E+00  0.00000000E+00
  0.00000000E+00  0.00000000E+00  0.00000000E+00
  0.00000000E+00  0.00000000E+00  0.00000000E+00
  0.00000000E+00  0.00000000E+00  0.00000000E+00
  0.00000000E+00  0.00000000E+00  0.00000000E+00
  0.00000000E+00  0.00000000E+00  0.00000000E+00
  0.00000000E+00  0.00000000E+00  0.00000000E+00
  0.00000000E+00  0.00000000E+00  0.00000000E+00
  0.00000000E+00  0.00000000E+00  0.00000000E+00
  0.00000000E+00  0.00000000E+00  0.00000000E+00
  0.00000000E+00  0.00000000E+00  0.00000000E+00
  0.00000000E+00  0.00000000E+00  0.00000000E+00
  0.00000000E+00  0.00000000E+00  0.00000000E+00
  0.00000000E+00  0.00000000E+00  0.00000000E+00
  0.00000000E+00  0.00000000E+00  0.00000000E+00
  0.00000000E+00  0.00000000E+00  0.00000000E+00
  0.00000000E+00  0.00000000E+00  0.00000000E+00
  0.00000000E+00  0.00000000E+00  0.00000000E+00
  0.00000000E+00  0.00000000E+00  0.00000000E+00
  0.00000000E+00  0.00000000E+00  0.00000000E+00
  0.00000000E+00  0.00000000E+00  0.00000000E+00
  0.00000000E+00  0.00000000E+00  0.00000000E+00
  0.00000000E+00  0.00000000E+00  0.00000000E+00
  0.00000000E+00  0.00000000E+00  0.00000000E+00
  0.00000000E+00  0.00000000E+00  0.00000000E+00
  0.00000000E+00  0.00000000E+00  0.00000000E+00
  0.00000000E+00  0.00000000E+00  0.00000000E+00
  0.00000000E+00  0.00000000E+00  0.00000000E+00
  0.00000000E+00  0.00000000E+00  0.00000000E+00
  0.00000000E+00  0.00000000E+00  0.00000000E+00
  0.00000000E+00  0.00000000E+00  0.00000000E+00
  0.00000000E+00  0.00000000E+00  0.00000000E+00
  0.00000000E+00  0.00000000E+00  0.00000000E+00
  0.00000000E+00  0.00000000E+00  0.00000000E+00
  0.00000000E+00  0.00000000E+00  0.00000000E+00
  0.00000000E+00  0.00000000E+00  0.00000000E+00
  0.00000000E+00  0.00000000E+00  0.00000000E+00
  0.00000000E+00  0.00000000E+00  0.00000000E+00
  0.00000000E+00  0.00000000E+00  0.00000000E+00
  0.00000000E+00  0.00000000E+00  0.00000000E+00
  0.00000000E+00  0.00000000E+00  0.00000000E+00
  0.00000000E+00  0.00000000E+00  0.00000000E+00
  0.00000000E+00  0.00000000E+00  0.00000000E+00
  0.00000000E+00  0.00000000E+00  0.00000000E+00
  0.00000000E+00  0.00000000E+00  0.00000000E+00
  0.00000000E+00  0.00000000E+00  0.00000000E+00
  0.00000000E+00  0.00000000E+00  0.00000000E+00
  0.00000000E+00  0.00000000E+00  0.00000000E+00
  0.00000000E+00  0.00000000E+00  0.00000000E+00
  0.00000000E+00  0.00000000E+00  0.00000000E+00
  0.00000000E+00  0.00000000E+00  0.00000000E+00
  0.00000000E+00  0.00000000E+00  0.00000000E+00
  0.00000000E+00  0.00000000E+00  0.00000000E+00
  0.00000000E+00  0.00000000E+00  0.00000000E+00
  0.00000000E+00  0.00000000E+00  0.00000000E+00
  0.00000000E+00  0.00000000E+00  0.00000000E+00
  0.00000000E+00  0.00000000E+00  0.00000000E+00
  0.00000000E+00  0.00000000E+00  0.00000000E+00
  0.00000000E+00  0.00000000E+00  0.00000000E+00
  0.00000000E+00  0.00000000E+00  0.00000000E+00
  0.00000000E+00  0.00000000E+00  0.00000000E+00
  0.00000000E+00  0.00000000E+00  0.00000000E+00
  0.00000000E+00  0.00000000E+00  0.00000000E+00
  0.00000000E+00  0.00000000E+00  0.00000000E+00
  0.00000000E+00  0.00000000E+00  0.00000000E+00
  0.00000000E+00  0.00000000E+00  0.00000000E+00
  0.00000000E+00  0.00000000E+00  0.00000000E+00
  0.00000000E+00  0.00000000E+00  0.00000000E+00
  0.00000000E+00  0.00000000E+00  0.00000000E+00
  0.00000000E+00  0.00000000E+00  0.00000000E+00
  0.00000000E+00  0.00000000E+00  0.00000000E+00
  0.00000000E+00  0.00000000E+00  0.00000000E+00
  0.00000000E+00  0.00000000E+00  0.00000000E+00
