config 10                               
   1.00000000000000     
    15.4263309999999993    0.0000000000000000    0.0000000000000000
     0.0000000000000000   15.4263309999999993    0.0000000000000000
     0.0000000000000000    0.0000000000000000   15.4263309999999993
   Li   Ti   O    F 
     1    64    64   128
Direct
  0.1465324576918423  0.6556537849385370  0.3689945191584443
  0.9955343975268836  0.9946768823310352  0.9945186053652971
  0.9996455032871995  0.9919240980431687  0.4934413884458207
  0.0055273561636674  0.4952567101465890  0.9979352943786263
  0.9926606313557766  0.5019878401824850  0.5078728206158859
  0.4944254493082091  0.9943883362340171  0.9994733113516501
  0.5012901731473071  0.0079954228597496  0.4996062531113206
  0.5037207697219011  0.4955682031502893  0.9962864902720320
  0.4913556277059406  0.4992260866930294  0.4954084937348152
  0.0072415529758597  0.0030996451610775  0.2559576594636139
  0.0012952969115297  0.0076201339383713  0.7566079622199426
  0.9920843985291318  0.4920358614020863  0.2513485075306485
  0.9923246525612297  0.4992590969793479  0.7423622020677677
  0.5061833580341868  0.0090114692555768  0.2502714240608547
  0.4927316537606107  0.0049019564844067  0.7519843195822626
  0.4929190549632753  0.4962517807044058  0.2575810635094230
  0.5004255485830800  0.5040558652190856  0.7585065593756762
  0.9954351634341618  0.2571714360437328  0.0014313608927034
  0.9986614922253237  0.2479462080890183  0.4913297129629909
  0.9989140467051185  0.7574504387286184  0.0082224988562583
  0.9960832582730452  0.7566773235764241  0.5080668819041789
  0.4948866709647941  0.2581417271919806  0.0012656170933800
  0.5084254792507993  0.2456495297061353  0.4989110915567301
  0.5077633663401506  0.7563664744918207  0.9991628901273254
  0.5077215840074705  0.7533630641501893  0.5090430887766387
  0.0000982174408740  0.2575922872795950  0.2548894156327962
  0.0062804112555421  0.2423511217923349  0.7472215071442353
  0.0080478442230490  0.7468297435334763  0.2455165926959729
  0.9927766925357830  0.7504382719142492  0.7448188632819686
  0.5080204783370624  0.2418395261478445  0.2515402364915796
  0.5066165181551682  0.2427731247467331  0.7501205521823225
  0.5089937428495634  0.7514544983722284  0.2521196405733939
  0.5017620007406834  0.7419606182365138  0.7435965330463403
  0.2565360359518136  0.9985369159800985  0.0057237166816059
  0.2501472609221080  0.9940339134987188  0.5055038105579389
  0.2434705744550262  0.5080102394172653  0.9977691866151150
  0.2539346052031141  0.4935877970788179  0.5068934284656140
  0.7572528482474512  0.0002593552390661  0.9941223697918928
  0.7504061355344822  0.0064171765404149  0.4943867387967661
  0.7415323251232325  0.5004965844783876  0.0050707957231555
  0.7542087029366801  0.4975450959310045  0.5056017583052511
  0.2448368956699097  0.0040346968379380  0.2436475201943828
  0.2576392394937446  0.9976249078017504  0.7438141121353676
  0.2551907188123560  0.4923270680585942  0.2511056833917868
  0.2465724564852439  0.5055675646841397  0.7407014509958348
  0.7451133609897708  0.0005798346090169  0.2555308120419065
  0.7482001571037884  0.0061915137675244  0.7559762552754542
  0.7547242940193022  0.4976990695689743  0.2428114687209399
  0.7567876036223743  0.4980016144205401  0.7427926008645812
  0.2570671011363657  0.2520897085725906  0.0058689454383920
  0.2531442807270781  0.2570872194034143  0.5050541155420389
  0.2523180636023452  0.7421371127662022  0.9919315266546636
  0.2533725384456271  0.7553967195687019  0.4922545017573559
  0.7570853268884854  0.2509783779779284  0.0073107466837579
  0.7427929362983381  0.2423722970109324  0.4977777135999541
  0.7424212019085472  0.7493620092919244  0.9942689758886055
  0.7416865788412312  0.7522545080241899  0.4942336336161104
  0.2507934261086707  0.2589727097862011  0.2439201337089070
  0.2440271133669316  0.2520052176787426  0.7437148172622944
  0.2492620870398173  0.7489137160183600  0.2511199876965223
  0.2478812264393442  0.7412741692073870  0.7550180189347417
  0.7421746437292220  0.2503080740135240  0.2424497821851764
  0.7441272900421688  0.2418211644378951  0.7506944763064549
  0.7472086902604025  0.7496035356319477  0.2569231650010191
  0.7572950350776719  0.7504655628648943  0.7567943124697967
  0.0084995444422807  0.5028112072862826  0.6248520653724586
  0.9949695484733974  0.0052360025785211  0.3765250823423694
  0.9996947280021219  0.0021176552679485  0.8725200732575185
  0.4997819004948355  0.4927591689645191  0.3757061025150542
  0.4931746233724856  0.4969961927652595  0.8747840152547135
  0.0043096340048563  0.7451114229352228  0.1259968691434534
  0.0046056940266173  0.7445154143007382  0.6251583965585347
  0.5025677781630851  0.7542446503819740  0.6248570395390145
  0.9944318934243406  0.2472147088352649  0.3765517603935067
  0.2551802246259203  0.0013495321745406  0.1248744473526760
  0.2547621746857666  0.0002090707781223  0.6244459078238709
  0.2381790261400453  0.4895917369993991  0.6256077689039972
  0.7496633448310583  0.4913060430578163  0.1256327683908079
  0.7451090560589517  0.4930463212698059  0.6243233306991606
  0.7510345324889890  0.9993988544650274  0.3761192239869942
  0.7459844688749412  0.9982088968183157  0.8734067206966489
  0.2449112054848450  0.2544198730119873  0.1255371803469824
  0.2528699749184871  0.2540982356083789  0.6246903996557517
  0.7417949470716395  0.2585113498860788  0.1263418283020626
  0.2522491358929373  0.7332352711537001  0.3775412282165166
  0.2536395722111538  0.7482265963563620  0.8736016040366061
  0.7541639433614836  0.7511637413755726  0.3748982172857703
  0.7496576141581938  0.7526495597136892  0.8754636579725931
  0.1241758913948300  0.5050195376131043  0.9944341762273581
  0.6253186110764534  0.5081134098979786  0.9983883731042822
  0.1251383365696779  0.0110396745495688  0.2520427736289442
  0.6254257917677335  0.0050026345994761  0.2496903217890560
  0.6243782164337114  0.2576549142138865  0.4947943692113576
  0.6250192135926934  0.7406799485986428  0.0021616631205172
  0.6248351944487583  0.7646337038347619  0.4958404991020689
  0.1247612031070113  0.2507933422432952  0.7490140745243390
  0.1206421166704723  0.7346473677203271  0.2665139532155141
  0.6255878872935685  0.2410702867914197  0.2620098444292909
  0.6253402550765558  0.2521476658081447  0.7469184690874044
  0.6250753594320481  0.7520355322758299  0.2514465878445982
  0.3762643927439397 -0.0008717620365519  0.9915723099949473
  0.3744501628346441  0.5063019716865118  0.5031136377522882
  0.8730132165210741  0.0011158131889392 -0.0001054559445824
  0.8744173495806666  0.5021149613220535  0.5006562560883860
  0.3760558671149462  0.9961451421445071  0.7568837930195292
  0.3738428967445410  0.4914742675780655  0.2508289481861535
  0.8742412424465267  0.4902307232428570  0.2523323407140013
  0.8748789286559638  0.5083881310001048  0.7455350797191307
  0.3757794140285574  0.2491514025197566  0.0042960246812504
  0.8741807767325728  0.2489570667342285  0.0059608853795904
  0.8748747382172624  0.7431109649498145  0.7477420726414451
  0.5110127710459533  0.1225209125957064  0.4953059375501083
  0.9956369172645688  0.1261752151349616  0.7434743171292508
  0.4917738285153856  0.1254281305561705  0.2634890089317546
  0.5008389640315020  0.1235355364639409  0.7474021729013554
  0.5014840216564085  0.6251320628663467  0.7493330576106537
  0.0010443942106785  0.3750569024719319  0.0052086991499276
  0.0030985740223249  0.8750563128955483  0.0018347020623427
  0.9980658756107614  0.8744332370898983  0.4997759442447784
  0.5033747600345918  0.3743379948711837  0.0081266663199771
  0.5055974731090435  0.8752847568756905  0.0037173434351293
  0.0113291510135955  0.3730598010125746  0.2466759115795878
  0.2569589081561286  0.6250688794542858  0.0058086824778710
  0.7414823294064197  0.1248265233558564  0.5042993798937241
  0.2472050233837655  0.6242321336732577  0.7442478818643478
  0.7514755342783213  0.1245224921068210  0.7441378208069618
  0.2513295111079469  0.3735956965138561  0.4888792114414410
  0.2516017629024784  0.8758287084791597  0.4943162087726838
  0.2372590628426323  0.3749906835869168  0.2612441539638876
  0.0000508093098821  0.0024761153408919  0.1268953277502373
  0.0049394610677052  0.9975031909808239  0.6235874428295941
  1.0004809368053256  0.5092618894064940  0.1257887056178074
  0.4934441935009285  0.0086328299011778  0.1262206254929808
  0.4966687596624021  0.9941975902771176  0.6228617974064209
  0.5009168894433984  0.5087379030155692  0.1277797140575174
  0.5070463294964492  0.5003444271790499  0.6244354618022305
  0.0022234610454365  0.4938539295008704  0.3765609971404585
  0.9940574068594067  0.4962998692917101  0.8731451589674045
  0.5044248196851229  0.9894588479697810  0.3767379839756596
  0.5161836687153997  0.0007272782939709  0.8749170237082405
  0.0085573357513326  0.2443870776464825  0.1272137287202682
  0.9994631166331108  0.2588693343184855  0.6213161470793215
  0.5091693117183262  0.2374298973821068  0.1267742712623971
  0.4952741523110505  0.2468991579504120  0.6226948423936979
  0.4980821775513217  0.7449668099268985  0.1268686843098123
  0.9950660517731064  0.2507672104564445  0.8741100054348225
  0.9870954667083798  0.7495731008407985  0.3774641810022794
 -0.0002177369669055  0.7513487636115027  0.8740634816002658
  0.4919035194798578  0.2640936051248497  0.3757939025877010
  0.5004450073415884  0.2525823163957239  0.8745833268698070
  0.4949893721086219  0.7541554999969413  0.3760739495882547
  0.4979002623326834  0.7513502476086000  0.8740464748326974
  0.2429313089331958  0.4872092194911369  0.1244410657655594
  0.7498807311519837  0.0041401654068631  0.1265269982090775
  0.7457717995572762  0.9953971618975931  0.6229175060946978
  0.2531815337037905  0.0072913438340546  0.3756300866178992
  0.2430137738927750  0.9971457103113119  0.8736824739335349
  0.2433068295826100  0.5218710774216581  0.3747027129060782
  0.2598254430095655  0.5028025658051599  0.8733530845603993
  0.7459208686937612  0.5070931122455282  0.3751628446957989
  0.7526893805691700  0.5057313120885859  0.8740893327270616
  0.2475821269618479  0.7589551556583897  0.1222803716364129
  0.2459284187683280  0.7549910161745959  0.6242114537699374
  0.7511797643783333  0.2612715905635145  0.6228621382949615
  0.7517350333544862  0.7469789319460688  0.1257518370966448
  0.7454311737672380  0.7481367626613954  0.6248843456914293
  0.2530118697837613  0.2408271226594252  0.3743682815837533
  0.2520610043706064  0.2481793629916336  0.8748543756691849
  0.7628269423096836  0.2421742377115471  0.3742466232332312
  0.7522563558644997  0.2444155908841812  0.8758923227866456
  0.1262584388085097  0.0028599801399424  0.0019128122537279
  0.1249418159119763  0.0054636010584127  0.4973477131588191
  0.1228991866423391  0.5036695047933376  0.4899852704104937
  0.6252742172436341  0.0025252071747718  0.0085184430211619
  0.6239187593182064  0.9819932856804257  0.5021329223234283
  0.6245429347816375  0.4908793884120590  0.4980018261266360
  0.1269933533287756  0.0019083426571020  0.7468095221985385
  0.1222388823748815  0.5137444322964378  0.2537465644517369
  0.1230446638333470  0.4931133343084267  0.7633515683184535
  0.6235813567311629  0.9950594063800757  0.7405301253563884
  0.6246461081607826  0.5005898699238270  0.2499714881363061
  0.6260407342498275  0.4924446309745914  0.7558870379915683
  0.1249327748424727  0.2495504052008851  0.9937843932138306
  0.1236261816107445  0.2456910527263614  0.4985114498095288
  0.1255017064710899  0.7432782950292431  0.9960414036167017
  0.1224587012808501  0.7432387295212329  0.4866100448723554
  0.6261158457341148  0.2489431630617411  0.9941246056603642
  0.1245651344817017  0.2329917771756141  0.2568986996160755
  0.1233290622153470  0.7537269006365797  0.7529461909477502
  0.6262126900521272  0.7542648534620205  0.7513955196853870
  0.3776331145535679  0.0086180321620416  0.4952165579881501
  0.3729467967861317  0.4941625204445492  0.0085309367150480
  0.8746999596077936  0.0070215244099240  0.5097368638512643
  0.8743932345656389  0.4964159698890706  1.0003245277830928
  0.3777203345461866  0.9933732705937577  0.2563375556820709
  0.3742424545540938  0.4985996151159783  0.7395401961690746
  0.8741960407576465  0.9950018978138913  0.2469981964984176
  0.8741897223878489  0.9935367302097591  0.7419754915391132
  0.3787576192105300  0.2412770002471850  0.4970311397655965
  0.3766194006565509  0.7585848902003883  0.0026442720828725
  0.3777998793427708  0.7419778328124205  0.5031569573410770
  0.8741682081403984  0.2498540270186559  0.5056003034500968
  0.8726265001733999  0.7558051266980662  0.0012567083115374
  0.8715986605990100  0.7410029873604363  0.5086983656114134
  0.3781263298031938  0.2621750475021943  0.2459161869701909
  0.3762230996568928  0.2497257834435314  0.7522642095148083
  0.3821747555386555  0.7532116909169029  0.2481269859507650
  0.3748830118001062  0.7545563264415931  0.7465438247441980
  0.8742393839672858  0.2602937749607514  0.2436976139306937
  0.8740296662278549  0.2541050655459108  0.7464637856301031
  0.8732764363391644  0.7509177943685449  0.2464035566426225
  0.0029559461421696  0.1268511501369026  0.0008300856714355
  0.9976601437358744  0.1256307170910726  0.5096158242171006
  0.9918974023383137  0.6250312761387544  0.9938662149861566
  0.0026461602345754  0.6257338824555112  0.4892970845609980
  0.5038534589623714  0.1247729300618392  0.9961505868565297
  0.4882809112317401  0.6273271264143773  0.9988895618195502
  0.5102220142866130  0.6266021335158150  0.4975091633761748
  0.9863384587701102  0.1276516060425087  0.2471662498159302
  0.9884144024600697  0.6209906445835499  0.2612169398155732
  0.0109667252991417  0.6242129988469061  0.7570023614569951
  0.5007329601210171  0.6255291341103698  0.2566742593000959
  0.0029124487165060  0.3738715886703968  0.4989321591332304
  0.4909452530472811  0.3718756337754719  0.5081611845278945
  0.4855284058107802  0.8780188486466226  0.4979223832368860
  0.9953376081791525  0.3746045389893170  0.7504082569041357
  0.0036677261203623  0.8758040765106426  0.2518040624040743
 -0.0002272204020206  0.8754822357455833  0.7470738122311560
  0.5082428966886997  0.3717026509649873  0.2391020032054075
  0.4962461105174850  0.3731635892557426  0.7441352339944965
  0.5017214875574511  0.8768192734156629  0.2450044870486910
  0.5025141810067885  0.8750661412714218  0.7544832244861484
  0.2471217499537096  0.1252190398249680  0.9957209260730876
  0.2491641841776440  0.1250973638514775  0.5006261940161193
  0.2420037658831558  0.6257385732186141  0.5110416455911807
  0.7443172580577814  0.1260716871909743  0.0025405299693880
  0.7623575127938316  0.6252096926100272  0.0026737145303169
  0.7401322263775353  0.6251307510876034  0.5022985694068919
  0.2650306804556404  0.1282074448466351  0.2493026345662787
  0.2525955194122255  0.1247017624767863  0.7533882992622996
  0.2542470541906391  0.6189792417244701  0.2338763303070632
  0.7629959401996372  0.1259659091944202  0.2478463657436437
  0.7500452701936465  0.6241045206127606  0.2473691408050532
  0.7383711302729937  0.6245641683992791  0.7476224742242159
  0.2478023290119131  0.3763132279178264  0.9921694861033037
  0.2445449545813891  0.8739367864251105 -0.0012998658800745
  0.7469847032410721  0.3749342248311412  0.9874817776060743
  0.7554500253499502  0.3722849898769576  0.4881696098653533
  0.7441605237692694  0.8748228318727451  0.0086986798519816
  0.7638521885166338  0.8760784734028541  0.5033674824391238
  0.2539126878784099  0.3759902580520761  0.7602364363131044
  0.2458997531414214  0.8801408906583620  0.2566665891989623
  0.2459611051366272  0.8733353897381941  0.7482314155351111
  0.7421931108998989  0.3734674090008959  0.2660079579769795
  0.7547283690033112  0.3737511606623615  0.7586123076214926
  0.7515257607079792  0.8753186189102042  0.2434620099476353
  0.7512793339604887  0.8748658016763007  0.7439095183671557
 
  0.00000000E+00  0.00000000E+00  0.00000000E+00
  0.00000000E+00  0.00000000E+00  0.00000000E+00
  0.00000000E+00  0.00000000E+00  0.00000000E+00
  0.00000000E+00  0.00000000E+00  0.00000000E+00
  0.00000000E+00  0.00000000E+00  0.00000000E+00
  0.00000000E+00  0.00000000E+00  0.00000000E+00
  0.00000000E+00  0.00000000E+00  0.00000000E+00
  0.00000000E+00  0.00000000E+00  0.00000000E+00
  0.00000000E+00  0.00000000E+00  0.00000000E+00
  0.00000000E+00  0.00000000E+00  0.00000000E+00
  0.00000000E+00  0.00000000E+00  0.00000000E+00
  0.00000000E+00  0.00000000E+00  0.00000000E+00
  0.00000000E+00  0.00000000E+00  0.00000000E+00
  0.00000000E+00  0.00000000E+00  0.00000000E+00
  0.00000000E+00  0.00000000E+00  0.00000000E+00
  0.00000000E+00  0.00000000E+00  0.00000000E+00
  0.00000000E+00  0.00000000E+00  0.00000000E+00
  0.00000000E+00  0.00000000E+00  0.00000000E+00
  0.00000000E+00  0.00000000E+00  0.00000000E+00
  0.00000000E+00  0.00000000E+00  0.00000000E+00
  0.00000000E+00  0.00000000E+00  0.00000000E+00
  0.00000000E+00  0.00000000E+00  0.00000000E+00
  0.00000000E+00  0.00000000E+00  0.00000000E+00
  0.00000000E+00  0.00000000E+00  0.00000000E+00
  0.00000000E+00  0.00000000E+00  0.00000000E+00
  0.00000000E+00  0.00000000E+00  0.00000000E+00
  0.00000000E+00  0.00000000E+00  0.00000000E+00
  0.00000000E+00  0.00000000E+00  0.00000000E+00
  0.00000000E+00  0.00000000E+00  0.00000000E+00
  0.00000000E+00  0.00000000E+00  0.00000000E+00
  0.00000000E+00  0.00000000E+00  0.00000000E+00
  0.00000000E+00  0.00000000E+00  0.00000000E+00
  0.00000000E+00  0.00000000E+00  0.00000000E+00
  0.00000000E+00  0.00000000E+00  0.00000000E+00
  0.00000000E+00  0.00000000E+00  0.00000000E+00
  0.00000000E+00  0.00000000E+00  0.00000000E+00
  0.00000000E+00  0.00000000E+00  0.00000000E+00
  0.00000000E+00  0.00000000E+00  0.00000000E+00
  0.00000000E+00  0.00000000E+00  0.00000000E+00
  0.00000000E+00  0.00000000E+00  0.00000000E+00
  0.00000000E+00  0.00000000E+00  0.00000000E+00
  0.00000000E+00  0.00000000E+00  0.00000000E+00
  0.00000000E+00  0.00000000E+00  0.00000000E+00
  0.00000000E+00  0.00000000E+00  0.00000000E+00
  0.00000000E+00  0.00000000E+00  0.00000000E+00
  0.00000000E+00  0.00000000E+00  0.00000000E+00
  0.00000000E+00  0.00000000E+00  0.00000000E+00
  0.00000000E+00  0.00000000E+00  0.00000000E+00
  0.00000000E+00  0.00000000E+00  0.00000000E+00
  0.00000000E+00  0.00000000E+00  0.00000000E+00
  0.00000000E+00  0.00000000E+00  0.00000000E+00
  0.00000000E+00  0.00000000E+00  0.00000000E+00
  0.00000000E+00  0.00000000E+00  0.00000000E+00
  0.00000000E+00  0.00000000E+00  0.00000000E+00
  0.00000000E+00  0.00000000E+00  0.00000000E+00
  0.00000000E+00  0.00000000E+00  0.00000000E+00
  0.00000000E+00  0.00000000E+00  0.00000000E+00
  0.00000000E+00  0.00000000E+00  0.00000000E+00
  0.00000000E+00  0.00000000E+00  0.00000000E+00
  0.00000000E+00  0.00000000E+00  0.00000000E+00
  0.00000000E+00  0.00000000E+00  0.00000000E+00
  0.00000000E+00  0.00000000E+00  0.00000000E+00
  0.00000000E+00  0.00000000E+00  0.00000000E+00
  0.00000000E+00  0.00000000E+00  0.00000000E+00
  0.00000000E+00  0.00000000E+00  0.00000000E+00
  0.00000000E+00  0.00000000E+00  0.00000000E+00
  0.00000000E+00  0.00000000E+00  0.00000000E+00
  0.00000000E+00  0.00000000E+00  0.00000000E+00
  0.00000000E+00  0.00000000E+00  0.00000000E+00
  0.00000000E+00  0.00000000E+00  0.00000000E+00
  0.00000000E+00  0.00000000E+00  0.00000000E+00
  0.00000000E+00  0.00000000E+00  0.00000000E+00
  0.00000000E+00  0.00000000E+00  0.00000000E+00
  0.00000000E+00  0.00000000E+00  0.00000000E+00
  0.00000000E+00  0.00000000E+00  0.00000000E+00
  0.00000000E+00  0.00000000E+00  0.00000000E+00
  0.00000000E+00  0.00000000E+00  0.00000000E+00
  0.00000000E+00  0.00000000E+00  0.00000000E+00
  0.00000000E+00  0.00000000E+00  0.00000000E+00
  0.00000000E+00  0.00000000E+00  0.00000000E+00
  0.00000000E+00  0.00000000E+00  0.00000000E+00
  0.00000000E+00  0.00000000E+00  0.00000000E+00
  0.00000000E+00  0.00000000E+00  0.00000000E+00
  0.00000000E+00  0.00000000E+00  0.00000000E+00
  0.00000000E+00  0.00000000E+00  0.00000000E+00
  0.00000000E+00  0.00000000E+00  0.00000000E+00
  0.00000000E+00  0.00000000E+00  0.00000000E+00
  0.00000000E+00  0.00000000E+00  0.00000000E+00
  0.00000000E+00  0.00000000E+00  0.00000000E+00
  0.00000000E+00  0.00000000E+00  0.00000000E+00
  0.00000000E+00  0.00000000E+00  0.00000000E+00
  0.00000000E+00  0.00000000E+00  0.00000000E+00
  0.00000000E+00  0.00000000E+00  0.00000000E+00
  0.00000000E+00  0.00000000E+00  0.00000000E+00
  0.00000000E+00  0.00000000E+00  0.00000000E+00
  0.00000000E+00  0.00000000E+00  0.00000000E+00
  0.00000000E+00  0.00000000E+00  0.00000000E+00
  0.00000000E+00  0.00000000E+00  0.00000000E+00
  0.00000000E+00  0.00000000E+00  0.00000000E+00
  0.00000000E+00  0.00000000E+00  0.00000000E+00
  0.00000000E+00  0.00000000E+00  0.00000000E+00
  0.00000000E+00  0.00000000E+00  0.00000000E+00
  0.00000000E+00  0.00000000E+00  0.00000000E+00
  0.00000000E+00  0.00000000E+00  0.00000000E+00
  0.00000000E+00  0.00000000E+00  0.00000000E+00
  0.00000000E+00  0.00000000E+00  0.00000000E+00
  0.00000000E+00  0.00000000E+00  0.00000000E+00
  0.00000000E+00  0.00000000E+00  0.00000000E+00
  0.00000000E+00  0.00000000E+00  0.00000000E+00
  0.00000000E+00  0.00000000E+00  0.00000000E+00
  0.00000000E+00  0.00000000E+00  0.00000000E+00
  0.00000000E+00  0.00000000E+00  0.00000000E+00
  0.00000000E+00  0.00000000E+00  0.00000000E+00
  0.00000000E+00  0.00000000E+00  0.00000000E+00
  0.00000000E+00  0.00000000E+00  0.00000000E+00
  0.00000000E+00  0.00000000E+00  0.00000000E+00
  0.00000000E+00  0.00000000E+00  0.00000000E+00
  0.00000000E+00  0.00000000E+00  0.00000000E+00
  0.00000000E+00  0.00000000E+00  0.00000000E+00
  0.00000000E+00  0.00000000E+00  0.00000000E+00
  0.00000000E+00  0.00000000E+00  0.00000000E+00
  0.00000000E+00  0.00000000E+00  0.00000000E+00
  0.00000000E+00  0.00000000E+00  0.00000000E+00
  0.00000000E+00  0.00000000E+00  0.00000000E+00
  0.00000000E+00  0.00000000E+00  0.00000000E+00
  0.00000000E+00  0.00000000E+00  0.00000000E+00
  0.00000000E+00  0.00000000E+00  0.00000000E+00
  0.00000000E+00  0.00000000E+00  0.00000000E+00
  0.00000000E+00  0.00000000E+00  0.00000000E+00
  0.00000000E+00  0.00000000E+00  0.00000000E+00
  0.00000000E+00  0.00000000E+00  0.00000000E+00
  0.00000000E+00  0.00000000E+00  0.00000000E+00
  0.00000000E+00  0.00000000E+00  0.00000000E+00
  0.00000000E+00  0.00000000E+00  0.00000000E+00
  0.00000000E+00  0.00000000E+00  0.00000000E+00
  0.00000000E+00  0.00000000E+00  0.00000000E+00
  0.00000000E+00  0.00000000E+00  0.00000000E+00
  0.00000000E+00  0.00000000E+00  0.00000000E+00
  0.00000000E+00  0.00000000E+00  0.00000000E+00
  0.00000000E+00  0.00000000E+00  0.00000000E+00
  0.00000000E+00  0.00000000E+00  0.00000000E+00
  0.00000000E+00  0.00000000E+00  0.00000000E+00
  0.00000000E+00  0.00000000E+00  0.00000000E+00
  0.00000000E+00  0.00000000E+00  0.00000000E+00
  0.00000000E+00  0.00000000E+00  0.00000000E+00
  0.00000000E+00  0.00000000E+00  0.00000000E+00
  0.00000000E+00  0.00000000E+00  0.00000000E+00
  0.00000000E+00  0.00000000E+00  0.00000000E+00
  0.00000000E+00  0.00000000E+00  0.00000000E+00
  0.00000000E+00  0.00000000E+00  0.00000000E+00
  0.00000000E+00  0.00000000E+00  0.00000000E+00
  0.00000000E+00  0.00000000E+00  0.00000000E+00
  0.00000000E+00  0.00000000E+00  0.00000000E+00
  0.00000000E+00  0.00000000E+00  0.00000000E+00
  0.00000000E+00  0.00000000E+00  0.00000000E+00
  0.00000000E+00  0.00000000E+00  0.00000000E+00
  0.00000000E+00  0.00000000E+00  0.00000000E+00
  0.00000000E+00  0.00000000E+00  0.00000000E+00
  0.00000000E+00  0.00000000E+00  0.00000000E+00
  0.00000000E+00  0.00000000E+00  0.00000000E+00
  0.00000000E+00  0.00000000E+00  0.00000000E+00
  0.00000000E+00  0.00000000E+00  0.00000000E+00
  0.00000000E+00  0.00000000E+00  0.00000000E+00
  0.00000000E+00  0.00000000E+00  0.00000000E+00
  0.00000000E+00  0.00000000E+00  0.00000000E+00
  0.00000000E+00  0.00000000E+00  0.00000000E+00
  0.00000000E+00  0.00000000E+00  0.00000000E+00
  0.00000000E+00  0.00000000E+00  0.00000000E+00
  0.00000000E+00  0.00000000E+00  0.00000000E+00
  0.00000000E+00  0.00000000E+00  0.00000000E+00
  0.00000000E+00  0.00000000E+00  0.00000000E+00
  0.00000000E+00  0.00000000E+00  0.00000000E+00
  0.00000000E+00  0.00000000E+00  0.00000000E+00
  0.00000000E+00  0.00000000E+00  0.00000000E+00
  0.00000000E+00  0.00000000E+00  0.00000000E+00
  0.00000000E+00  0.00000000E+00  0.00000000E+00
  0.00000000E+00  0.00000000E+00  0.00000000E+00
  0.00000000E+00  0.00000000E+00  0.00000000E+00
  0.00000000E+00  0.00000000E+00  0.00000000E+00
  0.00000000E+00  0.00000000E+00  0.00000000E+00
  0.00000000E+00  0.00000000E+00  0.00000000E+00
  0.00000000E+00  0.00000000E+00  0.00000000E+00
  0.00000000E+00  0.00000000E+00  0.00000000E+00
  0.00000000E+00  0.00000000E+00  0.00000000E+00
  0.00000000E+00  0.00000000E+00  0.00000000E+00
  0.00000000E+00  0.00000000E+00  0.00000000E+00
  0.00000000E+00  0.00000000E+00  0.00000000E+00
  0.00000000E+00  0.00000000E+00  0.00000000E+00
  0.00000000E+00  0.00000000E+00  0.00000000E+00
  0.00000000E+00  0.00000000E+00  0.00000000E+00
  0.00000000E+00  0.00000000E+00  0.00000000E+00
  0.00000000E+00  0.00000000E+00  0.00000000E+00
  0.00000000E+00  0.00000000E+00  0.00000000E+00
  0.00000000E+00  0.00000000E+00  0.00000000E+00
  0.00000000E+00  0.00000000E+00  0.00000000E+00
  0.00000000E+00  0.00000000E+00  0.00000000E+00
  0.00000000E+00  0.00000000E+00  0.00000000E+00
  0.00000000E+00  0.00000000E+00  0.00000000E+00
  0.00000000E+00  0.00000000E+00  0.00000000E+00
  0.00000000E+00  0.00000000E+00  0.00000000E+00
  0.00000000E+00  0.00000000E+00  0.00000000E+00
  0.00000000E+00  0.00000000E+00  0.00000000E+00
  0.00000000E+00  0.00000000E+00  0.00000000E+00
  0.00000000E+00  0.00000000E+00  0.00000000E+00
  0.00000000E+00  0.00000000E+00  0.00000000E+00
  0.00000000E+00  0.00000000E+00  0.00000000E+00
  0.00000000E+00  0.00000000E+00  0.00000000E+00
  0.00000000E+00  0.00000000E+00  0.00000000E+00
  0.00000000E+00  0.00000000E+00  0.00000000E+00
  0.00000000E+00  0.00000000E+00  0.00000000E+00
  0.00000000E+00  0.00000000E+00  0.00000000E+00
  0.00000000E+00  0.00000000E+00  0.00000000E+00
  0.00000000E+00  0.00000000E+00  0.00000000E+00
  0.00000000E+00  0.00000000E+00  0.00000000E+00
  0.00000000E+00  0.00000000E+00  0.00000000E+00
  0.00000000E+00  0.00000000E+00  0.00000000E+00
  0.00000000E+00  0.00000000E+00  0.00000000E+00
  0.00000000E+00  0.00000000E+00  0.00000000E+00
  0.00000000E+00  0.00000000E+00  0.00000000E+00
  0.00000000E+00  0.00000000E+00  0.00000000E+00
  0.00000000E+00  0.00000000E+00  0.00000000E+00
  0.00000000E+00  0.00000000E+00  0.00000000E+00
  0.00000000E+00  0.00000000E+00  0.00000000E+00
  0.00000000E+00  0.00000000E+00  0.00000000E+00
  0.00000000E+00  0.00000000E+00  0.00000000E+00
  0.00000000E+00  0.00000000E+00  0.00000000E+00
  0.00000000E+00  0.00000000E+00  0.00000000E+00
  0.00000000E+00  0.00000000E+00  0.00000000E+00
  0.00000000E+00  0.00000000E+00  0.00000000E+00
  0.00000000E+00  0.00000000E+00  0.00000000E+00
  0.00000000E+00  0.00000000E+00  0.00000000E+00
  0.00000000E+00  0.00000000E+00  0.00000000E+00
  0.00000000E+00  0.00000000E+00  0.00000000E+00
  0.00000000E+00  0.00000000E+00  0.00000000E+00
  0.00000000E+00  0.00000000E+00  0.00000000E+00
  0.00000000E+00  0.00000000E+00  0.00000000E+00
  0.00000000E+00  0.00000000E+00  0.00000000E+00
  0.00000000E+00  0.00000000E+00  0.00000000E+00
  0.00000000E+00  0.00000000E+00  0.00000000E+00
  0.00000000E+00  0.00000000E+00  0.00000000E+00
  0.00000000E+00  0.00000000E+00  0.00000000E+00
  0.00000000E+00  0.00000000E+00  0.00000000E+00
  0.00000000E+00  0.00000000E+00  0.00000000E+00
  0.00000000E+00  0.00000000E+00  0.00000000E+00
  0.00000000E+00  0.00000000E+00  0.00000000E+00
  0.00000000E+00  0.00000000E+00  0.00000000E+00
  0.00000000E+00  0.00000000E+00  0.00000000E+00
  0.00000000E+00  0.00000000E+00  0.00000000E+00
  0.00000000E+00  0.00000000E+00  0.00000000E+00
  0.00000000E+00  0.00000000E+00  0.00000000E+00
  0.00000000E+00  0.00000000E+00  0.00000000E+00
  0.00000000E+00  0.00000000E+00  0.00000000E+00
  0.00000000E+00  0.00000000E+00  0.00000000E+00
  0.00000000E+00  0.00000000E+00  0.00000000E+00
  0.00000000E+00  0.00000000E+00  0.00000000E+00
  0.00000000E+00  0.00000000E+00  0.00000000E+00
  0.00000000E+00  0.00000000E+00  0.00000000E+00
