TiOF2 2x2x2 config 1000                 
   1.00000000000000     
     7.8526044557467189   -0.0017870744699793    0.0000905377835604
    -0.0018124671993573    7.7925382644836763   -0.0000840903243118
     0.0000610033396933    0.0000731151154040    7.6221525577687901
   Ti   O    F 
     8     8    16
Direct
  0.0001830723153081  0.9789267345970283  0.9999944101920551
  0.0007202190909475  0.0015978732381273  0.4999915843945600
  0.0007901230956447  0.4995138698671946  0.0002401792404910
  0.9828230042468495  0.5000540031026637  0.5002760875375586
  0.5002320602297325  0.0250699920934287  0.0000147938803522
  0.5001951860930729  0.9769340439627492  0.5000140547290227
  0.4997477438753372  0.5029238054211170  0.9997385238094088
  0.5099292221473941  0.4973180254925076  0.4996898895171489
  0.7515166654150104  0.4968285565914767  0.4999960732096192
  0.0001057136214283  0.7592241366493070  0.0000154496261987
  0.5003479061983994  0.2448598767893979  0.0000108815028275
  0.4999639973096022  0.7582087202426974  0.5000067609700435
  0.0020374331549668  0.4992217096017190  0.2476629781747510
  0.0020271728073532  0.4992598833839267  0.7522266596037569
  0.4979243233137376  0.5014365459405884  0.2472157395405561
  0.4979199950430335  0.5014513213967806  0.7529248424670234
  0.2485292213267185  0.0019783054089632  0.0000118736673694
  0.2434704980124500  0.0004059428863227  0.4999911253216756
  0.2493233955926457  0.5017867633900168  0.9999952639140347
  0.2471557589253305  0.4962913807959927  0.4999932414934768
  0.7519108146400170  0.0019913993920977  0.9999930293183270
  0.7575983053595704  0.0009472968999290  0.5000141166958519
  0.7511296366663156  0.5017517928539975  1.0000026493139438
  0.0001965470893313  0.2370951106570371  0.9999602912656873
  0.0023940346090999  0.2381826263801084  0.5000015843075655
  0.0018074037590842  0.7640586033177894  0.4999548325898747
  0.4985969236366305  0.2339667031431017  0.5000278420264568
  0.5003110872968128  0.7654126145811639  0.0000252755394607
  0.9998747175194377  0.0058839254116549  0.2544696063113128
  0.9998996356066538  0.0058351831545472  0.7455143485212500
  0.5006795723874713  0.0007958485988309  0.2506821567658555
  0.5006586096146075  0.0007874047577332  0.7493438545525010
 
  0.00000000E+00  0.00000000E+00  0.00000000E+00
  0.00000000E+00  0.00000000E+00  0.00000000E+00
  0.00000000E+00  0.00000000E+00  0.00000000E+00
  0.00000000E+00  0.00000000E+00  0.00000000E+00
  0.00000000E+00  0.00000000E+00  0.00000000E+00
  0.00000000E+00  0.00000000E+00  0.00000000E+00
  0.00000000E+00  0.00000000E+00  0.00000000E+00
  0.00000000E+00  0.00000000E+00  0.00000000E+00
  0.00000000E+00  0.00000000E+00  0.00000000E+00
  0.00000000E+00  0.00000000E+00  0.00000000E+00
  0.00000000E+00  0.00000000E+00  0.00000000E+00
  0.00000000E+00  0.00000000E+00  0.00000000E+00
  0.00000000E+00  0.00000000E+00  0.00000000E+00
  0.00000000E+00  0.00000000E+00  0.00000000E+00
  0.00000000E+00  0.00000000E+00  0.00000000E+00
  0.00000000E+00  0.00000000E+00  0.00000000E+00
  0.00000000E+00  0.00000000E+00  0.00000000E+00
  0.00000000E+00  0.00000000E+00  0.00000000E+00
  0.00000000E+00  0.00000000E+00  0.00000000E+00
  0.00000000E+00  0.00000000E+00  0.00000000E+00
  0.00000000E+00  0.00000000E+00  0.00000000E+00
  0.00000000E+00  0.00000000E+00  0.00000000E+00
  0.00000000E+00  0.00000000E+00  0.00000000E+00
  0.00000000E+00  0.00000000E+00  0.00000000E+00
  0.00000000E+00  0.00000000E+00  0.00000000E+00
  0.00000000E+00  0.00000000E+00  0.00000000E+00
  0.00000000E+00  0.00000000E+00  0.00000000E+00
  0.00000000E+00  0.00000000E+00  0.00000000E+00
  0.00000000E+00  0.00000000E+00  0.00000000E+00
  0.00000000E+00  0.00000000E+00  0.00000000E+00
  0.00000000E+00  0.00000000E+00  0.00000000E+00
  0.00000000E+00  0.00000000E+00  0.00000000E+00
