TiOF2 2x2x2 config 0006                 
   1.00000000000000     
     7.8982136691027929    0.0011921799529727   -0.0001497174698840
    -0.0011864321269762    7.7952371825209923   -0.0007188416210428
     0.0001616326348483   -0.0003446935298664    7.5308520557273164
   Ti   O    F 
     8     8    16
Direct
  0.9999978716823179  0.0003977620543409  0.9886447336746116
  0.0000095502169728  0.0004339974554597  0.5097155435486158
  0.9999943780986200  0.5000695925288881  0.0137709903383012
  0.0000013317011565  0.5001082162208945  0.5129963765947068
  0.4999928471907893  0.9827386300249046  0.9894175357017900
  0.5000060293751432  0.9828474761147845  0.5101851367507777
  0.4999932032368264  0.5064406241271016  0.9990272210185367
  0.5000014612873898  0.5065721591847137  0.4983266198905270
  0.4999818105246163  0.7553525980579039  0.0027126026771498
  0.5000028869652837  0.7554331386238076  0.4962153471762250
  0.0000292591622326  0.9997370646514980  0.7491529176003340
  0.9999988197108891  0.5007358154273120  0.2500423915707017
  0.9999960967720014  0.5009668762485759  0.7498277879797470
  0.4999842026872230  0.0103947422189847  0.7497770102585477
  0.4999973913285984  0.4979343222955563  0.2486763706341790
  0.4999997526355813  0.4963769671144362  0.7486968132248961
  0.2414943610985603  0.0012040160529452  0.0076817401483140
  0.2415582786123451  0.0012530150287944  0.4917570440797903
  0.2443658375407409  0.4980154984126344  0.9974936525579352
  0.2444438538834675  0.4980651463859260  0.4979377592480034
  0.7584991635489615  0.0011964189726612  0.0076351467250859
  0.7584563172046899  0.0012404162962412  0.4918158318058730
  0.7556232669794980  0.4980276899226368  0.9974980567127005
  0.7555584486085323  0.4980746343444622  0.4979348337404659
  0.9999911273665205  0.2444085439597146  0.0036246973938105
  0.9999984686885810  0.2446390751374423  0.4939810668326459
  0.9999990884042660  0.7560545951146622  0.0037148157865659
  0.0000163427896993  0.7558762676371273  0.4937953859965916
  0.4999917644489926  0.2454047277466742  0.0045375322821499
  0.5000065689772697  0.2454157397553018  0.4944428498038675
  0.9999785518933919  0.9999702210659507  0.2492269838816981
  0.5000316673788703  0.0146140118177058  0.2497372043648696
 
  0.00000000E+00  0.00000000E+00  0.00000000E+00
  0.00000000E+00  0.00000000E+00  0.00000000E+00
  0.00000000E+00  0.00000000E+00  0.00000000E+00
  0.00000000E+00  0.00000000E+00  0.00000000E+00
  0.00000000E+00  0.00000000E+00  0.00000000E+00
  0.00000000E+00  0.00000000E+00  0.00000000E+00
  0.00000000E+00  0.00000000E+00  0.00000000E+00
  0.00000000E+00  0.00000000E+00  0.00000000E+00
  0.00000000E+00  0.00000000E+00  0.00000000E+00
  0.00000000E+00  0.00000000E+00  0.00000000E+00
  0.00000000E+00  0.00000000E+00  0.00000000E+00
  0.00000000E+00  0.00000000E+00  0.00000000E+00
  0.00000000E+00  0.00000000E+00  0.00000000E+00
  0.00000000E+00  0.00000000E+00  0.00000000E+00
  0.00000000E+00  0.00000000E+00  0.00000000E+00
  0.00000000E+00  0.00000000E+00  0.00000000E+00
  0.00000000E+00  0.00000000E+00  0.00000000E+00
  0.00000000E+00  0.00000000E+00  0.00000000E+00
  0.00000000E+00  0.00000000E+00  0.00000000E+00
  0.00000000E+00  0.00000000E+00  0.00000000E+00
  0.00000000E+00  0.00000000E+00  0.00000000E+00
  0.00000000E+00  0.00000000E+00  0.00000000E+00
  0.00000000E+00  0.00000000E+00  0.00000000E+00
  0.00000000E+00  0.00000000E+00  0.00000000E+00
  0.00000000E+00  0.00000000E+00  0.00000000E+00
  0.00000000E+00  0.00000000E+00  0.00000000E+00
  0.00000000E+00  0.00000000E+00  0.00000000E+00
  0.00000000E+00  0.00000000E+00  0.00000000E+00
  0.00000000E+00  0.00000000E+00  0.00000000E+00
  0.00000000E+00  0.00000000E+00  0.00000000E+00
  0.00000000E+00  0.00000000E+00  0.00000000E+00
  0.00000000E+00  0.00000000E+00  0.00000000E+00
