config 05                               
   1.00000000000000     
    15.4263309999999993    0.0000000000000000    0.0000000000000000
     0.0000000000000000   15.4263309999999993    0.0000000000000000
     0.0000000000000000    0.0000000000000000   15.4263309999999993
   Li   Ti   O    F 
     1    64    64   128
Direct
  0.1066330700710584  0.3495036253791833  0.1214555593317660
  0.9954805493266957  0.9927810526748233  0.9944792165604472
  0.9988494721869334  0.9912002411723824  0.4937709314927413
  0.0066978151121267  0.4954173042243805  0.9973855333109793
  0.9952447388057749  0.5039323369906870  0.5063296448537196
  0.4941723429586509  0.9932735465202879  0.0000093733263768
  0.5017368615187503  0.0093591123886716  0.4987711239664747
  0.5049346723364836  0.4955316894382821  0.9966571687045823
  0.4929716575230849  0.4997054839783598  0.4959997554568431
  0.0061150794099138  0.0014936937385077  0.2553097957433343
  0.0022797735493919  0.0073020014009696  0.7574851839091201
  0.9957548441717956  0.4889007450430662  0.2492929650652706
  0.9941649606148839  0.5006081615978762  0.7403599207203606
  0.5044857801851999  0.0094111368586952  0.2504402888163718
  0.4931545859695415  0.0059154178428781  0.7527487031531568
  0.4939008156715827  0.4959440706504038  0.2578432103601192
  0.5022311272680187  0.5040516794619224  0.7592610968680866
  0.9932632000610453  0.2571748547762629  0.0001462832842417
  0.9975515768162717  0.2493202137211274  0.4911203010232780
  0.9981397879728869  0.7565111494093127  0.0065375775349090
  0.9970653837390286  0.7562533809260847  0.5060832111241778
  0.4946906221026297  0.2584728290241832  0.0030809326418806
  0.5097318046135222  0.2464014349919628  0.4983968124250146
  0.5073499635711585  0.7558922131621465  0.9994512217512542
  0.5077209658377538  0.7536079909896730  0.5085747130573813
  0.9976599861584150  0.2565006035108199  0.2539464712999860
  0.0077762716350492  0.2432970005192409  0.7484300245610740
  0.0060425678445486  0.7449028212442359  0.2430463222263077
  0.9933243994110935  0.7498471181072626  0.7423252369500783
  0.5073265767642389  0.2408690348507356  0.2527504851866335
  0.5078158502521203  0.2438674876716917  0.7525198248757244
  0.5061984546519489  0.7506941368788149  0.2520710068487307
  0.5027362834048074  0.7418870512056155  0.7438092145184234
  0.2561280598315012  0.9973600742231735  0.0054123171976468
  0.2516942884150105  0.9933847748705119  0.5053266507059829
  0.2449945972087449  0.5099128993001532  0.9978569623469691
  0.2560193547386362  0.4942751436420671  0.5064197397885549
  0.7564492424766779  0.9995417173217370  0.9937667719303108
  0.7493286486663091  0.0081803647924511  0.4946560840037320
  0.7418637284340028  0.5004068504949718  0.0054869479031658
  0.7567128593570562  0.4983152931484815  0.5058302446971283
  0.2438946333733052  0.0027918584711513  0.2427881348798526
  0.2585258497357594  0.9984288514850604  0.7438190899045187
  0.2562217350945912  0.4927468860980222  0.2525283796059417
  0.2478098616767168  0.5059266663076475  0.7401710404229597
  0.7429695786674216  0.0016183257602775  0.2555712580545978
  0.7475060864139565  0.0074936012588846  0.7558485322858978
  0.7573099791688562  0.4968703309650168  0.2428887651135547
  0.7586440531178125  0.4984591878480501  0.7428564480786175
  0.2567746979971886  0.2529193961025125  0.0066938739755829
  0.2533079178612118  0.2574848544398989  0.5053927510401864
  0.2521854184167783  0.7424467929221454  0.9939645830069936
  0.2528665987843727  0.7552671417018172  0.4921374318257518
  0.7552387456654635  0.2520391076836562  0.0090295218836548
  0.7425839937020735  0.2430915261221041  0.4983334699489706
  0.7415084000341250  0.7478540379457819  0.9938060654478730
  0.7418192112383187  0.7527666837182927  0.4938246456292698
  0.2496372202296846  0.2591864170101474  0.2448477080342781
  0.2441938580998959  0.2531163807874922  0.7442777219208426
  0.2432267775295592  0.7472630750606727  0.2555028687643485
  0.2482327206449411  0.7413963008456007  0.7558152197522212
  0.7405120500909751  0.2508709652601712  0.2429424871802534
  0.7446134435182309  0.2428374230056914  0.7523507968345386
  0.7452477480063143  0.7485434075448267  0.2569653630412509
  0.7581721075587037  0.7500742955919807  0.7565653919438980
  0.0109184320464700  0.5128331622552046  0.6239757759989827
  0.9990947594532782  0.9965162154692887  0.3754078560035659
  0.0042956085212350  0.9929743904371403  0.8730521946578554
  0.4976245816772755  0.4893524256816809  0.3757119908797710
  0.4927205228048845  0.4928347018587763  0.8753383319275588
  0.0000045416180230  0.7378418395889088  0.1251215217694232
  0.0047317698055124  0.7384847790149548  0.6237691747608443
  0.5058679005482606  0.7470036259073543  0.6244404357922594
  0.9841170991931822  0.2582568730242397  0.3804576366100104
  0.2566521339383349  0.9949830861685409  0.1247808785627699
  0.2599800667056139  0.9993904555910846  0.6245040457564198
  0.2390912158255898  0.4898104156827025  0.6255539361254847
  0.7477757605698738  0.4881125586834845  0.1252621261763718
  0.7462417374382345  0.4906214969696925  0.6246229869685678
  0.7460457314747445  0.0043539670886164  0.3759482975151467
  0.7417920496496996  0.0040097324550894  0.8736197043003365
  0.2282166082814160  0.2649762156428372  0.1251722153360871
  0.2442487096668191  0.2555199807964250  0.6254025356431948
  0.7321108178882321  0.2605554422763391  0.1259667700991483
  0.2562237330347785  0.7417370020940631  0.3742934068320916
  0.2543389663166903  0.7449055169008866  0.8752419428490444
  0.7538870360439274  0.7461921931874980  0.3742485772717589
  0.7519017904946405  0.7459133292054773  0.8755688208555866
  0.1248398442223494  0.5110342851488898  0.9933369186670706
  0.6256945688157384  0.5123195770550012  0.9966765547014749
  0.1246075750709002  0.0108712287247989  0.2477015819579141
  0.6236393657692352  0.0114912367730703  0.2465119126171497
  0.6246239922084622  0.2635056294630485  0.4858704264143711
  0.6240426157762821  0.7350548971965866  0.9995746126028298
  0.6248038624075334  0.7683929935177178  0.4934535319760709
  0.1256663151715241  0.2549300479217065  0.7597241840139842
  0.1247841864399233  0.7406727440717737  0.2535245872552567
  0.6239693755231714  0.2357041862135446  0.2679136291452069
  0.6261288145340161  0.2556231089546942  0.7610808329611964
  0.6221565602444645  0.7422913334707054  0.2534353732906512
  0.3755650145757041  0.9926067628036289  0.9899047848250385
  0.3768965130733244  0.5110076793288852  0.5069575516745425
  0.8724577582636408  0.9928342523287474  0.9961500023161534
  0.8761586915371224  0.5101016880645735  0.5011504680604721
  0.3764227519563388  0.9999687111104513  0.7610182238217671
  0.3743206127187558  0.4885018059562218  0.2458095726460783
  0.8758098637777806  0.4839358050617422  0.2490892567930001
  0.8765488068206105  0.5108763480690649  0.7450159482541464
  0.3745074295330849  0.2557760456339764  0.0159331172068517
  0.8739905942154436  0.2591635748674350  0.0142181500633221
  0.8752072368888718  0.7408997418447747  0.7459043199730364
  0.5161849165643588  0.1230576526209355  0.4896970880624785
  0.0001083140616854  0.1265539943798976  0.7563864580171936
  0.4853605106385653  0.1248361330553321  0.2658344629795489
  0.5043283959049893  0.1244430046576896  0.7554350819540682
  0.5050778960795284  0.6253370264071029  0.7552304818228494
  0.0153260890875120  0.3750737395452829  0.0190716741899047
  0.0086449353692921  0.8735933795975002  0.0080748012040928
  0.9860386662730961  0.8745402581630254  0.5065400997567788
  0.5089577969312382  0.3737379834492281  0.0113634670299779
  0.5103181240255817  0.8748884054817322  0.0094347332522938
  0.0240974200607605  0.3764068865404086  0.2258935723975643
  0.2623275672054844  0.6255165977808190  0.0108721421226868
  0.7338025667015865  0.1254939775015673  0.5076836623251826
  0.2449801683343957  0.6248149590492574  0.7428657049358129
  0.7478724230091167  0.1254493463031909  0.7408621610367360
  0.2609863179656815  0.3736757528388452  0.4901639781465465
  0.2620987039242157  0.8759039897161275  0.4944241122370004
  0.2353189755394808  0.3755271582912836  0.2620192027011551
  0.9950534116673556  0.0087367477338335  0.1258459540778578
  0.9993435478660623  0.0062902605147772  0.6237137981422766
  0.0027196013938836  0.5184887982530990  0.1239869113232528
  0.4891071308890624  0.0121608670669727  0.1261973385197983
  0.4917334244800988  0.0049239590933083  0.6228168001348461
  0.5033146413282383  0.5108393312797656  0.1277065973222481
  0.5115751391081573  0.5049222389707704  0.6247862612892194
  0.0011324717716421  0.4830559314116950  0.3751232015858905
  0.9947803662957582  0.4855290392281553  0.8730103622725520
  0.5078286984921475  0.9840325589931940  0.3764751983571140
  0.5181668467486654  0.9925774899081911  0.8752560374483948
  0.0235477985459213  0.2392586831894780  0.1220003572426876
  0.0113786853696276  0.2458457822507945  0.6233766281749036
  0.5160760644878654  0.2341216229908086  0.1272226410782915
  0.5120093113098300  0.2418759162942890  0.6237407159670812
  0.4978527635070578  0.7393448577043851  0.1268866824545347
  0.9858685729339208  0.2652350422534698  0.8739873897202373
  0.9921204471264379  0.7568999386545823  0.3746580677967702
  0.9980257185117027  0.7571569742529651  0.8737103643387829
  0.4827523101399430  0.2648056271130083  0.3760148728905676
  0.4875307651030071  0.2589012316931564  0.8759600049126431
  0.4905563196706146  0.7612621249517411  0.3755288254802760
  0.4952479229700050  0.7581116716329229  0.8741880610207644
  0.2379128213357337  0.4847183751232099  0.1247364249137361
  0.7514959740054618  0.9969307376759492  0.1262470337422774
  0.7520242441378904  0.9918673509443313  0.6229622263833996
  0.2485991128683412  0.0076933031328714  0.3746288770935279
  0.2401422036148669  0.0017202168349137  0.8743494699515587
  0.2527412995396343  0.5163410614271282  0.3753423300273488
  0.2618441755630416  0.5068940366612394  0.8738480647651268
  0.7498399522739279  0.5086596852857750  0.3747299306179017
  0.7556574209406215  0.5097492689811223  0.8747512785375142
  0.2479001710938508  0.7606688706258544  0.1247653487358746
  0.2468480063244411  0.7567678507363438  0.6246486774776638
  0.7393559750028299  0.2640533506372085  0.6243451563337573
  0.7483799520854640  0.7529666173723765  0.1258039668547953
  0.7450041766783657  0.7538355270973031  0.6243467724169233
  0.2658678620157981  0.2404624109322678  0.3738806707862874
  0.2622350684244545  0.2463317302700920  0.8765037200920254
  0.7660380363850929  0.2404705553993676  0.3749871608740621
  0.7628317652208446  0.2406854965290586  0.8772986151045273
  0.1253683095082886  0.0094816023891325  0.0050376534758030
  0.1252714057775385  0.9902304649518356  0.5029111903541292
  0.1246850524095779  0.4927927383504209  0.4897718133250756
  0.6242376832406695  0.0100089055099822  0.0106302076167997
  0.6236553102691084  0.9793180376394354  0.5072591019148593
  0.6265531486219850  0.4870078541387897  0.4957287321103004
  0.1274113440584621  0.9980024038420018  0.7420421181882979
  0.1252953609972687  0.5165027914176802  0.2522706072309780
  0.1243303194090277  0.4912542303742499  0.7634805537314536
  0.6235511421949236  0.9928322060894991  0.7364147440400034
  0.6247846232241074  0.5103619700786521  0.2520999779017689
  0.6278005125165800  0.4905741148918978  0.7584022843950402
  0.1246434615312706  0.2449653768949966  0.9850398294388782
  0.1253002781571460  0.2571124548547933  0.4881597440937022
  0.1246160626871052  0.7365258387231686  0.9970379477875947
  0.1244319471588592  0.7606809571176868  0.4934377744559073
  0.6255008699794743  0.2417284446519466  0.9866257216920507
  0.1287104677845176  0.2323816400063034  0.2674220915807070
  0.1236611607350699  0.7570370343318091  0.7538505216297239
  0.6266866689977343  0.7576366073774885  0.7544453284025016
  0.3780450534570302  0.0159304236858834  0.4890465024651753
  0.3727737522567832  0.4885879414190441  0.0103581404642176
  0.8743370741111262  0.0174947366862634  0.5023152718394245
  0.8757507356312136  0.4880452959988212  0.0011956568947590
  0.3763479197420096  0.9879981294519211  0.2588445181320740
  0.3758736964484753  0.5020136931834909  0.7387731125313811
  0.8724540810405303  0.9898577209576530  0.2502240710404641
  0.8743414713872489  0.9980723252803817  0.7479325307321392
  0.3798234239241334  0.2352798377191861  0.5097450997524167
  0.3759348326851162  0.7639489849197602  0.0042837226539632
  0.3778644943203324  0.7370404971872972  0.5045193189113760
  0.8724769595984061  0.2391175032991177  0.5169302212277088
  0.8716599309529938  0.7618259017516656  0.0022878279033100
  0.8722997691077146  0.7348090441228068  0.5053400221842154
  0.3770238226625580  0.2636123672090385  0.2349156130740110
  0.3772336802310129  0.2479922345288516  0.7420223616880638
  0.3762492055767249  0.7583860298240347  0.2449702869151108
  0.3754759210993429  0.7512611298228326  0.7454088752801210
  0.8671015136958550  0.2675284867961287  0.2375154887073599
  0.8746820160865982  0.2513064952433103  0.7388169701657032
  0.8729758769387769  0.7587652263488580  0.2463069552509203
  0.9938292702937834  0.1280809754110477  0.9918609863242196
  0.0095685784575662  0.1244249237030243  0.4983338368701624
  0.9864471246396861  0.6240846120393151  0.9866997441451071
  0.0108281536395564  0.6265729602777612  0.4831315904756851
  0.4956804956904664  0.1246968949295329  0.9917708933520801
  0.4838297746808327  0.6269823939104133  0.9951491123035228
  0.5149069684073310  0.6271272534552071  0.4906651144410267
  0.9830915975779231  0.1261699300061074  0.2531769310960881
  0.9876507627476654  0.6217470687696881  0.2630501656642548
  0.0131916567992424  0.6246251107863423  0.7641153892999057
  0.4890452180837959  0.6261069968140679  0.2614446229865232
  0.9928343025034183  0.3750581317931550  0.5127723887470097
  0.4877228110573105  0.3718675490137272  0.5120826195620964
  0.4826613957983446  0.8789600238501127  0.5057494464136942
  0.9945270959142181  0.3753098448322608  0.7380520906311104
  0.0058472803402113  0.8744641842319606  0.2423328952127907
  0.9969497682813178  0.8753708557627545  0.7390383416102648
  0.5127120773286189  0.3713592680697086  0.2391560034569627
  0.4958917838664703  0.3737815140484708  0.7400305693291781
  0.5067673725732361  0.8758778841968045  0.2396271249832131
  0.4996172100441764  0.8756851009593821  0.7462468054147353
  0.2536487867629362  0.1256106985748292  0.0038786705338542
  0.2411487050370586  0.1247278955271577  0.5010256629598437
  0.2398412151151685  0.6268995918335666  0.5090672297439206
  0.7545704951133517  0.1261930668586132  0.0088193524386483
  0.7674716553462605  0.6248303973541046  0.0092499128837601
  0.7355012586520044  0.6256537438204748  0.5058520447787114
  0.2659492513725463  0.1273935667067120  0.2422085937932117
  0.2493545400111854  0.1254050167539678  0.7516532519425441
  0.2607957570099233  0.6237605323918506  0.2349557721687650
  0.7657363250354425  0.1263185767661313  0.2425377190008937
  0.7605082945701952  0.6242505677391875  0.2422204776366954
  0.7369160497866718  0.6248950836370375  0.7426914730591822
  0.2392594242437607  0.3770313458785090  0.9899982998420970
  0.2367212744066634  0.8735546977443204  0.9954061461788777
  0.7391001423012188  0.3745597700482989  0.9842187262182858
  0.7639640478158883  0.3724022446411940  0.4887923905741691
  0.7350726992181101  0.8743047809767618  0.0007451455802285
  0.7676693756717939  0.8767401812564871  0.4975027534994230
  0.2582350981848479  0.3768812953280751  0.7625829790084245
  0.2428211447439673  0.8756768590426129  0.2574619636043110
  0.2501993259205118  0.8738151419339323  0.7524328384246074
  0.7321685413234515  0.3743035938823510  0.2671756434927664
  0.7591936133886713  0.3742373424505360  0.7619505372705916
  0.7396198998740856  0.8750318235766179  0.2506624633851394
  0.7543198254404458  0.8753633012244795  0.7504100060227987
 
  0.00000000E+00  0.00000000E+00  0.00000000E+00
  0.00000000E+00  0.00000000E+00  0.00000000E+00
  0.00000000E+00  0.00000000E+00  0.00000000E+00
  0.00000000E+00  0.00000000E+00  0.00000000E+00
  0.00000000E+00  0.00000000E+00  0.00000000E+00
  0.00000000E+00  0.00000000E+00  0.00000000E+00
  0.00000000E+00  0.00000000E+00  0.00000000E+00
  0.00000000E+00  0.00000000E+00  0.00000000E+00
  0.00000000E+00  0.00000000E+00  0.00000000E+00
  0.00000000E+00  0.00000000E+00  0.00000000E+00
  0.00000000E+00  0.00000000E+00  0.00000000E+00
  0.00000000E+00  0.00000000E+00  0.00000000E+00
  0.00000000E+00  0.00000000E+00  0.00000000E+00
  0.00000000E+00  0.00000000E+00  0.00000000E+00
  0.00000000E+00  0.00000000E+00  0.00000000E+00
  0.00000000E+00  0.00000000E+00  0.00000000E+00
  0.00000000E+00  0.00000000E+00  0.00000000E+00
  0.00000000E+00  0.00000000E+00  0.00000000E+00
  0.00000000E+00  0.00000000E+00  0.00000000E+00
  0.00000000E+00  0.00000000E+00  0.00000000E+00
  0.00000000E+00  0.00000000E+00  0.00000000E+00
  0.00000000E+00  0.00000000E+00  0.00000000E+00
  0.00000000E+00  0.00000000E+00  0.00000000E+00
  0.00000000E+00  0.00000000E+00  0.00000000E+00
  0.00000000E+00  0.00000000E+00  0.00000000E+00
  0.00000000E+00  0.00000000E+00  0.00000000E+00
  0.00000000E+00  0.00000000E+00  0.00000000E+00
  0.00000000E+00  0.00000000E+00  0.00000000E+00
  0.00000000E+00  0.00000000E+00  0.00000000E+00
  0.00000000E+00  0.00000000E+00  0.00000000E+00
  0.00000000E+00  0.00000000E+00  0.00000000E+00
  0.00000000E+00  0.00000000E+00  0.00000000E+00
  0.00000000E+00  0.00000000E+00  0.00000000E+00
  0.00000000E+00  0.00000000E+00  0.00000000E+00
  0.00000000E+00  0.00000000E+00  0.00000000E+00
  0.00000000E+00  0.00000000E+00  0.00000000E+00
  0.00000000E+00  0.00000000E+00  0.00000000E+00
  0.00000000E+00  0.00000000E+00  0.00000000E+00
  0.00000000E+00  0.00000000E+00  0.00000000E+00
  0.00000000E+00  0.00000000E+00  0.00000000E+00
  0.00000000E+00  0.00000000E+00  0.00000000E+00
  0.00000000E+00  0.00000000E+00  0.00000000E+00
  0.00000000E+00  0.00000000E+00  0.00000000E+00
  0.00000000E+00  0.00000000E+00  0.00000000E+00
  0.00000000E+00  0.00000000E+00  0.00000000E+00
  0.00000000E+00  0.00000000E+00  0.00000000E+00
  0.00000000E+00  0.00000000E+00  0.00000000E+00
  0.00000000E+00  0.00000000E+00  0.00000000E+00
  0.00000000E+00  0.00000000E+00  0.00000000E+00
  0.00000000E+00  0.00000000E+00  0.00000000E+00
  0.00000000E+00  0.00000000E+00  0.00000000E+00
  0.00000000E+00  0.00000000E+00  0.00000000E+00
  0.00000000E+00  0.00000000E+00  0.00000000E+00
  0.00000000E+00  0.00000000E+00  0.00000000E+00
  0.00000000E+00  0.00000000E+00  0.00000000E+00
  0.00000000E+00  0.00000000E+00  0.00000000E+00
  0.00000000E+00  0.00000000E+00  0.00000000E+00
  0.00000000E+00  0.00000000E+00  0.00000000E+00
  0.00000000E+00  0.00000000E+00  0.00000000E+00
  0.00000000E+00  0.00000000E+00  0.00000000E+00
  0.00000000E+00  0.00000000E+00  0.00000000E+00
  0.00000000E+00  0.00000000E+00  0.00000000E+00
  0.00000000E+00  0.00000000E+00  0.00000000E+00
  0.00000000E+00  0.00000000E+00  0.00000000E+00
  0.00000000E+00  0.00000000E+00  0.00000000E+00
  0.00000000E+00  0.00000000E+00  0.00000000E+00
  0.00000000E+00  0.00000000E+00  0.00000000E+00
  0.00000000E+00  0.00000000E+00  0.00000000E+00
  0.00000000E+00  0.00000000E+00  0.00000000E+00
  0.00000000E+00  0.00000000E+00  0.00000000E+00
  0.00000000E+00  0.00000000E+00  0.00000000E+00
  0.00000000E+00  0.00000000E+00  0.00000000E+00
  0.00000000E+00  0.00000000E+00  0.00000000E+00
  0.00000000E+00  0.00000000E+00  0.00000000E+00
  0.00000000E+00  0.00000000E+00  0.00000000E+00
  0.00000000E+00  0.00000000E+00  0.00000000E+00
  0.00000000E+00  0.00000000E+00  0.00000000E+00
  0.00000000E+00  0.00000000E+00  0.00000000E+00
  0.00000000E+00  0.00000000E+00  0.00000000E+00
  0.00000000E+00  0.00000000E+00  0.00000000E+00
  0.00000000E+00  0.00000000E+00  0.00000000E+00
  0.00000000E+00  0.00000000E+00  0.00000000E+00
  0.00000000E+00  0.00000000E+00  0.00000000E+00
  0.00000000E+00  0.00000000E+00  0.00000000E+00
  0.00000000E+00  0.00000000E+00  0.00000000E+00
  0.00000000E+00  0.00000000E+00  0.00000000E+00
  0.00000000E+00  0.00000000E+00  0.00000000E+00
  0.00000000E+00  0.00000000E+00  0.00000000E+00
  0.00000000E+00  0.00000000E+00  0.00000000E+00
  0.00000000E+00  0.00000000E+00  0.00000000E+00
  0.00000000E+00  0.00000000E+00  0.00000000E+00
  0.00000000E+00  0.00000000E+00  0.00000000E+00
  0.00000000E+00  0.00000000E+00  0.00000000E+00
  0.00000000E+00  0.00000000E+00  0.00000000E+00
  0.00000000E+00  0.00000000E+00  0.00000000E+00
  0.00000000E+00  0.00000000E+00  0.00000000E+00
  0.00000000E+00  0.00000000E+00  0.00000000E+00
  0.00000000E+00  0.00000000E+00  0.00000000E+00
  0.00000000E+00  0.00000000E+00  0.00000000E+00
  0.00000000E+00  0.00000000E+00  0.00000000E+00
  0.00000000E+00  0.00000000E+00  0.00000000E+00
  0.00000000E+00  0.00000000E+00  0.00000000E+00
  0.00000000E+00  0.00000000E+00  0.00000000E+00
  0.00000000E+00  0.00000000E+00  0.00000000E+00
  0.00000000E+00  0.00000000E+00  0.00000000E+00
  0.00000000E+00  0.00000000E+00  0.00000000E+00
  0.00000000E+00  0.00000000E+00  0.00000000E+00
  0.00000000E+00  0.00000000E+00  0.00000000E+00
  0.00000000E+00  0.00000000E+00  0.00000000E+00
  0.00000000E+00  0.00000000E+00  0.00000000E+00
  0.00000000E+00  0.00000000E+00  0.00000000E+00
  0.00000000E+00  0.00000000E+00  0.00000000E+00
  0.00000000E+00  0.00000000E+00  0.00000000E+00
  0.00000000E+00  0.00000000E+00  0.00000000E+00
  0.00000000E+00  0.00000000E+00  0.00000000E+00
  0.00000000E+00  0.00000000E+00  0.00000000E+00
  0.00000000E+00  0.00000000E+00  0.00000000E+00
  0.00000000E+00  0.00000000E+00  0.00000000E+00
  0.00000000E+00  0.00000000E+00  0.00000000E+00
  0.00000000E+00  0.00000000E+00  0.00000000E+00
  0.00000000E+00  0.00000000E+00  0.00000000E+00
  0.00000000E+00  0.00000000E+00  0.00000000E+00
  0.00000000E+00  0.00000000E+00  0.00000000E+00
  0.00000000E+00  0.00000000E+00  0.00000000E+00
  0.00000000E+00  0.00000000E+00  0.00000000E+00
  0.00000000E+00  0.00000000E+00  0.00000000E+00
  0.00000000E+00  0.00000000E+00  0.00000000E+00
  0.00000000E+00  0.00000000E+00  0.00000000E+00
  0.00000000E+00  0.00000000E+00  0.00000000E+00
  0.00000000E+00  0.00000000E+00  0.00000000E+00
  0.00000000E+00  0.00000000E+00  0.00000000E+00
  0.00000000E+00  0.00000000E+00  0.00000000E+00
  0.00000000E+00  0.00000000E+00  0.00000000E+00
  0.00000000E+00  0.00000000E+00  0.00000000E+00
  0.00000000E+00  0.00000000E+00  0.00000000E+00
  0.00000000E+00  0.00000000E+00  0.00000000E+00
  0.00000000E+00  0.00000000E+00  0.00000000E+00
  0.00000000E+00  0.00000000E+00  0.00000000E+00
  0.00000000E+00  0.00000000E+00  0.00000000E+00
  0.00000000E+00  0.00000000E+00  0.00000000E+00
  0.00000000E+00  0.00000000E+00  0.00000000E+00
  0.00000000E+00  0.00000000E+00  0.00000000E+00
  0.00000000E+00  0.00000000E+00  0.00000000E+00
  0.00000000E+00  0.00000000E+00  0.00000000E+00
  0.00000000E+00  0.00000000E+00  0.00000000E+00
  0.00000000E+00  0.00000000E+00  0.00000000E+00
  0.00000000E+00  0.00000000E+00  0.00000000E+00
  0.00000000E+00  0.00000000E+00  0.00000000E+00
  0.00000000E+00  0.00000000E+00  0.00000000E+00
  0.00000000E+00  0.00000000E+00  0.00000000E+00
  0.00000000E+00  0.00000000E+00  0.00000000E+00
  0.00000000E+00  0.00000000E+00  0.00000000E+00
  0.00000000E+00  0.00000000E+00  0.00000000E+00
  0.00000000E+00  0.00000000E+00  0.00000000E+00
  0.00000000E+00  0.00000000E+00  0.00000000E+00
  0.00000000E+00  0.00000000E+00  0.00000000E+00
  0.00000000E+00  0.00000000E+00  0.00000000E+00
  0.00000000E+00  0.00000000E+00  0.00000000E+00
  0.00000000E+00  0.00000000E+00  0.00000000E+00
  0.00000000E+00  0.00000000E+00  0.00000000E+00
  0.00000000E+00  0.00000000E+00  0.00000000E+00
  0.00000000E+00  0.00000000E+00  0.00000000E+00
  0.00000000E+00  0.00000000E+00  0.00000000E+00
  0.00000000E+00  0.00000000E+00  0.00000000E+00
  0.00000000E+00  0.00000000E+00  0.00000000E+00
  0.00000000E+00  0.00000000E+00  0.00000000E+00
  0.00000000E+00  0.00000000E+00  0.00000000E+00
  0.00000000E+00  0.00000000E+00  0.00000000E+00
  0.00000000E+00  0.00000000E+00  0.00000000E+00
  0.00000000E+00  0.00000000E+00  0.00000000E+00
  0.00000000E+00  0.00000000E+00  0.00000000E+00
  0.00000000E+00  0.00000000E+00  0.00000000E+00
  0.00000000E+00  0.00000000E+00  0.00000000E+00
  0.00000000E+00  0.00000000E+00  0.00000000E+00
  0.00000000E+00  0.00000000E+00  0.00000000E+00
  0.00000000E+00  0.00000000E+00  0.00000000E+00
  0.00000000E+00  0.00000000E+00  0.00000000E+00
  0.00000000E+00  0.00000000E+00  0.00000000E+00
  0.00000000E+00  0.00000000E+00  0.00000000E+00
  0.00000000E+00  0.00000000E+00  0.00000000E+00
  0.00000000E+00  0.00000000E+00  0.00000000E+00
  0.00000000E+00  0.00000000E+00  0.00000000E+00
  0.00000000E+00  0.00000000E+00  0.00000000E+00
  0.00000000E+00  0.00000000E+00  0.00000000E+00
  0.00000000E+00  0.00000000E+00  0.00000000E+00
  0.00000000E+00  0.00000000E+00  0.00000000E+00
  0.00000000E+00  0.00000000E+00  0.00000000E+00
  0.00000000E+00  0.00000000E+00  0.00000000E+00
  0.00000000E+00  0.00000000E+00  0.00000000E+00
  0.00000000E+00  0.00000000E+00  0.00000000E+00
  0.00000000E+00  0.00000000E+00  0.00000000E+00
  0.00000000E+00  0.00000000E+00  0.00000000E+00
  0.00000000E+00  0.00000000E+00  0.00000000E+00
  0.00000000E+00  0.00000000E+00  0.00000000E+00
  0.00000000E+00  0.00000000E+00  0.00000000E+00
  0.00000000E+00  0.00000000E+00  0.00000000E+00
  0.00000000E+00  0.00000000E+00  0.00000000E+00
  0.00000000E+00  0.00000000E+00  0.00000000E+00
  0.00000000E+00  0.00000000E+00  0.00000000E+00
  0.00000000E+00  0.00000000E+00  0.00000000E+00
  0.00000000E+00  0.00000000E+00  0.00000000E+00
  0.00000000E+00  0.00000000E+00  0.00000000E+00
  0.00000000E+00  0.00000000E+00  0.00000000E+00
  0.00000000E+00  0.00000000E+00  0.00000000E+00
  0.00000000E+00  0.00000000E+00  0.00000000E+00
  0.00000000E+00  0.00000000E+00  0.00000000E+00
  0.00000000E+00  0.00000000E+00  0.00000000E+00
  0.00000000E+00  0.00000000E+00  0.00000000E+00
  0.00000000E+00  0.00000000E+00  0.00000000E+00
  0.00000000E+00  0.00000000E+00  0.00000000E+00
  0.00000000E+00  0.00000000E+00  0.00000000E+00
  0.00000000E+00  0.00000000E+00  0.00000000E+00
  0.00000000E+00  0.00000000E+00  0.00000000E+00
  0.00000000E+00  0.00000000E+00  0.00000000E+00
  0.00000000E+00  0.00000000E+00  0.00000000E+00
  0.00000000E+00  0.00000000E+00  0.00000000E+00
  0.00000000E+00  0.00000000E+00  0.00000000E+00
  0.00000000E+00  0.00000000E+00  0.00000000E+00
  0.00000000E+00  0.00000000E+00  0.00000000E+00
  0.00000000E+00  0.00000000E+00  0.00000000E+00
  0.00000000E+00  0.00000000E+00  0.00000000E+00
  0.00000000E+00  0.00000000E+00  0.00000000E+00
  0.00000000E+00  0.00000000E+00  0.00000000E+00
  0.00000000E+00  0.00000000E+00  0.00000000E+00
  0.00000000E+00  0.00000000E+00  0.00000000E+00
  0.00000000E+00  0.00000000E+00  0.00000000E+00
  0.00000000E+00  0.00000000E+00  0.00000000E+00
  0.00000000E+00  0.00000000E+00  0.00000000E+00
  0.00000000E+00  0.00000000E+00  0.00000000E+00
  0.00000000E+00  0.00000000E+00  0.00000000E+00
  0.00000000E+00  0.00000000E+00  0.00000000E+00
  0.00000000E+00  0.00000000E+00  0.00000000E+00
  0.00000000E+00  0.00000000E+00  0.00000000E+00
  0.00000000E+00  0.00000000E+00  0.00000000E+00
  0.00000000E+00  0.00000000E+00  0.00000000E+00
  0.00000000E+00  0.00000000E+00  0.00000000E+00
  0.00000000E+00  0.00000000E+00  0.00000000E+00
  0.00000000E+00  0.00000000E+00  0.00000000E+00
  0.00000000E+00  0.00000000E+00  0.00000000E+00
  0.00000000E+00  0.00000000E+00  0.00000000E+00
  0.00000000E+00  0.00000000E+00  0.00000000E+00
  0.00000000E+00  0.00000000E+00  0.00000000E+00
  0.00000000E+00  0.00000000E+00  0.00000000E+00
  0.00000000E+00  0.00000000E+00  0.00000000E+00
  0.00000000E+00  0.00000000E+00  0.00000000E+00
  0.00000000E+00  0.00000000E+00  0.00000000E+00
  0.00000000E+00  0.00000000E+00  0.00000000E+00
  0.00000000E+00  0.00000000E+00  0.00000000E+00
  0.00000000E+00  0.00000000E+00  0.00000000E+00
  0.00000000E+00  0.00000000E+00  0.00000000E+00
  0.00000000E+00  0.00000000E+00  0.00000000E+00
  0.00000000E+00  0.00000000E+00  0.00000000E+00
  0.00000000E+00  0.00000000E+00  0.00000000E+00
  0.00000000E+00  0.00000000E+00  0.00000000E+00
  0.00000000E+00  0.00000000E+00  0.00000000E+00
  0.00000000E+00  0.00000000E+00  0.00000000E+00
  0.00000000E+00  0.00000000E+00  0.00000000E+00
