TiOF2 2x2x2 config 2652                 
   1.00000000000000     
     7.7876701044709309   -0.0002871006811645   -0.0009786748533178
    -0.0003197435663345    7.6758191543207142   -0.0020050170951140
    -0.0009641031809210   -0.0019905878531598    7.7375285630529147
   Ti   O    F 
     8     8    16
Direct
  0.9779695448604203  0.0007168791135908  0.0007281680299848
  0.9997688755813003  0.9807808317204175  0.5005191878144544
  0.0003551983214957  0.5000293615571807  0.9790689338402755
  0.0175991848967339  0.5020916084427210  0.5031892705306092
  0.4988841072407208  0.0003073296749367  0.0014872911304499
  0.4997609951135764  0.0008538439532738  0.4812731754994494
  0.5002580030117151  0.5004113457077398  0.0080877801013988
  0.4918425103726970  0.5001280468209428  0.4840121895346796
  0.2488881868078061  0.4980257364849512  0.4990810900413690
  0.7565615458965882  0.9998604611497288  0.9983837247398822
  0.9988101796178709  0.7543765531773231  0.4978863167081747
  0.4977547538380010  0.2502139962100218  0.9977538604751687
  0.4978343884457219  0.7501324250879682  0.9980095361577869
  0.9988958977874498  0.4981275075885715  0.7523523198696519
  0.4967869590609882  1.0001587824918583  0.2577400167978831
  0.5027806054255528  0.5004246335698809  0.2551233529150413
  0.2382918413346042  0.9995913621655715  0.9974410552552391
  0.2477282596167724  0.0055495376570922  0.5040477949409564
  0.2438491381095437  0.5007448141971587  0.0032926903891270
  0.7521128447370656  0.0046517368415916  0.5039809490809178
  0.7569183718220992  0.5006832181231793  0.0031527673283256
  0.7526874011232768  0.4974053844069591  0.5004497534804188
  0.0055921423338305  0.2505479680473593  0.0065761706845546
  0.9962267316140081  0.2436140175396976  0.4965893538337610
  0.0053327325996105  0.7503346069109645  0.0069052688589720
  0.5057456586363560  0.2481168152699298  0.5140615740866873
  0.5062380945302443  0.7529645518322943  0.5132632342206506
  0.0039677238751037  0.0054314121025006  0.2518778887437134
  0.0036395004884511  0.0059700656540279  0.7494975697397064
  0.9963804021452756  0.4972965435055134  0.2458116238522091
  0.4956077430578396  0.9996803064693477  0.7418256903406542
  0.5049304776971941  0.5007783165257089  0.7465304009778176
 
  0.00000000E+00  0.00000000E+00  0.00000000E+00
  0.00000000E+00  0.00000000E+00  0.00000000E+00
  0.00000000E+00  0.00000000E+00  0.00000000E+00
  0.00000000E+00  0.00000000E+00  0.00000000E+00
  0.00000000E+00  0.00000000E+00  0.00000000E+00
  0.00000000E+00  0.00000000E+00  0.00000000E+00
  0.00000000E+00  0.00000000E+00  0.00000000E+00
  0.00000000E+00  0.00000000E+00  0.00000000E+00
  0.00000000E+00  0.00000000E+00  0.00000000E+00
  0.00000000E+00  0.00000000E+00  0.00000000E+00
  0.00000000E+00  0.00000000E+00  0.00000000E+00
  0.00000000E+00  0.00000000E+00  0.00000000E+00
  0.00000000E+00  0.00000000E+00  0.00000000E+00
  0.00000000E+00  0.00000000E+00  0.00000000E+00
  0.00000000E+00  0.00000000E+00  0.00000000E+00
  0.00000000E+00  0.00000000E+00  0.00000000E+00
  0.00000000E+00  0.00000000E+00  0.00000000E+00
  0.00000000E+00  0.00000000E+00  0.00000000E+00
  0.00000000E+00  0.00000000E+00  0.00000000E+00
  0.00000000E+00  0.00000000E+00  0.00000000E+00
  0.00000000E+00  0.00000000E+00  0.00000000E+00
  0.00000000E+00  0.00000000E+00  0.00000000E+00
  0.00000000E+00  0.00000000E+00  0.00000000E+00
  0.00000000E+00  0.00000000E+00  0.00000000E+00
  0.00000000E+00  0.00000000E+00  0.00000000E+00
  0.00000000E+00  0.00000000E+00  0.00000000E+00
  0.00000000E+00  0.00000000E+00  0.00000000E+00
  0.00000000E+00  0.00000000E+00  0.00000000E+00
  0.00000000E+00  0.00000000E+00  0.00000000E+00
  0.00000000E+00  0.00000000E+00  0.00000000E+00
  0.00000000E+00  0.00000000E+00  0.00000000E+00
  0.00000000E+00  0.00000000E+00  0.00000000E+00
