Ti27 O27 F54                            
   1.00000000000000     
    11.5903268006810816    0.0036529188015961    0.0054656053203152
     0.0035613166101815   11.5906371849343799    0.0004108828989685
     0.0053616832938065    0.0004465270488359   11.5811747609332567
   Ti   O    F 
    27    27    54
Direct
  0.0114934930890485  0.0106988555768552  0.0009182452186280
  0.9990854107011415  0.0000115662865028  0.3454137065793006
  0.0113222459433331  0.9998213308668298  0.6614115245222081
  0.9888966114526880  0.3225526669926992  0.9998477285122576
  0.0004698536263490  0.3428332868691939  0.3433350976235587
  0.9988645513738774  0.3421759986035156  0.6571141189923537
  0.0010041653920752  0.6675265780669122  0.9999326468210228
  0.0011403499373941  0.6571127216904600  0.3446240337749700
  0.9997912464361036  0.6568944729307447  0.6557805268703092
  0.3235820410987813  0.0082968682491185  0.0070127377703955
  0.3422168038573048  0.0004710227569689  0.3212919815850839
  0.3254284570653283  0.9882552880410529  0.6661043371945112
  0.3317730069177145  0.3222755170296523  0.9915047184922798
  0.3446188578118026  0.3447120356622904  0.3346013543674431
  0.3402012335698288  0.3332415179392783  0.6766901413094288
  0.3480942683885289  0.6667608568207584  0.9985044068785527
  0.3433823628162926  0.6583685617044779  0.3418465136679245
  0.3400793480380671  0.6740509597565421  0.6547174433389742
  0.6664428078572868  0.9990739352215314  0.0116953082636684
  0.6551857395011567  0.0001030933227213  0.3269794530955821
  0.6670557985025098  0.9876039252310562  0.6672781450328458
  0.6744770475517399  0.3429448619117892  0.0116719590319505
  0.6578838826611317  0.3435064394260294  0.3238517576295834
  0.6550795695255047  0.3322777382302675  0.6662948623901457
  0.6607690499212922  0.6564364436572419  0.0113731340976742
  0.6574410049180415  0.6574894676633960  0.3237578761581617
  0.6541860212709594  0.6723541924642404  0.6672626464980951
  0.0053197640410261  0.1658541148771135  0.0006062030951171
  0.0003375802926016  0.5004734289011310  0.3346466787712430
  0.0005890867631280  0.4999471784564875  0.6663670233232395
  0.3291788291580247  0.1673404825191867  0.9988463991869736
  0.3284842212082779  0.4998080166385037  0.3291446437106771
  0.3397638446974298  0.8350135692886340  0.6705287134522493
  0.6673191608235811  0.5005340078826421  0.0001497072211762
  0.6719651828270372  0.5002595699964587  0.3332227624742998
  0.6616058172278230  0.8354377614585857  0.6669048068585326
  0.1652577795704175  0.9908308299109407  0.9953348085264793
  0.1653113040268792  0.9999745171128893  0.6725569285863386
  0.5007132641931307  0.0001372841027560  0.3400454587901152
  0.4992111105396262  0.3288792900501747  0.3433954559842221
  0.5015346714458957  0.3389736576265037  0.6588903659484302
  0.4984613021471063  0.6696904224604623  0.9960965174347862
  0.4998728142266060  0.6724617690804280  0.3342055564104029
  0.5014925975384941  0.6555989546105607  0.6678646716348169
  0.8355592244502859  0.3321978969244839  0.9958558630986474
  0.9988011124782616  0.0005514576750372  0.4997336238008714
  0.9978782330394935  0.3252459083994879  0.5008232392273300
  0.0060865496707336  0.6747030701399765  0.5006414447434011
  0.3369488907059477  0.9963926932607947  0.1657888083080223
  0.3332485919073207  0.3369344735230868  0.8320865768053380
  0.3241723854995513  0.6674822225806523  0.5006876552039259
  0.6644101793147001  0.9974572009586069  0.1652284726518332
  0.6641937242826472  0.3239887110731132  0.1666073041546383
  0.6721116132284450  0.6779559841843223  0.1653635989283799
  0.9999604867349561  0.1645752132018075  0.3240213641121770
  0.9952345064090480  0.1659391599995246  0.6770405971324323
  0.0024910126409665  0.5043546229351819  0.9999380380157561
  0.9934305752952355  0.8307431474453395  0.0010367673151279
  0.0004635785049629  0.8348334859043334  0.3266035444506983
  0.9948196348096872  0.8331426497230794  0.6739271669896283
  0.3260702504609583  0.1662430302611781  0.3338228701519483
  0.3361695118791914  0.1663160925515754  0.6647800570973104
  0.3307061130179534  0.5012627317507352  0.0083889460688340
  0.3201798310865698  0.4989783197366719  0.6639842758226777
  0.3321743570206834  0.8323739371725551  0.9877875489483827
  0.3248942645801449  0.8353841283390011  0.3361201845045869
  0.6624455631175294  0.1633227641107098  0.9925987692481115
  0.6738491729719485  0.1642269435342527  0.3406218192171480
  0.6681698826874225  0.1659904493206952  0.6668088507153485
  0.6791307540476623  0.4983564847621551  0.6678351526884043
  0.6731325014746616  0.8350841937187425  0.9876285847509791
  0.6742770281361885  0.8362233292467138  0.3452803841851164
  0.1646290928284344  0.0008469027330875  0.3311269232220155
  0.1654351775555440  0.3438952079810562  0.0037348655290046
  0.1654839456871358  0.3259464267766745  0.3298018181644906
  0.1659014488701587  0.3243674452011547  0.6669929362913223
  0.1635318015514926  0.6707213096803812  0.0012190863190895
  0.1642997019312489  0.6736635897998156  0.3206600600617833
  0.1646289545117909  0.6728893303893528  0.6780249834389949
  0.5011055738520795  0.9931781950319873  0.9936082747077037
  0.5016425839629832  0.0103505310487506  0.6593986025101657
  0.4988261035061399  0.3340154196560476  0.9977238878657531
  0.8329019703179981  0.9999319072898132  0.9992449978998792
  0.8340749090435864  0.9999692436360874  0.3308268347603871
  0.8328926884191716  0.0012520659252857  0.6697949897257587
  0.8356123020813584  0.3258700599264230  0.3302348671631208
  0.8326776306571588  0.3292254786252400  0.6767696970764305
  0.8380887894457132  0.6666722383584585  0.9945203043817585
  0.8367071932843686  0.6746477151754107  0.3339020408455511
  0.8341560126001326  0.6691061592408829  0.6703368820640634
  0.9970647665089061  0.9951959397872301  0.1678570970250419
  0.9898400093892619  0.9946390769827644  0.8338735838212514
  0.0013803662981076  0.3363970713522733  0.1672552195969388
  0.0083950754916486  0.3360248973329902  0.8330152144176992
  0.9959301138014851  0.6683314350381693  0.1631668671304993
  0.0011706650403482  0.6690896055069757  0.8365043574931263
  0.3272062979373729  0.0022402373463706  0.4988321107492695
  0.3434058760694469  0.0050846691342912  0.8320497981550545
  0.3352283615865659  0.3307761719853275  0.1654667989365279
  0.3215194134377484  0.3318103675004522  0.5022919956928575
  0.3281114459122634  0.6768307933827487  0.1634284804858765
  0.3254803193528915  0.6566102322921807  0.8341287982969305
  0.6761424793453799  0.0042959471823991  0.5015999375763016
  0.6658742735070788  0.0041370638568310  0.8325077971265671
  0.6812886487406331  0.3303438500620430  0.5028250916426629
  0.6614159318387109  0.3292106439655100  0.8316416880729207
  0.6762006461439540  0.6660364422043585  0.5021142029604846
  0.6743563400861845  0.6670709682317977  0.8328542933296461
 
  0.00000000E+00  0.00000000E+00  0.00000000E+00
  0.00000000E+00  0.00000000E+00  0.00000000E+00
  0.00000000E+00  0.00000000E+00  0.00000000E+00
  0.00000000E+00  0.00000000E+00  0.00000000E+00
  0.00000000E+00  0.00000000E+00  0.00000000E+00
  0.00000000E+00  0.00000000E+00  0.00000000E+00
  0.00000000E+00  0.00000000E+00  0.00000000E+00
  0.00000000E+00  0.00000000E+00  0.00000000E+00
  0.00000000E+00  0.00000000E+00  0.00000000E+00
  0.00000000E+00  0.00000000E+00  0.00000000E+00
  0.00000000E+00  0.00000000E+00  0.00000000E+00
  0.00000000E+00  0.00000000E+00  0.00000000E+00
  0.00000000E+00  0.00000000E+00  0.00000000E+00
  0.00000000E+00  0.00000000E+00  0.00000000E+00
  0.00000000E+00  0.00000000E+00  0.00000000E+00
  0.00000000E+00  0.00000000E+00  0.00000000E+00
  0.00000000E+00  0.00000000E+00  0.00000000E+00
  0.00000000E+00  0.00000000E+00  0.00000000E+00
  0.00000000E+00  0.00000000E+00  0.00000000E+00
  0.00000000E+00  0.00000000E+00  0.00000000E+00
  0.00000000E+00  0.00000000E+00  0.00000000E+00
  0.00000000E+00  0.00000000E+00  0.00000000E+00
  0.00000000E+00  0.00000000E+00  0.00000000E+00
  0.00000000E+00  0.00000000E+00  0.00000000E+00
  0.00000000E+00  0.00000000E+00  0.00000000E+00
  0.00000000E+00  0.00000000E+00  0.00000000E+00
  0.00000000E+00  0.00000000E+00  0.00000000E+00
  0.00000000E+00  0.00000000E+00  0.00000000E+00
  0.00000000E+00  0.00000000E+00  0.00000000E+00
  0.00000000E+00  0.00000000E+00  0.00000000E+00
  0.00000000E+00  0.00000000E+00  0.00000000E+00
  0.00000000E+00  0.00000000E+00  0.00000000E+00
  0.00000000E+00  0.00000000E+00  0.00000000E+00
  0.00000000E+00  0.00000000E+00  0.00000000E+00
  0.00000000E+00  0.00000000E+00  0.00000000E+00
  0.00000000E+00  0.00000000E+00  0.00000000E+00
  0.00000000E+00  0.00000000E+00  0.00000000E+00
  0.00000000E+00  0.00000000E+00  0.00000000E+00
  0.00000000E+00  0.00000000E+00  0.00000000E+00
  0.00000000E+00  0.00000000E+00  0.00000000E+00
  0.00000000E+00  0.00000000E+00  0.00000000E+00
  0.00000000E+00  0.00000000E+00  0.00000000E+00
  0.00000000E+00  0.00000000E+00  0.00000000E+00
  0.00000000E+00  0.00000000E+00  0.00000000E+00
  0.00000000E+00  0.00000000E+00  0.00000000E+00
  0.00000000E+00  0.00000000E+00  0.00000000E+00
  0.00000000E+00  0.00000000E+00  0.00000000E+00
  0.00000000E+00  0.00000000E+00  0.00000000E+00
  0.00000000E+00  0.00000000E+00  0.00000000E+00
  0.00000000E+00  0.00000000E+00  0.00000000E+00
  0.00000000E+00  0.00000000E+00  0.00000000E+00
  0.00000000E+00  0.00000000E+00  0.00000000E+00
  0.00000000E+00  0.00000000E+00  0.00000000E+00
  0.00000000E+00  0.00000000E+00  0.00000000E+00
  0.00000000E+00  0.00000000E+00  0.00000000E+00
  0.00000000E+00  0.00000000E+00  0.00000000E+00
  0.00000000E+00  0.00000000E+00  0.00000000E+00
  0.00000000E+00  0.00000000E+00  0.00000000E+00
  0.00000000E+00  0.00000000E+00  0.00000000E+00
  0.00000000E+00  0.00000000E+00  0.00000000E+00
  0.00000000E+00  0.00000000E+00  0.00000000E+00
  0.00000000E+00  0.00000000E+00  0.00000000E+00
  0.00000000E+00  0.00000000E+00  0.00000000E+00
  0.00000000E+00  0.00000000E+00  0.00000000E+00
  0.00000000E+00  0.00000000E+00  0.00000000E+00
  0.00000000E+00  0.00000000E+00  0.00000000E+00
  0.00000000E+00  0.00000000E+00  0.00000000E+00
  0.00000000E+00  0.00000000E+00  0.00000000E+00
  0.00000000E+00  0.00000000E+00  0.00000000E+00
  0.00000000E+00  0.00000000E+00  0.00000000E+00
  0.00000000E+00  0.00000000E+00  0.00000000E+00
  0.00000000E+00  0.00000000E+00  0.00000000E+00
  0.00000000E+00  0.00000000E+00  0.00000000E+00
  0.00000000E+00  0.00000000E+00  0.00000000E+00
  0.00000000E+00  0.00000000E+00  0.00000000E+00
  0.00000000E+00  0.00000000E+00  0.00000000E+00
  0.00000000E+00  0.00000000E+00  0.00000000E+00
  0.00000000E+00  0.00000000E+00  0.00000000E+00
  0.00000000E+00  0.00000000E+00  0.00000000E+00
  0.00000000E+00  0.00000000E+00  0.00000000E+00
  0.00000000E+00  0.00000000E+00  0.00000000E+00
  0.00000000E+00  0.00000000E+00  0.00000000E+00
  0.00000000E+00  0.00000000E+00  0.00000000E+00
  0.00000000E+00  0.00000000E+00  0.00000000E+00
  0.00000000E+00  0.00000000E+00  0.00000000E+00
  0.00000000E+00  0.00000000E+00  0.00000000E+00
  0.00000000E+00  0.00000000E+00  0.00000000E+00
  0.00000000E+00  0.00000000E+00  0.00000000E+00
  0.00000000E+00  0.00000000E+00  0.00000000E+00
  0.00000000E+00  0.00000000E+00  0.00000000E+00
  0.00000000E+00  0.00000000E+00  0.00000000E+00
  0.00000000E+00  0.00000000E+00  0.00000000E+00
  0.00000000E+00  0.00000000E+00  0.00000000E+00
  0.00000000E+00  0.00000000E+00  0.00000000E+00
  0.00000000E+00  0.00000000E+00  0.00000000E+00
  0.00000000E+00  0.00000000E+00  0.00000000E+00
  0.00000000E+00  0.00000000E+00  0.00000000E+00
  0.00000000E+00  0.00000000E+00  0.00000000E+00
  0.00000000E+00  0.00000000E+00  0.00000000E+00
  0.00000000E+00  0.00000000E+00  0.00000000E+00
  0.00000000E+00  0.00000000E+00  0.00000000E+00
  0.00000000E+00  0.00000000E+00  0.00000000E+00
  0.00000000E+00  0.00000000E+00  0.00000000E+00
  0.00000000E+00  0.00000000E+00  0.00000000E+00
  0.00000000E+00  0.00000000E+00  0.00000000E+00
  0.00000000E+00  0.00000000E+00  0.00000000E+00
  0.00000000E+00  0.00000000E+00  0.00000000E+00
  0.00000000E+00  0.00000000E+00  0.00000000E+00
