TiOF2 2x2x2 config 0277                 
   1.00000000000000     
     7.8649320483994103   -0.0000000052181483    0.0000000042390160
     0.0000000039947578    7.6605106566356955   -0.0020982332897334
     0.0000000066436464   -0.0021561271554562    7.6635649797808920
   Ti   O    F 
     8     8    16
Direct
  0.0000000001343068  0.9887142065054633  0.9871968379289129
  0.9999999998319140  0.9881170337114966  0.5126824583342824
  0.9999999998736158  0.5112856804710972  0.0128032113070802
  0.0000000001641638  0.5118829825779869  0.4873175573146327
  0.4999999996970104  0.9878865045102003  0.0127864265290327
  0.5000000001284022  0.0126679363901872  0.4873479602297124
  0.5000000003000480  0.5121135407529493  0.9872135903807830
  0.4999999998697575  0.4873321890368416  0.5126519551447757
  0.9999999999961062  0.7499999363000569  0.9999999910943274
  0.9999999999873310  0.7499999863491027  0.5000000460724934
  0.4999999999958220  0.2500000448205384  0.4999999686986740
  0.4999999999987850  0.7499999768507593  0.9999998982391034
  0.9999999999119566  0.0047832082654296  0.7500017217599506
  0.0000000000849525  0.4952167639819081  0.2499983197071529
  0.4999999998334630  0.9996395869124513  0.2500223380565387
  0.5000000001642775  0.5003604201094518  0.7499776695440730
  0.2500100235196570  0.0067534654719168  0.9999699227419967
  0.2500142990875176  0.9995594361781528  0.5000015471299832
  0.2500100534473688  0.4932463591710743  0.0000300685006636
  0.2500143031581246  0.5004406771048977  0.4999984476486858
  0.7499899763648585  0.0067534653526948  0.9999699231259740
  0.7499857008785042  0.9995594363234588  0.5000015472076953
  0.7499899466628293  0.4932463590442282  0.0000300688951782
  0.7499856968920184  0.5004406771972114  0.4999984477272079
  0.0000000000011724  0.2499999466645519  0.0000000337975550
  0.0000000000096421  0.2500000117277565  0.5000000222598828
  0.4999999999871463  0.2500000332814665  0.9999999904336008
  0.5000000000217213  0.7500000503314368  0.5000000459377887
  0.0000000004307807  0.0093772346599579  0.2500679066286864
  0.9999999995809006  0.4906226661525324  0.7499321082741091
  0.5000000002437517  0.9996095041182755  0.7499301856475995
  0.4999999997420872  0.5003906796744744  0.2500697837018464
 
  0.00000000E+00  0.00000000E+00  0.00000000E+00
  0.00000000E+00  0.00000000E+00  0.00000000E+00
  0.00000000E+00  0.00000000E+00  0.00000000E+00
  0.00000000E+00  0.00000000E+00  0.00000000E+00
  0.00000000E+00  0.00000000E+00  0.00000000E+00
  0.00000000E+00  0.00000000E+00  0.00000000E+00
  0.00000000E+00  0.00000000E+00  0.00000000E+00
  0.00000000E+00  0.00000000E+00  0.00000000E+00
  0.00000000E+00  0.00000000E+00  0.00000000E+00
  0.00000000E+00  0.00000000E+00  0.00000000E+00
  0.00000000E+00  0.00000000E+00  0.00000000E+00
  0.00000000E+00  0.00000000E+00  0.00000000E+00
  0.00000000E+00  0.00000000E+00  0.00000000E+00
  0.00000000E+00  0.00000000E+00  0.00000000E+00
  0.00000000E+00  0.00000000E+00  0.00000000E+00
  0.00000000E+00  0.00000000E+00  0.00000000E+00
  0.00000000E+00  0.00000000E+00  0.00000000E+00
  0.00000000E+00  0.00000000E+00  0.00000000E+00
  0.00000000E+00  0.00000000E+00  0.00000000E+00
  0.00000000E+00  0.00000000E+00  0.00000000E+00
  0.00000000E+00  0.00000000E+00  0.00000000E+00
  0.00000000E+00  0.00000000E+00  0.00000000E+00
  0.00000000E+00  0.00000000E+00  0.00000000E+00
  0.00000000E+00  0.00000000E+00  0.00000000E+00
  0.00000000E+00  0.00000000E+00  0.00000000E+00
  0.00000000E+00  0.00000000E+00  0.00000000E+00
  0.00000000E+00  0.00000000E+00  0.00000000E+00
  0.00000000E+00  0.00000000E+00  0.00000000E+00
  0.00000000E+00  0.00000000E+00  0.00000000E+00
  0.00000000E+00  0.00000000E+00  0.00000000E+00
  0.00000000E+00  0.00000000E+00  0.00000000E+00
  0.00000000E+00  0.00000000E+00  0.00000000E+00
