TiOF2 2x2x2 config 0540                 
   1.00000000000000     
     7.8201252827475960    0.0004574830791179   -0.0014143243145006
     0.0004560522280761    7.7694445043891101    0.0004017669890581
    -0.0013640142954662    0.0003686728131170    7.6291904047078178
   Ti   O    F 
     8     8    16
Direct
  0.0002274301624767  0.0006996066377769  0.9834230776425357
  0.0006102244639052  0.9812333174478812  0.5039076769704774
  0.0008802078824927  0.5001742834660472  0.9830553184965455
  0.9820174617854818  0.5056690337719618  0.5017019681418587
  0.5003126114577298  0.9995842552317937  0.9908387002101211
  0.5001308302993850  0.9903322589196901  0.4849543448712604
  0.5002742709941194  0.4989426095447537  0.9834183615644306
  0.5087302348933854  0.5156092906810673  0.5029237342466495
  0.7515743357692000  0.4982067948422462  0.4968529616412385
  0.0008857296172489  0.7523663203101058  0.4966648233101738
  0.4989109504681816  0.7494002112309013  0.5000275570823653
  0.0000733069196655  0.0009803256976989  0.7553334980624129
  0.0012103560433502  0.4986528195914734  0.7567485398030011
  0.5004982056919232  1.0007709869153398  0.2471707773801974
  0.5004892710897166  0.0008603936599482  0.7591652633837704
  0.4988152742540884  0.4980365725567953  0.7571811926724936
  0.2452023018344141  0.9992474209618707  0.0072707700962089
  0.2464934730003725  0.0077658723327023  0.4993114533056301
  0.2491808876986331  0.5007710901212444  0.0078673470943552
  0.2484148852465997  0.4960964257838726  0.4964430223169445
  0.7553717530313744  0.9992627091959414  0.0073485390011665
  0.7542853258863670  0.0097078823519623  0.4992584946508465
  0.7519083153926998  0.5007516864348115  0.0099594605210177
  0.9998880572709391  0.2504068927358686  0.0090549627142059
  0.0031255425601416  0.2478013269222303  0.4960106078552051
  0.9998887944285234  0.7502674181901504  0.0112856147249297
  0.5010232637618913  0.2528159354918660  0.0083003210897246
  0.4973299175222103  0.2515408284482190  0.5013599914062145
  0.5010381208163278  0.7456438186857589  0.0092880215541851
  0.0001250485594370  0.0045978980012067  0.2460240394519535
  0.0046182947033742  0.4966665199130713  0.2434772528540103
  0.4964653164943436  0.4951371939237503  0.2443723058838778
 
  0.00000000E+00  0.00000000E+00  0.00000000E+00
  0.00000000E+00  0.00000000E+00  0.00000000E+00
  0.00000000E+00  0.00000000E+00  0.00000000E+00
  0.00000000E+00  0.00000000E+00  0.00000000E+00
  0.00000000E+00  0.00000000E+00  0.00000000E+00
  0.00000000E+00  0.00000000E+00  0.00000000E+00
  0.00000000E+00  0.00000000E+00  0.00000000E+00
  0.00000000E+00  0.00000000E+00  0.00000000E+00
  0.00000000E+00  0.00000000E+00  0.00000000E+00
  0.00000000E+00  0.00000000E+00  0.00000000E+00
  0.00000000E+00  0.00000000E+00  0.00000000E+00
  0.00000000E+00  0.00000000E+00  0.00000000E+00
  0.00000000E+00  0.00000000E+00  0.00000000E+00
  0.00000000E+00  0.00000000E+00  0.00000000E+00
  0.00000000E+00  0.00000000E+00  0.00000000E+00
  0.00000000E+00  0.00000000E+00  0.00000000E+00
  0.00000000E+00  0.00000000E+00  0.00000000E+00
  0.00000000E+00  0.00000000E+00  0.00000000E+00
  0.00000000E+00  0.00000000E+00  0.00000000E+00
  0.00000000E+00  0.00000000E+00  0.00000000E+00
  0.00000000E+00  0.00000000E+00  0.00000000E+00
  0.00000000E+00  0.00000000E+00  0.00000000E+00
  0.00000000E+00  0.00000000E+00  0.00000000E+00
  0.00000000E+00  0.00000000E+00  0.00000000E+00
  0.00000000E+00  0.00000000E+00  0.00000000E+00
  0.00000000E+00  0.00000000E+00  0.00000000E+00
  0.00000000E+00  0.00000000E+00  0.00000000E+00
  0.00000000E+00  0.00000000E+00  0.00000000E+00
  0.00000000E+00  0.00000000E+00  0.00000000E+00
  0.00000000E+00  0.00000000E+00  0.00000000E+00
  0.00000000E+00  0.00000000E+00  0.00000000E+00
  0.00000000E+00  0.00000000E+00  0.00000000E+00
