config 27                               
   1.00000000000000     
    15.4263309999999993    0.0000000000000000    0.0000000000000000
     0.0000000000000000   15.4263309999999993    0.0000000000000000
     0.0000000000000000    0.0000000000000000   15.4263309999999993
   Li   Ti   O    F 
     1    64    64   128
Direct
  0.4366091668148929  0.6158694786211952  0.6225524666762382
  0.9954918445649522  0.9950720948539543  0.9944371983579555
  0.9986067510538071  0.9917316076048932  0.4934525238037195
  0.0060109423270107  0.4955664927659481  0.9976134948271577
  0.9954096669255573  0.5039760654680907  0.5082457781465487
  0.4943602242501828  0.9933696319449513  0.9990814345473480
  0.5014447048299020  0.0086448518068729  0.4989190917644163
  0.5041193008316419  0.4948129980781150  0.9975377901627880
  0.4929422182340766  0.4965025460998760  0.4926510295744290
  0.0070692933360649  0.0035749666964149  0.2558560025971114
  0.0011096678325303  0.0075850529885892  0.7567685798832312
  0.9930214188929569  0.4937873196097546  0.2516638827268640
  0.9928881330303133  0.4980882513449729  0.7419143029920895
  0.5058844262635394  0.0088188481211566  0.2497283044457874
  0.4920127830312662  0.0043355965029809  0.7517617815811043
  0.4913119729921240  0.4968837405231215  0.2554163213856516
  0.4995360559430281  0.5026773191020990  0.7620045999304870
  0.9957348114587986  0.2575957615352604  0.0019555802657600
  0.9991554027611645  0.2484320537989392  0.4917058835907200
  0.9971350919249162  0.7578977933933048  0.0056525846688140
  0.9949442423103959  0.7572751396310238  0.5056718981746201
  0.4952985822122705  0.2576681217384824  0.0019071300769419
  0.5095752129952285  0.2445219508072030  0.4987612400786612
  0.5071129453709765  0.7555203183972985  0.9975856877736772
  0.5044251102045630  0.7556468700733638  0.5033222853542240
 -0.0001586050775646  0.2588110880852390  0.2556920520324337
  0.0060912559235770  0.2411942163689801  0.7480312704094222
  0.0058176505770714  0.7486190741645581  0.2420908524227399
  0.9913983788385998  0.7520525332177045  0.7433381147782941
  0.5080144837567183  0.2415865808387388  0.2523220139130387
  0.5066328388716195  0.2417797746618245  0.7511567589735677
  0.5064854760780081  0.7517313924365067  0.2478161835081618
  0.4981568095507671  0.7426153997814843  0.7404493698547996
  0.2566210437132578  0.9977075176463234  0.0055264789969501
  0.2515395116979335  0.9936372660333317  0.5058215194359168
  0.2436637725964177  0.5077803187715400  0.9986926188184534
  0.2562514662855168  0.4948681155366786  0.5081906048549691
  0.7569774458883600  0.0003263617857589  0.9937053535175693
  0.7497857696639764  0.0079333490951952  0.4942957769901157
  0.7414866525695540  0.5004353285989576  0.0047279076314235
  0.7565776137859971  0.4991092277418298  0.5060249619418924
  0.2450280986647444  0.0024215647751732  0.2432413997703562
  0.2577614688551071  0.9965921058787036  0.7440191116386109
  0.2541370110115610  0.4919841728568622  0.2526731153677234
  0.2471283660367810  0.5060034838040666  0.7419178061467560
  0.7444783585873400  0.0013799207526588  0.2554353649830804
  0.7488316768864457  0.0067373531779157  0.7556299584388585
  0.7547429514274626  0.4986246691542424  0.2424260219594188
  0.7567045194047435  0.4967028215441325  0.7422188398778513
  0.2573295255409023  0.2516526704168303  0.0065521022513562
  0.2545713050466505  0.2576008765612501  0.5059229729662161
  0.2508353406452307  0.7414819822873705  0.9939934150649919
  0.2506106422104441  0.7558767315329448  0.4920586104417138
  0.7572773959611334  0.2513766966157228  0.0078636544070541
  0.7421526889112421  0.2433200557983770  0.4981252285965338
  0.7404530607898838  0.7487766075114209  0.9941647296310760
  0.7401380891588171  0.7540191098797892  0.4948111862995950
  0.2510986350262274  0.2581457717275766  0.2443305041051239
  0.2437449651364006  0.2508881285053045  0.7443859265105632
  0.2430093431733799  0.7477479917072226  0.2549530497787224
  0.2479345705939313  0.7409969777696648  0.7568890877960095
  0.7419678029290314  0.2511436789657381  0.2427654325480506
  0.7452475794757850  0.2409172334934936  0.7511193677748578
  0.7449077970220900  0.7499882235999107  0.2564646821070376
  0.7556042280403628  0.7515934223082641  0.7567289533281837
  0.0128797371009772  0.5026335995767967  0.6251725650358547
  0.9986530158829637  0.0054773888854795  0.3759287570506347
  0.0022326265838798  0.0017689670419220  0.8727635130284530
  0.4929431986911686  0.4923740084087780  0.3748234697327610
  0.4898201784922968  0.4944552152147889  0.8771460328889268
  0.9927943889660575  0.7458765567783013  0.1250174302364920
  0.9945333574337657  0.7463054946507065  0.6241169495090515
  0.4801474031636613  0.7403148885299358  0.6271203717497074
  0.9929716255527177  0.2481155024315721  0.3768149790885779
  0.2566860560866230 -0.0011562057589519  0.1250457698742634
  0.2570824784137422 -0.0003172234493918  0.6249417831998831
  0.2356633963072241  0.4921912081360346  0.6268161325280308
  0.7458207668942379  0.4897011422520872  0.1256456851484904
  0.7412406434061672  0.4924428137563089  0.6243923262943865
  0.7480855206267167  0.0027705560906473  0.3757062472607688
  0.7444149727065549  1.0020694098406249  0.8731903104020940
  0.2439744870698874  0.2537136745987750  0.1263295783716193
  0.2502600458623769  0.2531856458418716  0.6254682263621013
  0.7406339619401181  0.2610649183575942  0.1267179261203195
  0.2473548464185717  0.7440514197425678  0.3742253764521137
  0.2419640148023068  0.7455262794430326  0.8753176073177703
  0.7459583001441856  0.7495315439309935  0.3728364809855186
  0.7403067307848643  0.7489056027756865  0.8747471145029244
  0.1245200492345472  0.5060339244146086  0.9913710409656938
  0.6255350343771167  0.5093495496119809  0.9951551391928501
  0.1255974246098855  0.0066063036355842  0.2493160679864381
  0.6247581511362276  0.0058864210816964  0.2475349783819740
  0.6248128568357526  0.2654892045157624  0.4923727736517018
  0.6239633353892883  0.7389964205513638  0.0093057361355385
  0.6269935241057462  0.7708915363141798  0.5032294561789853
  0.1248383219287605  0.2420228944767448  0.7518737468458777
  0.1248032476965827  0.7481376142989454  0.2453215865997589
  0.6255268801870224  0.2414891377029849  0.2638315504123046
  0.6258501842724040  0.2436243527812353  0.7509058619166255
  0.6222356303756286  0.7494825183484167  0.2423637064650087
  0.3760039795442481  0.9972141443216713  0.9904576446029981
  0.3768049428032417  0.5169217663504636  0.5150590326580059
  0.8729491569510999 -0.0008132790595501  0.9980672911965477
  0.8758106307697892  0.5105379873462491  0.5050105650082309
  0.3761305141979695  0.9873031771909843  0.7580021565022156
  0.3735290730730428  0.4933743406493317  0.2436384678557600
  0.8750252967702576  0.4939237374776695  0.2485571774817405
  0.8751250941314324  0.4948624619099266  0.7418848271075706
  0.3759574743063741  0.2504314280877128  0.0064141719501468
  0.8743932670550303  0.2513280974289737  0.0075655217798613
  0.8737706452930352  0.7570570726224189  0.7557949547966952
  0.5182898675170218  0.1235725069622212  0.4917122235782658
  0.9877500775445852  0.1257401961963971  0.7451055838925724
  0.4911402266924376  0.1252904963957481  0.2632804599874122
  0.4927904943901014  0.1234137905476370  0.7525698194152249
  0.4837449819742371  0.6216727294913948  0.7481951803158865
  0.0031161671482561  0.3753033851270766  0.0045922363069816
  0.0038663009937125  0.8748781633764259  0.0014069962485084
  0.9837538619382443  0.8754938818959751  0.4986358645359835
  0.5055663467591160  0.3737232040051814  0.0100205194412761
  0.5059992541265955  0.8746042501376273  0.0044182492299456
  0.0099600182709832  0.3743749077148726  0.2479349564487927
  0.2576203647009813  0.6246556712057081  0.0076966612667426
  0.7337244479724101  0.1258480512607197  0.5057443466167717
  0.2626851694518079  0.6242073655581660  0.7436357337268668
  0.7602603643457438  0.1244399051355461  0.7416307306490673
  0.2635676908656112  0.3742230314344419  0.4926179487280001
  0.2630952131658539  0.8759886718518499  0.4959882940118041
  0.2397724338402857  0.3748267706060635  0.2607713674614220
  0.9978039238168479  0.0033472791186167  0.1265866543341955
  0.0002805695584021  0.9992622393469529  0.6233656251253670
  0.0051436515608812  0.5085438722037288  0.1256425647864929
  0.4921205957031224  0.0093519408955719  0.1255737495619750
  0.4953993904817637  1.0034738775243144  0.6230414678258610
  0.5064534934604131  0.5083392004452937  0.1279469808384159
  0.5064960571532456  0.5051946473161619  0.6257325795240990
  0.9982342821021322  0.4969417114667764  0.3768169158081724
  0.9913033818915498  0.4971213910766900  0.8730217323786938
  0.5056539160103787  0.9872918481496560  0.3759995673842075
  0.5167260141327004 -0.0043426169361120  0.8742546018572035
  0.0092407557808483  0.2454012935822483  0.1278060850777040
  0.0021060110878411  0.2563891754124172  0.6218065572913681
  0.5108810071444501  0.2376133128133402  0.1273650918927810
  0.5009291143996968  0.2451168460930861  0.6233488366264386
  0.4873197923012320  0.7441190080451318  0.1241772902834864
  0.9938931590670671  0.2513878240508633  0.8746807873426924
  0.9999250371491252  0.7506160207573292  0.3748783445693170
  0.0070610611123732  0.7507608480568130  0.8735319295695170
  0.4884597125309207  0.2637634226451391  0.3761493002599625
  0.4974457875415544  0.2552102534929343  0.8751692495454492
  0.4987501102347264  0.7590997987175332  0.3705719544202933
  0.5072506138329220  0.7510332263913738  0.8730178835769097
  0.2389791874621464  0.4902425974268120  0.1257402893191895
  0.7511136633548315 -0.0000002104926631  0.1261555027798044
  0.7505053946336606  0.9932263159642856  0.6225841982931456
  0.2503476764959938  0.0049996225903415  0.3754757471764642
  0.2417381891792070  0.9991863383401745  0.8739626863526953
  0.2550687508257352  0.5134800523395848  0.3764965047474769
  0.2625794172054235  0.5026140352822512  0.8743646001845599
  0.7497515544443187  0.5070727105280006  0.3754850601425088
  0.7560401582787620  0.5063706299931784  0.8740642605652453
  0.2562880365994747  0.7584441158308812  0.1243977803754255
  0.2561711249176213  0.7541521803721706  0.6251184560409155
  0.7494095616785664  0.2621585498229747  0.6234901160406108
  0.7577016590157859  0.7516588373496470  0.1245844233170879
  0.7556975839113634  0.7513308564512461  0.6242238144267502
  0.2560178043970234  0.2413792248999029  0.3751097248224745
  0.2545880676600957  0.2469313303493436  0.8756018890131592
  0.7636493139377341  0.2426200760603633  0.3745918465460309
  0.7553328201631715  0.2422121588880524  0.8763784513827567
  0.1261734177426529  0.0043316645482529  0.0038079458758404
  0.1250197670836617  0.9894762811292450  0.5016313084658710
  0.1244152988716759  0.4906000392488876  0.4890417760355794
  0.6248745954522892  0.0045417094154214  0.0086746084694869
  0.6239322635163786  0.9791451198079048  0.5045202024041907
  0.6241296951587798  0.4849461513846322  0.4950099626450608
  0.1269895995243110  0.0095391379971099  0.7442906806829530
  0.1241344965415451  0.5105356103288380  0.2555443762384795
  0.1234514855827474  0.5063044228862590  0.7666652961007490
  0.6236711825782164  0.0046415668884542  0.7385078571964592
  0.6242379258315267  0.5038375916093364  0.2551318243105211
  0.6254683147889452  0.5042399270056419  0.7596963129349880
  0.1252036840636299  0.2470681845291492  0.9935021949346674
  0.1242968444417042  0.2599596042209489  0.4955733414935579
  0.1242827860417068  0.7422148823241579  0.0071058532586521
  0.1232788454922518  0.7626288650327444  0.5027641294457315
  0.6263018960963449  0.2458249153022213  0.9925879179671478
  0.1247740773943123  0.2353444888960932  0.2590096578583206
  0.1231395625560120  0.7408243944787520  0.7431932553231734
  0.6243709033107706  0.7411844387091224  0.7386408983035115
  0.3774984725014850  0.0206144947606534  0.4928683249100765
  0.3731434499975644  0.4928031188461821  0.0126001814011389
  0.8747657236248449  0.0204435243352618  0.5040060260741437
  0.8745847467170236  0.4954627975859542  0.0035628292815308
  0.3771090156370959  0.9933010528280548  0.2577090434820729
  0.3739962366248875  0.4856026277680978  0.7372801663570612
  0.8738257655992167  0.9962663256030965  0.2492525873115033
  0.8743426153696128  0.9841073415688671  0.7462507668192186
  0.3793201465190000  0.2326968536412824  0.5020765653448797
  0.3757032669599670  0.7582408387321420  0.9923762087034251
  0.3742918100489783  0.7313083299775850  0.4943944710433028
  0.8748331592641668  0.2382615285122577  0.5075253199723775
  0.8715536219596740  0.7566831638061026  0.9916733841282938
  0.8726108836294977  0.7333776233364474  0.4957887848713970
  0.3781533222076440  0.2605934270029230  0.2443911082779503
  0.3765204576690501  0.2576271411170760  0.7494070108290519
  0.3757173562448045  0.7522723320175353  0.2508475430603482
  0.3732465615535416  0.7661391337250709  0.7620060144665896
  0.8741012299039328  0.2594134092257669  0.2434972113985384
  0.8745757043509921  0.2623126655803596  0.7458817515658253
  0.8735689931837202  0.7523744554985882  0.2532861660238320
  0.0009138296550350  0.1270235184564243  0.0008348930762339
  0.0124203511635080  0.1260736283394060  0.5070063327953908
  0.9911258863266862  0.6251124285021081  0.9941423508123094
  0.0129184930284001  0.6269583678868236  0.4934046334282907
  0.5017785326309954  0.1243112066505620  0.9946271736989973
  0.4875538848974837  0.6263399954274393 -0.0012839545675602
  0.5138157149430316  0.6217541053186754  0.5031810243790783
  0.9889726594947783  0.1281961608145931  0.2472512947481027
  0.9945271112899089  0.6235374113147334  0.2567117089251807
 -0.0037714901121733  0.6246179292499632  0.7555730722041784
  0.4959191713083890  0.6259233800500503  0.2555013372560285
  0.9905691940925301  0.3742909985170662  0.5002104798874066
  0.4836997715812367  0.3709877772919047  0.5092892939854976
  0.4784308719082705  0.8843787364671393  0.5048802826649021
  0.0071895201081794  0.3741681833312178  0.7505695806088032
  0.9993412761424293  0.8763642190394294  0.2504413152014174
  0.0110733407142362  0.8759176222445673  0.7464749928993543
  0.5077828215410100  0.3721101178055534  0.2405350730206999
  0.5054892636642677  0.3730788326193982  0.7435821967414931
  0.4999699305123873  0.8769959199195554  0.2401346103790695
  0.5109090745692346  0.8745495293066945  0.7466044173633037
  0.2491939214911604  0.1246637977874244  0.9982660639882196
  0.2386530636660444  0.1249450659182052  0.5004514497980823
  0.2363160071134055  0.6267482937331347  0.5082945892304148
  0.7473151184911988  0.1260902178105118  0.0067936642893752
  0.7630791097890429  0.6251217274073387  0.0054031050910358
  0.7349265200554341  0.6253716619512517  0.5034107590865941
  0.2626358771022375  0.1268500096473952  0.2497977718280491
  0.2609283845804564  0.1240900591642600  0.7530771870381709
  0.2543174110607754  0.6234876368086244  0.2387924722483592
  0.7626725551837081  0.1266186058955260  0.2446986345215437
  0.7518606642876244  0.6248648728459826  0.2437905168944151
  0.7515662046085716  0.6245328887622009  0.7450192699394286
  0.2463326162909769  0.3759411549995321  0.9935038309833167
  0.2426858609294416  0.8733708687440582  0.9976256439809159
  0.7448930638652402  0.3748313735077248  0.9857944974237750
  0.7645430965824278  0.3728091178308545  0.4902449271068502
  0.7415759159164135  0.8747890240800235  0.0032596746558075
  0.7704777306815923  0.8779196049007980  0.4988264631780497
  0.2434325654354628  0.3757738029287095  0.7612279480692700
  0.2501927511533825  0.8758003427997938  0.2550218858778329
  0.2364422316635991  0.8730955468384017  0.7504187159973054
  0.7429456992071726  0.3744335794801468  0.2664747734021099
  0.7442499004980752  0.3732457445419877  0.7597159544773395
  0.7490771653667559  0.8759324631717514  0.2465616978776932
  0.7382810659472775  0.8753425810802610  0.7469619329023052
 
  0.00000000E+00  0.00000000E+00  0.00000000E+00
  0.00000000E+00  0.00000000E+00  0.00000000E+00
  0.00000000E+00  0.00000000E+00  0.00000000E+00
  0.00000000E+00  0.00000000E+00  0.00000000E+00
  0.00000000E+00  0.00000000E+00  0.00000000E+00
  0.00000000E+00  0.00000000E+00  0.00000000E+00
  0.00000000E+00  0.00000000E+00  0.00000000E+00
  0.00000000E+00  0.00000000E+00  0.00000000E+00
  0.00000000E+00  0.00000000E+00  0.00000000E+00
  0.00000000E+00  0.00000000E+00  0.00000000E+00
  0.00000000E+00  0.00000000E+00  0.00000000E+00
  0.00000000E+00  0.00000000E+00  0.00000000E+00
  0.00000000E+00  0.00000000E+00  0.00000000E+00
  0.00000000E+00  0.00000000E+00  0.00000000E+00
  0.00000000E+00  0.00000000E+00  0.00000000E+00
  0.00000000E+00  0.00000000E+00  0.00000000E+00
  0.00000000E+00  0.00000000E+00  0.00000000E+00
  0.00000000E+00  0.00000000E+00  0.00000000E+00
  0.00000000E+00  0.00000000E+00  0.00000000E+00
  0.00000000E+00  0.00000000E+00  0.00000000E+00
  0.00000000E+00  0.00000000E+00  0.00000000E+00
  0.00000000E+00  0.00000000E+00  0.00000000E+00
  0.00000000E+00  0.00000000E+00  0.00000000E+00
  0.00000000E+00  0.00000000E+00  0.00000000E+00
  0.00000000E+00  0.00000000E+00  0.00000000E+00
  0.00000000E+00  0.00000000E+00  0.00000000E+00
  0.00000000E+00  0.00000000E+00  0.00000000E+00
  0.00000000E+00  0.00000000E+00  0.00000000E+00
  0.00000000E+00  0.00000000E+00  0.00000000E+00
  0.00000000E+00  0.00000000E+00  0.00000000E+00
  0.00000000E+00  0.00000000E+00  0.00000000E+00
  0.00000000E+00  0.00000000E+00  0.00000000E+00
  0.00000000E+00  0.00000000E+00  0.00000000E+00
  0.00000000E+00  0.00000000E+00  0.00000000E+00
  0.00000000E+00  0.00000000E+00  0.00000000E+00
  0.00000000E+00  0.00000000E+00  0.00000000E+00
  0.00000000E+00  0.00000000E+00  0.00000000E+00
  0.00000000E+00  0.00000000E+00  0.00000000E+00
  0.00000000E+00  0.00000000E+00  0.00000000E+00
  0.00000000E+00  0.00000000E+00  0.00000000E+00
  0.00000000E+00  0.00000000E+00  0.00000000E+00
  0.00000000E+00  0.00000000E+00  0.00000000E+00
  0.00000000E+00  0.00000000E+00  0.00000000E+00
  0.00000000E+00  0.00000000E+00  0.00000000E+00
  0.00000000E+00  0.00000000E+00  0.00000000E+00
  0.00000000E+00  0.00000000E+00  0.00000000E+00
  0.00000000E+00  0.00000000E+00  0.00000000E+00
  0.00000000E+00  0.00000000E+00  0.00000000E+00
  0.00000000E+00  0.00000000E+00  0.00000000E+00
  0.00000000E+00  0.00000000E+00  0.00000000E+00
  0.00000000E+00  0.00000000E+00  0.00000000E+00
  0.00000000E+00  0.00000000E+00  0.00000000E+00
  0.00000000E+00  0.00000000E+00  0.00000000E+00
  0.00000000E+00  0.00000000E+00  0.00000000E+00
  0.00000000E+00  0.00000000E+00  0.00000000E+00
  0.00000000E+00  0.00000000E+00  0.00000000E+00
  0.00000000E+00  0.00000000E+00  0.00000000E+00
  0.00000000E+00  0.00000000E+00  0.00000000E+00
  0.00000000E+00  0.00000000E+00  0.00000000E+00
  0.00000000E+00  0.00000000E+00  0.00000000E+00
  0.00000000E+00  0.00000000E+00  0.00000000E+00
  0.00000000E+00  0.00000000E+00  0.00000000E+00
  0.00000000E+00  0.00000000E+00  0.00000000E+00
  0.00000000E+00  0.00000000E+00  0.00000000E+00
  0.00000000E+00  0.00000000E+00  0.00000000E+00
  0.00000000E+00  0.00000000E+00  0.00000000E+00
  0.00000000E+00  0.00000000E+00  0.00000000E+00
  0.00000000E+00  0.00000000E+00  0.00000000E+00
  0.00000000E+00  0.00000000E+00  0.00000000E+00
  0.00000000E+00  0.00000000E+00  0.00000000E+00
  0.00000000E+00  0.00000000E+00  0.00000000E+00
  0.00000000E+00  0.00000000E+00  0.00000000E+00
  0.00000000E+00  0.00000000E+00  0.00000000E+00
  0.00000000E+00  0.00000000E+00  0.00000000E+00
  0.00000000E+00  0.00000000E+00  0.00000000E+00
  0.00000000E+00  0.00000000E+00  0.00000000E+00
  0.00000000E+00  0.00000000E+00  0.00000000E+00
  0.00000000E+00  0.00000000E+00  0.00000000E+00
  0.00000000E+00  0.00000000E+00  0.00000000E+00
  0.00000000E+00  0.00000000E+00  0.00000000E+00
  0.00000000E+00  0.00000000E+00  0.00000000E+00
  0.00000000E+00  0.00000000E+00  0.00000000E+00
  0.00000000E+00  0.00000000E+00  0.00000000E+00
  0.00000000E+00  0.00000000E+00  0.00000000E+00
  0.00000000E+00  0.00000000E+00  0.00000000E+00
  0.00000000E+00  0.00000000E+00  0.00000000E+00
  0.00000000E+00  0.00000000E+00  0.00000000E+00
  0.00000000E+00  0.00000000E+00  0.00000000E+00
  0.00000000E+00  0.00000000E+00  0.00000000E+00
  0.00000000E+00  0.00000000E+00  0.00000000E+00
  0.00000000E+00  0.00000000E+00  0.00000000E+00
  0.00000000E+00  0.00000000E+00  0.00000000E+00
  0.00000000E+00  0.00000000E+00  0.00000000E+00
  0.00000000E+00  0.00000000E+00  0.00000000E+00
  0.00000000E+00  0.00000000E+00  0.00000000E+00
  0.00000000E+00  0.00000000E+00  0.00000000E+00
  0.00000000E+00  0.00000000E+00  0.00000000E+00
  0.00000000E+00  0.00000000E+00  0.00000000E+00
  0.00000000E+00  0.00000000E+00  0.00000000E+00
  0.00000000E+00  0.00000000E+00  0.00000000E+00
  0.00000000E+00  0.00000000E+00  0.00000000E+00
  0.00000000E+00  0.00000000E+00  0.00000000E+00
  0.00000000E+00  0.00000000E+00  0.00000000E+00
  0.00000000E+00  0.00000000E+00  0.00000000E+00
  0.00000000E+00  0.00000000E+00  0.00000000E+00
  0.00000000E+00  0.00000000E+00  0.00000000E+00
  0.00000000E+00  0.00000000E+00  0.00000000E+00
  0.00000000E+00  0.00000000E+00  0.00000000E+00
  0.00000000E+00  0.00000000E+00  0.00000000E+00
  0.00000000E+00  0.00000000E+00  0.00000000E+00
  0.00000000E+00  0.00000000E+00  0.00000000E+00
  0.00000000E+00  0.00000000E+00  0.00000000E+00
  0.00000000E+00  0.00000000E+00  0.00000000E+00
  0.00000000E+00  0.00000000E+00  0.00000000E+00
  0.00000000E+00  0.00000000E+00  0.00000000E+00
  0.00000000E+00  0.00000000E+00  0.00000000E+00
  0.00000000E+00  0.00000000E+00  0.00000000E+00
  0.00000000E+00  0.00000000E+00  0.00000000E+00
  0.00000000E+00  0.00000000E+00  0.00000000E+00
  0.00000000E+00  0.00000000E+00  0.00000000E+00
  0.00000000E+00  0.00000000E+00  0.00000000E+00
  0.00000000E+00  0.00000000E+00  0.00000000E+00
  0.00000000E+00  0.00000000E+00  0.00000000E+00
  0.00000000E+00  0.00000000E+00  0.00000000E+00
  0.00000000E+00  0.00000000E+00  0.00000000E+00
  0.00000000E+00  0.00000000E+00  0.00000000E+00
  0.00000000E+00  0.00000000E+00  0.00000000E+00
  0.00000000E+00  0.00000000E+00  0.00000000E+00
  0.00000000E+00  0.00000000E+00  0.00000000E+00
  0.00000000E+00  0.00000000E+00  0.00000000E+00
  0.00000000E+00  0.00000000E+00  0.00000000E+00
  0.00000000E+00  0.00000000E+00  0.00000000E+00
  0.00000000E+00  0.00000000E+00  0.00000000E+00
  0.00000000E+00  0.00000000E+00  0.00000000E+00
  0.00000000E+00  0.00000000E+00  0.00000000E+00
  0.00000000E+00  0.00000000E+00  0.00000000E+00
  0.00000000E+00  0.00000000E+00  0.00000000E+00
  0.00000000E+00  0.00000000E+00  0.00000000E+00
  0.00000000E+00  0.00000000E+00  0.00000000E+00
  0.00000000E+00  0.00000000E+00  0.00000000E+00
  0.00000000E+00  0.00000000E+00  0.00000000E+00
  0.00000000E+00  0.00000000E+00  0.00000000E+00
  0.00000000E+00  0.00000000E+00  0.00000000E+00
  0.00000000E+00  0.00000000E+00  0.00000000E+00
  0.00000000E+00  0.00000000E+00  0.00000000E+00
  0.00000000E+00  0.00000000E+00  0.00000000E+00
  0.00000000E+00  0.00000000E+00  0.00000000E+00
  0.00000000E+00  0.00000000E+00  0.00000000E+00
  0.00000000E+00  0.00000000E+00  0.00000000E+00
  0.00000000E+00  0.00000000E+00  0.00000000E+00
  0.00000000E+00  0.00000000E+00  0.00000000E+00
  0.00000000E+00  0.00000000E+00  0.00000000E+00
  0.00000000E+00  0.00000000E+00  0.00000000E+00
  0.00000000E+00  0.00000000E+00  0.00000000E+00
  0.00000000E+00  0.00000000E+00  0.00000000E+00
  0.00000000E+00  0.00000000E+00  0.00000000E+00
  0.00000000E+00  0.00000000E+00  0.00000000E+00
  0.00000000E+00  0.00000000E+00  0.00000000E+00
  0.00000000E+00  0.00000000E+00  0.00000000E+00
  0.00000000E+00  0.00000000E+00  0.00000000E+00
  0.00000000E+00  0.00000000E+00  0.00000000E+00
  0.00000000E+00  0.00000000E+00  0.00000000E+00
  0.00000000E+00  0.00000000E+00  0.00000000E+00
  0.00000000E+00  0.00000000E+00  0.00000000E+00
  0.00000000E+00  0.00000000E+00  0.00000000E+00
  0.00000000E+00  0.00000000E+00  0.00000000E+00
  0.00000000E+00  0.00000000E+00  0.00000000E+00
  0.00000000E+00  0.00000000E+00  0.00000000E+00
  0.00000000E+00  0.00000000E+00  0.00000000E+00
  0.00000000E+00  0.00000000E+00  0.00000000E+00
  0.00000000E+00  0.00000000E+00  0.00000000E+00
  0.00000000E+00  0.00000000E+00  0.00000000E+00
  0.00000000E+00  0.00000000E+00  0.00000000E+00
  0.00000000E+00  0.00000000E+00  0.00000000E+00
  0.00000000E+00  0.00000000E+00  0.00000000E+00
  0.00000000E+00  0.00000000E+00  0.00000000E+00
  0.00000000E+00  0.00000000E+00  0.00000000E+00
  0.00000000E+00  0.00000000E+00  0.00000000E+00
  0.00000000E+00  0.00000000E+00  0.00000000E+00
  0.00000000E+00  0.00000000E+00  0.00000000E+00
  0.00000000E+00  0.00000000E+00  0.00000000E+00
  0.00000000E+00  0.00000000E+00  0.00000000E+00
  0.00000000E+00  0.00000000E+00  0.00000000E+00
  0.00000000E+00  0.00000000E+00  0.00000000E+00
  0.00000000E+00  0.00000000E+00  0.00000000E+00
  0.00000000E+00  0.00000000E+00  0.00000000E+00
  0.00000000E+00  0.00000000E+00  0.00000000E+00
  0.00000000E+00  0.00000000E+00  0.00000000E+00
  0.00000000E+00  0.00000000E+00  0.00000000E+00
  0.00000000E+00  0.00000000E+00  0.00000000E+00
  0.00000000E+00  0.00000000E+00  0.00000000E+00
  0.00000000E+00  0.00000000E+00  0.00000000E+00
  0.00000000E+00  0.00000000E+00  0.00000000E+00
  0.00000000E+00  0.00000000E+00  0.00000000E+00
  0.00000000E+00  0.00000000E+00  0.00000000E+00
  0.00000000E+00  0.00000000E+00  0.00000000E+00
  0.00000000E+00  0.00000000E+00  0.00000000E+00
  0.00000000E+00  0.00000000E+00  0.00000000E+00
  0.00000000E+00  0.00000000E+00  0.00000000E+00
  0.00000000E+00  0.00000000E+00  0.00000000E+00
  0.00000000E+00  0.00000000E+00  0.00000000E+00
  0.00000000E+00  0.00000000E+00  0.00000000E+00
  0.00000000E+00  0.00000000E+00  0.00000000E+00
  0.00000000E+00  0.00000000E+00  0.00000000E+00
  0.00000000E+00  0.00000000E+00  0.00000000E+00
  0.00000000E+00  0.00000000E+00  0.00000000E+00
  0.00000000E+00  0.00000000E+00  0.00000000E+00
  0.00000000E+00  0.00000000E+00  0.00000000E+00
  0.00000000E+00  0.00000000E+00  0.00000000E+00
  0.00000000E+00  0.00000000E+00  0.00000000E+00
  0.00000000E+00  0.00000000E+00  0.00000000E+00
  0.00000000E+00  0.00000000E+00  0.00000000E+00
  0.00000000E+00  0.00000000E+00  0.00000000E+00
  0.00000000E+00  0.00000000E+00  0.00000000E+00
  0.00000000E+00  0.00000000E+00  0.00000000E+00
  0.00000000E+00  0.00000000E+00  0.00000000E+00
  0.00000000E+00  0.00000000E+00  0.00000000E+00
  0.00000000E+00  0.00000000E+00  0.00000000E+00
  0.00000000E+00  0.00000000E+00  0.00000000E+00
  0.00000000E+00  0.00000000E+00  0.00000000E+00
  0.00000000E+00  0.00000000E+00  0.00000000E+00
  0.00000000E+00  0.00000000E+00  0.00000000E+00
  0.00000000E+00  0.00000000E+00  0.00000000E+00
  0.00000000E+00  0.00000000E+00  0.00000000E+00
  0.00000000E+00  0.00000000E+00  0.00000000E+00
  0.00000000E+00  0.00000000E+00  0.00000000E+00
  0.00000000E+00  0.00000000E+00  0.00000000E+00
  0.00000000E+00  0.00000000E+00  0.00000000E+00
  0.00000000E+00  0.00000000E+00  0.00000000E+00
  0.00000000E+00  0.00000000E+00  0.00000000E+00
  0.00000000E+00  0.00000000E+00  0.00000000E+00
  0.00000000E+00  0.00000000E+00  0.00000000E+00
  0.00000000E+00  0.00000000E+00  0.00000000E+00
  0.00000000E+00  0.00000000E+00  0.00000000E+00
  0.00000000E+00  0.00000000E+00  0.00000000E+00
  0.00000000E+00  0.00000000E+00  0.00000000E+00
  0.00000000E+00  0.00000000E+00  0.00000000E+00
  0.00000000E+00  0.00000000E+00  0.00000000E+00
  0.00000000E+00  0.00000000E+00  0.00000000E+00
  0.00000000E+00  0.00000000E+00  0.00000000E+00
  0.00000000E+00  0.00000000E+00  0.00000000E+00
  0.00000000E+00  0.00000000E+00  0.00000000E+00
  0.00000000E+00  0.00000000E+00  0.00000000E+00
  0.00000000E+00  0.00000000E+00  0.00000000E+00
  0.00000000E+00  0.00000000E+00  0.00000000E+00
  0.00000000E+00  0.00000000E+00  0.00000000E+00
  0.00000000E+00  0.00000000E+00  0.00000000E+00
  0.00000000E+00  0.00000000E+00  0.00000000E+00
  0.00000000E+00  0.00000000E+00  0.00000000E+00
  0.00000000E+00  0.00000000E+00  0.00000000E+00
  0.00000000E+00  0.00000000E+00  0.00000000E+00
  0.00000000E+00  0.00000000E+00  0.00000000E+00
  0.00000000E+00  0.00000000E+00  0.00000000E+00
  0.00000000E+00  0.00000000E+00  0.00000000E+00
  0.00000000E+00  0.00000000E+00  0.00000000E+00
  0.00000000E+00  0.00000000E+00  0.00000000E+00
  0.00000000E+00  0.00000000E+00  0.00000000E+00
