TiOF2 2x2x2 config 0254                 
   1.00000000000000     
     7.8584232526297724   -0.0000000032947475    0.0000000071469889
     0.0000000015568140    7.6492180412265922    0.0000000085248381
     0.0000000110852747    0.0000000065615883    7.6517541514339982
   Ti   O    F 
     8     8    16
Direct
  0.0000000033086849  0.9886226886204668  0.9887049132479220
  0.9999999966701481  0.9886226962799611  0.5112951039723299
  0.9999999997447304  0.5112727959931291  0.9880925675980308
  0.0000000002692389  0.5112728021554389  0.5119074182598382
  0.5000000047490474  0.9887418583408518  0.9879127344457359
  0.4999999952107856  0.9887418550902538  0.5120872567829196
  0.5000000008744365  0.5111958453458811  0.0125943028616433
  0.4999999991587032  0.5111958416920785  0.4874057009038708
  0.0000000011001191  0.7500035411671178  0.0064139464064752
  0.9999999989007904  0.7500035421313811  0.4935860576025775
  0.5000000022347990  0.7500095853434772  0.9995570092804158
  0.4999999977528944  0.7500095861247402  0.5004429922888249
  0.9999999999732765  0.0058372228425370  0.7500000089261505
  0.0000000000218563  0.4941094784089586  0.7499999944138693
  0.4999999999650555  0.0047561123274491  0.7499999955077783
  0.5000000000227374  0.4954328206249770  0.2499999990137667
  0.2500004502325623  0.0061447167080431  0.0065231164892765
  0.2500004436028647  0.0061447103290959  0.4934768841809500
  0.2500177075998025  0.4937654893697072  0.9994314748342745
  0.2500177071557914  0.4937654920749708  0.5005685225756622
  0.7499995563982012  0.0061447062085094  0.0065231167108593
  0.7499995497263470  0.0061447208420375  0.4934768844120114
  0.7499822933420006  0.4937654998968526  0.9994314750317841
  0.7499822919410377  0.4937654815174355  0.5005685227806467
  0.9999999836487916  0.2500588327747977  0.0086444048068657
  0.0000000163999587  0.2500588347106429  0.4913555977537172
  0.5000000208403037  0.2500690430315018  0.9996959646853512
  0.4999999791352110  0.2500690404209749  0.5003040340247580
  0.0000000000153904  0.0084018555653245  0.2499999983277519
  0.0000000000005187  0.4917928893475292  0.2500000029183340
  0.5000000000322018  0.0091116800105269  0.2500000000089813
  0.4999999999717204  0.4909687347033440  0.7499999989466417
 
  0.00000000E+00  0.00000000E+00  0.00000000E+00
  0.00000000E+00  0.00000000E+00  0.00000000E+00
  0.00000000E+00  0.00000000E+00  0.00000000E+00
  0.00000000E+00  0.00000000E+00  0.00000000E+00
  0.00000000E+00  0.00000000E+00  0.00000000E+00
  0.00000000E+00  0.00000000E+00  0.00000000E+00
  0.00000000E+00  0.00000000E+00  0.00000000E+00
  0.00000000E+00  0.00000000E+00  0.00000000E+00
  0.00000000E+00  0.00000000E+00  0.00000000E+00
  0.00000000E+00  0.00000000E+00  0.00000000E+00
  0.00000000E+00  0.00000000E+00  0.00000000E+00
  0.00000000E+00  0.00000000E+00  0.00000000E+00
  0.00000000E+00  0.00000000E+00  0.00000000E+00
  0.00000000E+00  0.00000000E+00  0.00000000E+00
  0.00000000E+00  0.00000000E+00  0.00000000E+00
  0.00000000E+00  0.00000000E+00  0.00000000E+00
  0.00000000E+00  0.00000000E+00  0.00000000E+00
  0.00000000E+00  0.00000000E+00  0.00000000E+00
  0.00000000E+00  0.00000000E+00  0.00000000E+00
  0.00000000E+00  0.00000000E+00  0.00000000E+00
  0.00000000E+00  0.00000000E+00  0.00000000E+00
  0.00000000E+00  0.00000000E+00  0.00000000E+00
  0.00000000E+00  0.00000000E+00  0.00000000E+00
  0.00000000E+00  0.00000000E+00  0.00000000E+00
  0.00000000E+00  0.00000000E+00  0.00000000E+00
  0.00000000E+00  0.00000000E+00  0.00000000E+00
  0.00000000E+00  0.00000000E+00  0.00000000E+00
  0.00000000E+00  0.00000000E+00  0.00000000E+00
  0.00000000E+00  0.00000000E+00  0.00000000E+00
  0.00000000E+00  0.00000000E+00  0.00000000E+00
  0.00000000E+00  0.00000000E+00  0.00000000E+00
  0.00000000E+00  0.00000000E+00  0.00000000E+00
