TiOF2 2x2x2 config 0254                 
   1.00000000000000     
     7.8584232526297724   -0.0000000032947475    0.0000000071469889
     0.0000000015568140    7.6492180412265922    0.0000000085248381
     0.0000000110852747    0.0000000065615883    7.6517541514339982
   Ti   O    F 
     8     8    16
Direct
  0.0000000033086866 -0.0113773113795357 -0.0112950867520771
 -0.0000000033298531 -0.0113773037200386  0.5112951039723267
 -0.0000000002552691  0.5112727959931325 -0.0119074324019701
  0.0000000002692410  0.5112728021554364  0.5119074182598402
  0.5000000047490444 -0.0112581416591483 -0.0120872655542624
  0.4999999952107827 -0.0112581449097474  0.5120872567829171
  0.5000000008744341  0.5111958453458840  0.0125943028616402
  0.4999999991586997  0.5111958416920783  0.4874057009038718
  0.0000000011001220  0.7500035411671199  0.0064139464064772
 -0.0000000010992061  0.7500035421313805  0.4935860576025741
  0.5000000022347962  0.7500095853434757 -0.0004429907195817
  0.4999999977528910  0.7500095861247391  0.5004429922888254
 -0.0000000000267242  0.0058372228425346  0.7500000089261472
  0.0000000000218569  0.4941094784089581  0.7499999944138672
  0.4999999999650578  0.0047561123274484  0.7499999955077752
  0.5000000000227374  0.4954328206249801  0.2499999990137654
  0.2500004502325611  0.0061447167080419  0.0065231164892759
  0.2500004436028644  0.0061447103290932  0.4934768841809515
  0.2500177075998025  0.4937654893697077 -0.0005685251657251
  0.2500177071557942  0.4937654920749719  0.5005685225756626
  0.7499995563982035  0.0061447062085092  0.0065231167108581
  0.7499995497263494  0.0061447208420403  0.4934768844120133
  0.7499822933419972  0.4937654998968539 -0.0005685249682187
  0.7499822919410360  0.4937654815174361  0.5005685227806441
 -0.0000000163512105  0.2500588327747983  0.0086444048068676
  0.0000000163999605  0.2500588347106454  0.4913555977537202
  0.5000000208403015  0.2500690430315022 -0.0003040353146488
  0.4999999791352139  0.2500690404209716  0.5003040340247585
  0.0000000000153905  0.0084018555653229  0.2499999983277501
  0.0000000000005180  0.4917928893475322  0.2500000029183337
  0.5000000000322016  0.0091116800105289  0.2500000000089788
  0.4999999999717178  0.4909687347033453  0.7499999989466422
 
  0.00000000E+00  0.00000000E+00  0.00000000E+00
  0.00000000E+00  0.00000000E+00  0.00000000E+00
  0.00000000E+00  0.00000000E+00  0.00000000E+00
  0.00000000E+00  0.00000000E+00  0.00000000E+00
  0.00000000E+00  0.00000000E+00  0.00000000E+00
  0.00000000E+00  0.00000000E+00  0.00000000E+00
  0.00000000E+00  0.00000000E+00  0.00000000E+00
  0.00000000E+00  0.00000000E+00  0.00000000E+00
  0.00000000E+00  0.00000000E+00  0.00000000E+00
  0.00000000E+00  0.00000000E+00  0.00000000E+00
  0.00000000E+00  0.00000000E+00  0.00000000E+00
  0.00000000E+00  0.00000000E+00  0.00000000E+00
  0.00000000E+00  0.00000000E+00  0.00000000E+00
  0.00000000E+00  0.00000000E+00  0.00000000E+00
  0.00000000E+00  0.00000000E+00  0.00000000E+00
  0.00000000E+00  0.00000000E+00  0.00000000E+00
  0.00000000E+00  0.00000000E+00  0.00000000E+00
  0.00000000E+00  0.00000000E+00  0.00000000E+00
  0.00000000E+00  0.00000000E+00  0.00000000E+00
  0.00000000E+00  0.00000000E+00  0.00000000E+00
  0.00000000E+00  0.00000000E+00  0.00000000E+00
  0.00000000E+00  0.00000000E+00  0.00000000E+00
  0.00000000E+00  0.00000000E+00  0.00000000E+00
  0.00000000E+00  0.00000000E+00  0.00000000E+00
  0.00000000E+00  0.00000000E+00  0.00000000E+00
  0.00000000E+00  0.00000000E+00  0.00000000E+00
  0.00000000E+00  0.00000000E+00  0.00000000E+00
  0.00000000E+00  0.00000000E+00  0.00000000E+00
  0.00000000E+00  0.00000000E+00  0.00000000E+00
  0.00000000E+00  0.00000000E+00  0.00000000E+00
  0.00000000E+00  0.00000000E+00  0.00000000E+00
  0.00000000E+00  0.00000000E+00  0.00000000E+00
