TiOF2 2x2x2 config 2152                 
   1.00000000000000     
     7.8462586026889198   -0.0014752376565261   -0.0312048196605478
    -0.0015189980698809    7.7638527557337866   -0.0103818875123442
    -0.0307252647700846   -0.0103157154035568    7.7568941007770071
   Ti   O    F 
     8     8    16
Direct
  0.0000857667071941  0.0010340845041767  0.0008385473952686
  0.9975103145018949  0.9797790844837451  0.5000720170563682
  0.0008875397845003  0.5003475410822631  0.9778896914724839
  0.0158713060022038  0.5006447042093853  0.4986607057052481
  0.5000038188226341  0.0015588612622395  0.0023624727512512
  0.4974171157111513  0.9955077782213948  0.5025375630805300
  0.5025282224339733  0.5016490964152212  0.9949785038276602
  0.4991728769104000  0.4889720211110955  0.4931227799565718
  0.2425763572885700  0.4978247971990726  0.4970675798171698
  0.7500450372556458  0.4969351304666390  0.4927304086417266
  0.9996309071646010  0.7574889660762878  0.4970012923833309
  0.4971527608030613  0.2401907095419276  0.5033877638102311
  0.4957369110884500  0.7658133806242660  0.5018465431601129
  0.9967276879037996  0.4977143882286583  0.7541939212700086
  0.5084181359561626  0.5011742939323582  0.2430914679047049
  0.5031754115461595  0.4999769971435200  0.7652553129804431
  0.2578248658569890  0.0005297023370545  0.0004719045309329
  0.2423702099418250  0.0075540251951338  0.5019145547303623
  0.2484043596639722  0.5014259074703702  0.0069604166407728
  0.7420540261444586  0.0005221119260952  0.0011309050487753
  0.7527949881184099  0.0053899075929849  0.5017756014463828
  0.7551160844762421  0.5018219781531741  0.0052090010357091
  0.0018437803291889  0.2532779330078796  0.0048124721925831
  0.9978180405289905  0.2403624168120331  0.4978303685202050
  0.0019324107778402  0.7483886007131204  0.0039569924390648
  0.4994103083956674  0.2421105987464784  0.0027232966928779
  0.4994569443728309  0.7606770135447434  0.0022383239860133
  0.9981866299158924  0.0047305009820420  0.2480044784084896
  0.9986203455926415  0.0038989279552197  0.7532303944098402
  0.9973071045569384  0.4990809568840575  0.2401666748564040
  0.5004394653910893  0.0021183270587528  0.2420405690632208
  0.4994802660566293  0.0014992571186099  0.7624974747852633
 
  0.00000000E+00  0.00000000E+00  0.00000000E+00
  0.00000000E+00  0.00000000E+00  0.00000000E+00
  0.00000000E+00  0.00000000E+00  0.00000000E+00
  0.00000000E+00  0.00000000E+00  0.00000000E+00
  0.00000000E+00  0.00000000E+00  0.00000000E+00
  0.00000000E+00  0.00000000E+00  0.00000000E+00
  0.00000000E+00  0.00000000E+00  0.00000000E+00
  0.00000000E+00  0.00000000E+00  0.00000000E+00
  0.00000000E+00  0.00000000E+00  0.00000000E+00
  0.00000000E+00  0.00000000E+00  0.00000000E+00
  0.00000000E+00  0.00000000E+00  0.00000000E+00
  0.00000000E+00  0.00000000E+00  0.00000000E+00
  0.00000000E+00  0.00000000E+00  0.00000000E+00
  0.00000000E+00  0.00000000E+00  0.00000000E+00
  0.00000000E+00  0.00000000E+00  0.00000000E+00
  0.00000000E+00  0.00000000E+00  0.00000000E+00
  0.00000000E+00  0.00000000E+00  0.00000000E+00
  0.00000000E+00  0.00000000E+00  0.00000000E+00
  0.00000000E+00  0.00000000E+00  0.00000000E+00
  0.00000000E+00  0.00000000E+00  0.00000000E+00
  0.00000000E+00  0.00000000E+00  0.00000000E+00
  0.00000000E+00  0.00000000E+00  0.00000000E+00
  0.00000000E+00  0.00000000E+00  0.00000000E+00
  0.00000000E+00  0.00000000E+00  0.00000000E+00
  0.00000000E+00  0.00000000E+00  0.00000000E+00
  0.00000000E+00  0.00000000E+00  0.00000000E+00
  0.00000000E+00  0.00000000E+00  0.00000000E+00
  0.00000000E+00  0.00000000E+00  0.00000000E+00
  0.00000000E+00  0.00000000E+00  0.00000000E+00
  0.00000000E+00  0.00000000E+00  0.00000000E+00
  0.00000000E+00  0.00000000E+00  0.00000000E+00
  0.00000000E+00  0.00000000E+00  0.00000000E+00
