TiOF2 2x2x2 config 1539                 
   1.00000000000000     
     7.7432818009702125    0.0000000077237808    0.0000000222251651
    -0.0000000200844195    7.6471479449575428   -0.0000000006449798
     0.0000000181114509   -0.0000000036218007    7.7432822228081095
   Ti   O    F 
     8     8    16
Direct
  0.0003375226741369  0.9887919678371873  0.9874198693384528
  0.0003375467495061  0.9887919210462641  0.5125801529896705
  0.9874191062865734  0.5112073130880077  0.0003376374493698
  0.9874192263389219  0.5112072912560279  0.4996623532668849
  0.4996625142481861  0.9887918372003455  0.9874197914179064
  0.4996624833990637  0.9887919788018351  0.5125800614481406
  0.5125807114429222  0.5112072460870607  0.0003376871304255
  0.5125808201654323  0.5112073534266557  0.4996623723340576
  0.7500003135140005  0.4974494125451017  0.9993228136534285
  0.7499999483868223  0.4974494054341392  0.5006772146113221
  0.0019834920583222  0.7500017188503278  0.0019838465533653
  0.0019835192686415  0.7500019483582676  0.4980161474069789
  0.4980164937963565  0.7500023426853559  0.0019838227636768
  0.4980165116988573  0.7500017054910586  0.4980161665127412
  0.9993228398218150  0.0025505555509824  0.7499999298627742
  0.5006772135989550  0.0025505849313632  0.7500003568714249
  0.2500001595562651  0.0094522084599049  0.0082505713277854
  0.2499999208290475  0.0094522284587981  0.4917493752999818
  0.2499998538858677  0.4944798028136006  0.9992914426303585
  0.2500000320812958  0.4944797429970578  0.5007085543205250
  0.7499998504829719  0.0110551027535450  0.0081253727184034
  0.7500001160305203  0.0110553142052865  0.4918745661397921
  0.0036734906523108  0.2499995393037509  0.0036731897690458
  0.0036735118591906  0.2499994401614174  0.4963268009858766
  0.4963265051695203  0.2499993088777970  0.0036731872771441
  0.4963265226676938  0.2499995645435646  0.4963268099665044
  0.9992917350976924  0.0055217219388268  0.2500000470449990
  0.0082519552346980  0.4905478660690861  0.2499999261437296
  0.0081265934438974  0.4889420309356893  0.7500000671277647
  0.5007082982441631  0.0055217501896081  0.2499998229797242
  0.4917478974461531  0.4905479537606325  0.2500001347909802
  0.4918732938701922  0.4889418419414469  0.7499999078667585
 
  0.00000000E+00  0.00000000E+00  0.00000000E+00
  0.00000000E+00  0.00000000E+00  0.00000000E+00
  0.00000000E+00  0.00000000E+00  0.00000000E+00
  0.00000000E+00  0.00000000E+00  0.00000000E+00
  0.00000000E+00  0.00000000E+00  0.00000000E+00
  0.00000000E+00  0.00000000E+00  0.00000000E+00
  0.00000000E+00  0.00000000E+00  0.00000000E+00
  0.00000000E+00  0.00000000E+00  0.00000000E+00
  0.00000000E+00  0.00000000E+00  0.00000000E+00
  0.00000000E+00  0.00000000E+00  0.00000000E+00
  0.00000000E+00  0.00000000E+00  0.00000000E+00
  0.00000000E+00  0.00000000E+00  0.00000000E+00
  0.00000000E+00  0.00000000E+00  0.00000000E+00
  0.00000000E+00  0.00000000E+00  0.00000000E+00
  0.00000000E+00  0.00000000E+00  0.00000000E+00
  0.00000000E+00  0.00000000E+00  0.00000000E+00
  0.00000000E+00  0.00000000E+00  0.00000000E+00
  0.00000000E+00  0.00000000E+00  0.00000000E+00
  0.00000000E+00  0.00000000E+00  0.00000000E+00
  0.00000000E+00  0.00000000E+00  0.00000000E+00
  0.00000000E+00  0.00000000E+00  0.00000000E+00
  0.00000000E+00  0.00000000E+00  0.00000000E+00
  0.00000000E+00  0.00000000E+00  0.00000000E+00
  0.00000000E+00  0.00000000E+00  0.00000000E+00
  0.00000000E+00  0.00000000E+00  0.00000000E+00
  0.00000000E+00  0.00000000E+00  0.00000000E+00
  0.00000000E+00  0.00000000E+00  0.00000000E+00
  0.00000000E+00  0.00000000E+00  0.00000000E+00
  0.00000000E+00  0.00000000E+00  0.00000000E+00
  0.00000000E+00  0.00000000E+00  0.00000000E+00
  0.00000000E+00  0.00000000E+00  0.00000000E+00
  0.00000000E+00  0.00000000E+00  0.00000000E+00
