config 24                               
   1.00000000000000     
    15.4263309999999993    0.0000000000000000    0.0000000000000000
     0.0000000000000000   15.4263309999999993    0.0000000000000000
     0.0000000000000000    0.0000000000000000   15.4263309999999993
   Li   Ti   O    F 
     1    64    64   128
Direct
  0.3743841036535566  0.4101456016879638  0.9031377717304238
  0.9961698645992448  0.9948526193782300  0.9944171428348439
  0.9986288742633473  0.9913763113377669  0.4937282582749488
  0.0051206285448058  0.4959401905025567  0.9964076825730234
  0.9943883521823972  0.5037745513651150  0.5076291411261296
  0.4949066554239908  0.9936964311542091  0.0001476441847908
  0.5017750232771638  0.0049167849023485  0.4982442229673212
  0.5084442850427908  0.4973838541964083  0.9968857396190776
  0.4912794778137388  0.4968365220682335  0.4964563841625815
  0.0068392272879711  0.0036128440620036  0.2556586440828573
  0.0025733019000831  0.0070268992567071  0.7569381834373876
  0.9937893026471263  0.4928098212291409  0.2505063882942727
  0.9930351993199539  0.4994486097693098  0.7406762488544162
  0.5058844158564026  0.0082601666386356  0.2511071414888498
  0.4926228065029898  0.0046181792894340  0.7525325986452426
  0.4923039158812615  0.4949392474096119  0.2579739100411888
  0.5011381998141275  0.5036654043098541  0.7588665188796014
  0.9954543814358936  0.2580426673198365  0.0013468221507491
  0.9986399135975398  0.2480145622690703  0.4914775781641693
  0.9982878147176719  0.7580548816558498  0.0061208933352232
  0.9962537160727505  0.7570851973842595  0.5056651865730781
  0.4959888963603662  0.2587119470207224  0.0016672767826278
  0.5095339214304749  0.2414568520604499  0.4975271218519417
  0.5076808514047807  0.7566253945417647  0.0001749597445164
  0.5072634720255806  0.7511874500148937  0.5086544429174967
 -0.0000733393939027  0.2585047350291723  0.2552832120098750
  0.0070052614781155  0.2425611795639673  0.7472101401959905
  0.0062894872141181  0.7478023818653107  0.2430374259372310
  0.9928461421351923  0.7497466205663093  0.7428211966442637
  0.5070212383298619  0.2402635299933378  0.2528505548179728
  0.5079159298777567  0.2420191967848916  0.7494422416120017
  0.5060698160999825  0.7507092050655262  0.2512462622864223
  0.5023783893010390  0.7411635623248002  0.7440486784683101
  0.2571551273706203  0.9977722111195302  0.0053818800258715
  0.2526683267740799  0.9943692250338685  0.5063816591925211
  0.2409143545622681  0.5104072249593208  0.9987734060972626
  0.2548210605167809  0.4949517528837133  0.5065152102770983
  0.7569435066749889  0.0003278838598312  0.9939704937231139
  0.7484490200536036  0.0086698992644825  0.4951844443465560
  0.7433934769270718  0.5009273728835869  0.0046306350936501
  0.7556251614430309  0.4982942454635585  0.5062156545033074
  0.2449702306672135  0.0030008748183163  0.2430868393112440
  0.2589723628208430  0.9974612190141262  0.7444417035149420
  0.2550421920642442  0.4917325755011309  0.2516341935260347
  0.2454173595883932  0.5056601524130058  0.7399859790198532
  0.7441397554080982  0.0022554848398400  0.2558691767691932
  0.7474674375509011  0.0068929127310564  0.7558903486682373
  0.7551835870760532  0.4977832322640793  0.2421683203298195
  0.7575207672733605  0.4978608414639352  0.7420481877353509
  0.2564236585493050  0.2512706671231744  0.0058187421723831
  0.2542694670780587  0.2567753719654577  0.5048439094110547
  0.2523537439816575  0.7436440156927060  0.9938854145863495
  0.2527240021693230  0.7561251624743516  0.4934923066538288
  0.7571810865701701  0.2523893191047517  0.0076727981160027
  0.7406117455426631  0.2437837598977861  0.4983506957291414
  0.7413701597924239  0.7486665661942548  0.9943940337812970
  0.7416509136186497  0.7533284790782047  0.4943338281720099
  0.2507095704360948  0.2578577746429292  0.2438120447452614
  0.2443148641422269  0.2505606782793400  0.7425706522730695
  0.2434677027169629  0.7475404375435023  0.2564160299561640
  0.2477479491389244  0.7412714349764987  0.7571410820717918
  0.7416808891084957  0.2509444549992327  0.2424552749553193
  0.7445719940350302  0.2421990283941685  0.7502571188046501
  0.7450511232348984  0.7496730869230044  0.2571073695239490
  0.7577685338878281  0.7494765076525737  0.7570270868160348
  0.0154474686293743  0.5028885321101477  0.6245735487996108
  1.0007719339830530  0.0045777441175822  0.3759777322531686
  0.0058555774701760  0.0011710747346823  0.8730653013952148
  0.4927596375768215  0.4875399186178229  0.3754140480897286
  0.4804425816734073  0.4843770882577351  0.8754519322338226
  0.9989569535507266  0.7440003568895508  0.1253839909548880
  0.0023752973036484  0.7444811616127338  0.6241500435294894
  0.5032799039234084  0.7429254312816856  0.6253361455673657
  0.9958753108479798  0.2484174643592907  0.3760399867371715
  0.2589930485541633  0.0040845815879944  0.1244394922615308
  0.2609079892670156  0.0051404979242127  0.6257169427888385
  0.2328412777325820  0.4962280572179788  0.6256655759723413
  0.7425450160729400  0.4882207641551837  0.1242771541952968
  0.7399197585017971  0.4895494907981597  0.6248071080245214
  0.7471600583006125  0.0046662973535388  0.3752923974356791
  0.7411944791487203  0.0035748986495944  0.8738945083608936
  0.2476496225654810  0.2498695940702610  0.1246642792426647
  0.2546070590497513  0.2485369302638746  0.6246855409020384
  0.7429492344427361  0.2646167355852466  0.1259630735048919
  0.2548813132221175  0.7465504212080487  0.3747757710311997
  0.2523596510119798  0.7540546537080222  0.8757693689871745
  0.7516527758732611  0.7469655540993311  0.3743879198671275
  0.7489480612763004  0.7465541414031448  0.8758882184702265
  0.1238315188977433  0.5116162866890772  0.9851057329565448
  0.6265471762380251  0.5135802028280062  0.9889799806835978
  0.1252217201030579  0.0093300581622566  0.2461315274156633
  0.6249384749515566  0.0096238756280073  0.2437457840363618
  0.6262895687626645  0.2690212900162688  0.4962945713704804
  0.6241692580604855  0.7346579969907321  0.0027375259341373
  0.6243556151601320  0.7685127980547921  0.4961809794703202
  0.1253497357854704  0.2552032752384028  0.7478774709135787
  0.1247813037573331  0.7449321316105399  0.2524841242652210
  0.6253494847412133  0.2374782572700462  0.2587334992425926
  0.6262586099618555  0.2557292446055030  0.7460762049248230
  0.6221732775961245  0.7470391248091522  0.2510973973796997
  0.3765481362564157  0.9926529679744102  0.9884952875775432
  0.3753424848200334  0.5123158423871518  0.5102441605712521
  0.8732847869616023  0.9955860583032153  0.9949028342121475
  0.8753191381195815  0.5124985102181783  0.5075799295634333
  0.3758885853151596  0.9988515936067898  0.7658427646631686
  0.3732592508809130  0.4895118655133113  0.2420444646682573
  0.8748856943843802  0.4900066055885621  0.2438939881939396
  0.8755098255366971  0.5107067125182486  0.7378405380065481
  0.3757018631802317  0.2610993622009090  0.9974272355538268
  0.8746964261252062  0.2557599855599740  0.0047799062849408
  0.8749225820757309  0.7394065467229668  0.7487040240454993
  0.5205996774389016  0.1268596419260975  0.4865149675860842
  1.0007239883103494  0.1260378752073211  0.7452246732610481
  0.4886972165759190  0.1250403117819440  0.2687635792925704
  0.5047118984587692  0.1238234353760087  0.7574991015462861
  0.5047469211886885  0.6234691030399973  0.7595696207517681
  0.0068424444867106  0.3763660156760835  0.0046653065779353
  0.0087214995666650  0.8746903555933658  0.0027027647195131
  0.9824888963672809  0.8746537806407216  0.4995412117949316
  0.5085945682563858  0.3751852221424647  0.0111208665472708
  0.5105672154994808  0.8747911183995308  0.0114786077818589
  0.0133901398826943  0.3742170011809092  0.2462520136840105
  0.2634795875168462  0.6251780594902164  0.0003747191997847
  0.7316137902295875  0.1256310576092192  0.5077312261279909
  0.2440843010015061  0.6233994521090571  0.7544889055555102
  0.7485134644460379  0.1249016554180719  0.7405692866430948
  0.2610213737361766  0.3737520345908050  0.4950217746039046
  0.2635733034376332  0.8751947088728385  0.5012610759482324
  0.2360827126227218  0.3742959658640406  0.2555620690749406
  0.9957100333453780  0.0039434891323454  0.1261016883959050
  0.9978304232601974  0.9984040301980781  0.6238693794427432
  0.0083595165316490  0.5101787602766948  0.1243767719764684
  0.4879896646282129  0.0151456363594811  0.1258088638485690
  0.4878551960821285  0.0027138862249689  0.6280019976365521
  0.5057896239745643  0.5127239411386657  0.1257834700057784
  0.5132629058651877  0.5051833227382498  0.6261132544591950
  0.9942323169625211  0.4946521133787288  0.3757631801249841
  0.9864511993705550  0.4960801219575227  0.8726122620008010
  0.5099327251486281  0.9764612003117880  0.3709259583729901
  0.5204218991816127  0.9910612420823792  0.8759026444867423
  0.0076830415422065  0.2450806190533528  0.1268753383893719
  0.9982983756035785  0.2572228679852776  0.6215001164950296
  0.5032840705936636  0.2329576643675878  0.1265904966384767
  0.4949005695350535  0.2403470853467291  0.6231749355661994
  0.4955071451246948  0.7349379929165377  0.1263033607033356
  0.9972291917347202  0.2523301905868646  0.8743229957104117
  0.9933145277010895  0.7510199668691812  0.3750902211202753
  0.0006069080567543  0.7514638371520735  0.8740938843526743
  0.4935484832109487  0.2710841789612853  0.3746365864277864
  0.5019059079215017  0.2637486683729452  0.8742467902749390
  0.4922619756758116  0.7605516930566698  0.3749482781464429
  0.4976851213288122  0.7578858997723463  0.8749834733609316
  0.2361094486667458  0.4948069868278520  0.1241271919738535
  0.7540823574569815  0.9977200158860924  0.1257012141508932
  0.7559587348007497  0.9920056571803068  0.6239298482759417
  0.2444625300330563  0.0002283314135584  0.3746340646025147
  0.2377781687263351  0.9923443519873761  0.8747657581010103
  0.2552510454593588  0.5108316254153300  0.3750839508053891
  0.2731347390674073  0.4904481352450486  0.8749397798035349
  0.7528299646820544  0.5094612166263220  0.3743164167085130
  0.7612276646710286  0.5101748393383837  0.8745520803772852
  0.2504992157605196  0.7529413348242663  0.1246687578433097
  0.2481047703975764  0.7475214635078574  0.6256786383586027
  0.7547523437460842  0.2645926473171800  0.6235867198919001
  0.7514908936255240  0.7527270913853259  0.1257505017868887
  0.7469744211215539  0.7522889243308082  0.6247243640847392
  0.2519204286659721  0.2442028181230896  0.3737548527909491
  0.2515495452578776  0.2548342459386609  0.8746499509422317
  0.7610123711815436  0.2401455267213629  0.3736421065953884
  0.7513402069930277  0.2402417338769130  0.8764099618574293
  0.1266428614452598  0.0089277561095353  0.0064974531719923
  0.1247124619535219  0.9870926841283356  0.5050435341154160
  0.1231240138614345  0.4893223398271358  0.4860508555919730
  0.6244938993208479  0.0096217899242382  0.0122566169035483
  0.6292412388130254  0.9740426315785387  0.5086079881373089
  0.6257309166630064  0.4855305772011403  0.4925045302239198
  0.1273000252799940  0.9964297469728967  0.7413578692974940
  0.1236647577844274  0.5126654060810752  0.2562136361558087
  0.1239906051331553  0.4888599514658339  0.7699101131754098
  0.6239636802096699  0.9918675324964332  0.7363425110054895
  0.6242048833496375  0.5060356696668354  0.2547980907832645
  0.6260760121473290  0.4894937668161752  0.7654940809377694
  0.1257703615070089  0.2452643993376656  0.9946194916253128
  0.1234744078924131  0.2614180752991551  0.4991042300863089
  0.1251733827305717  0.7364415549850529 -0.0002758041659696
  0.1238821868875797  0.7633871142273119  0.4954479800752527
  0.6258187748859003  0.2437612482425106  0.9958714339477127
  0.1247020807796037  0.2317055768583217  0.2547386773792186
  0.1235980047089680  0.7567366574692467  0.7522752464322995
  0.6262904560473985  0.7562971514257961  0.7518164344598125
  0.3728405946470072  0.0199698016581664  0.4862004426772103
  0.3719644617312615  0.4823286327181153  0.0081660653738030
  0.8751081921828316  0.0208714434708690  0.5019906171287386
  0.8745241203065478  0.4914036151869123  0.0068082865439439
  0.3762999259459602  0.9903817040488784  0.2588347464777155
  0.3744941182571139  0.5017391409865917  0.7346323868493300
  0.8741260102906206  0.9933739345878000  0.2503779089952139
  0.8746575922197655  0.9969739219471131  0.7508466631130695
  0.3780820100618776  0.2334655155421252  0.4950274511401674
  0.3763140307559797  0.7637403908549260  0.0031068100898888
  0.3772915038801280  0.7325026573307776  0.5030206718363980
  0.8752931566605141  0.2349379677152833  0.5041681003113864
  0.8719166048445528  0.7621979863693701  0.9994568966765058
  0.8722639282307106  0.7314999326692918  0.5040065483840326
  0.3774941964772941  0.2639044469223716  0.2468146564454490
  0.3765950655178089  0.2475124757452664  0.7555138890304447
  0.3762018129496201  0.7538368255637186  0.2463560519673655
  0.3752038006705086  0.7489621284881157  0.7481236069045335
  0.8743038824813903  0.2640956871085759  0.2445208445601183
  0.8750828682541620  0.2511550536610980  0.7489319547500403
  0.8731299702654276  0.7541429541255719  0.2485678896775102
  0.9981479336349509  0.1277784129357686 -0.0002738731139419
  0.0141710257767500  0.1258680850475130  0.5074826766196393
  0.9863162817558025  0.6248770602598637  0.9931416911378811
  0.0134654739832481  0.6264831004385731  0.4911742391676456
  0.4966468512597469  0.1259148524739830  0.9893928191406084
  0.4832050297824794  0.6256172056283973  0.9918951172518382
  0.5159076888113325  0.6250366082381391  0.4900515244649384
  0.9852937626463669  0.1282329137934333  0.2473710328277921
  0.9908715008972584  0.6228375720597438  0.2580162366391677
  0.0145517029693954  0.6238578266726696  0.7574252013636671
  0.4933583890638918  0.6250396047240426  0.2616540881895220
  0.9876795189055758  0.3740988185744181  0.4999098617746700
  0.4843797520274267  0.3723188359807371  0.5133175363425189
  0.4792750670838712  0.8746089469461615  0.5065813275391181
  0.9929402623054419  0.3748737751426686  0.7491311652409607
  0.0021738787901720  0.8758796226028081  0.2493836148417758
  0.9965938769580247  0.8749192697096247  0.7466339839626708
  0.5112796362957186  0.3717298329039663  0.2345199736770002
  0.4926676973564285  0.3734287756485853  0.7392695790299179
  0.5022013910657882  0.8747242171186994  0.2329271382222463
  0.4991494326181241  0.8732330537989943  0.7482732637150269
  0.2554708428363185  0.1252998837344602  0.9910686136848267
  0.2345543521245608  0.1251572452721744  0.4969996317465634
  0.2358841502337767  0.6260887189967361  0.5036107065139576
  0.7517661762602251  0.1267633014578279  0.0093897281870807
  0.7673190562982820  0.6252424882860250  0.0091880444843365
  0.7335153097297844  0.6254535428249501  0.5053751863352649
  0.2655971374531518  0.1269573615322290  0.2527250382327359
  0.2480978751212427  0.1243291693431938  0.7595968254069593
  0.2567841834036992  0.6230400441749424  0.2404390098982059
  0.7665328340444351  0.1271557587542468  0.2410332021578648
  0.7541760374908087  0.6244831406048008  0.2416441634778733
  0.7355980297977407  0.6240532740951810  0.7436497079099501
  0.2428363274465686  0.3769724605770121  0.9945670604674339
  0.2379030036297040  0.8735357413601067  0.0050437059365355
  0.7413710801162031  0.3756712379139011  0.9826690317925133
  0.7683045954933020  0.3733476605788534  0.4874242670948152
  0.7360766205684652  0.8748026376162559  0.0020699275077000
  0.7716655021767450  0.8756114527204732  0.4980192630793587
  0.2608151989063733  0.3758532148696095  0.7557160046120793
  0.2469617396957868  0.8754235383160786  0.2496274341798013
  0.2509192055367552  0.8723363006767879  0.7437296133562156
  0.7386950335887229  0.3745024920529685  0.2683219895393861
  0.7586841330114125  0.3742907197375052  0.7627987117813291
  0.7455943226578768  0.8755250063754952  0.2491606619033731
  0.7541433841210592  0.8744179835353715  0.7499707896938154
 
  0.00000000E+00  0.00000000E+00  0.00000000E+00
  0.00000000E+00  0.00000000E+00  0.00000000E+00
  0.00000000E+00  0.00000000E+00  0.00000000E+00
  0.00000000E+00  0.00000000E+00  0.00000000E+00
  0.00000000E+00  0.00000000E+00  0.00000000E+00
  0.00000000E+00  0.00000000E+00  0.00000000E+00
  0.00000000E+00  0.00000000E+00  0.00000000E+00
  0.00000000E+00  0.00000000E+00  0.00000000E+00
  0.00000000E+00  0.00000000E+00  0.00000000E+00
  0.00000000E+00  0.00000000E+00  0.00000000E+00
  0.00000000E+00  0.00000000E+00  0.00000000E+00
  0.00000000E+00  0.00000000E+00  0.00000000E+00
  0.00000000E+00  0.00000000E+00  0.00000000E+00
  0.00000000E+00  0.00000000E+00  0.00000000E+00
  0.00000000E+00  0.00000000E+00  0.00000000E+00
  0.00000000E+00  0.00000000E+00  0.00000000E+00
  0.00000000E+00  0.00000000E+00  0.00000000E+00
  0.00000000E+00  0.00000000E+00  0.00000000E+00
  0.00000000E+00  0.00000000E+00  0.00000000E+00
  0.00000000E+00  0.00000000E+00  0.00000000E+00
  0.00000000E+00  0.00000000E+00  0.00000000E+00
  0.00000000E+00  0.00000000E+00  0.00000000E+00
  0.00000000E+00  0.00000000E+00  0.00000000E+00
  0.00000000E+00  0.00000000E+00  0.00000000E+00
  0.00000000E+00  0.00000000E+00  0.00000000E+00
  0.00000000E+00  0.00000000E+00  0.00000000E+00
  0.00000000E+00  0.00000000E+00  0.00000000E+00
  0.00000000E+00  0.00000000E+00  0.00000000E+00
  0.00000000E+00  0.00000000E+00  0.00000000E+00
  0.00000000E+00  0.00000000E+00  0.00000000E+00
  0.00000000E+00  0.00000000E+00  0.00000000E+00
  0.00000000E+00  0.00000000E+00  0.00000000E+00
  0.00000000E+00  0.00000000E+00  0.00000000E+00
  0.00000000E+00  0.00000000E+00  0.00000000E+00
  0.00000000E+00  0.00000000E+00  0.00000000E+00
  0.00000000E+00  0.00000000E+00  0.00000000E+00
  0.00000000E+00  0.00000000E+00  0.00000000E+00
  0.00000000E+00  0.00000000E+00  0.00000000E+00
  0.00000000E+00  0.00000000E+00  0.00000000E+00
  0.00000000E+00  0.00000000E+00  0.00000000E+00
  0.00000000E+00  0.00000000E+00  0.00000000E+00
  0.00000000E+00  0.00000000E+00  0.00000000E+00
  0.00000000E+00  0.00000000E+00  0.00000000E+00
  0.00000000E+00  0.00000000E+00  0.00000000E+00
  0.00000000E+00  0.00000000E+00  0.00000000E+00
  0.00000000E+00  0.00000000E+00  0.00000000E+00
  0.00000000E+00  0.00000000E+00  0.00000000E+00
  0.00000000E+00  0.00000000E+00  0.00000000E+00
  0.00000000E+00  0.00000000E+00  0.00000000E+00
  0.00000000E+00  0.00000000E+00  0.00000000E+00
  0.00000000E+00  0.00000000E+00  0.00000000E+00
  0.00000000E+00  0.00000000E+00  0.00000000E+00
  0.00000000E+00  0.00000000E+00  0.00000000E+00
  0.00000000E+00  0.00000000E+00  0.00000000E+00
  0.00000000E+00  0.00000000E+00  0.00000000E+00
  0.00000000E+00  0.00000000E+00  0.00000000E+00
  0.00000000E+00  0.00000000E+00  0.00000000E+00
  0.00000000E+00  0.00000000E+00  0.00000000E+00
  0.00000000E+00  0.00000000E+00  0.00000000E+00
  0.00000000E+00  0.00000000E+00  0.00000000E+00
  0.00000000E+00  0.00000000E+00  0.00000000E+00
  0.00000000E+00  0.00000000E+00  0.00000000E+00
  0.00000000E+00  0.00000000E+00  0.00000000E+00
  0.00000000E+00  0.00000000E+00  0.00000000E+00
  0.00000000E+00  0.00000000E+00  0.00000000E+00
  0.00000000E+00  0.00000000E+00  0.00000000E+00
  0.00000000E+00  0.00000000E+00  0.00000000E+00
  0.00000000E+00  0.00000000E+00  0.00000000E+00
  0.00000000E+00  0.00000000E+00  0.00000000E+00
  0.00000000E+00  0.00000000E+00  0.00000000E+00
  0.00000000E+00  0.00000000E+00  0.00000000E+00
  0.00000000E+00  0.00000000E+00  0.00000000E+00
  0.00000000E+00  0.00000000E+00  0.00000000E+00
  0.00000000E+00  0.00000000E+00  0.00000000E+00
  0.00000000E+00  0.00000000E+00  0.00000000E+00
  0.00000000E+00  0.00000000E+00  0.00000000E+00
  0.00000000E+00  0.00000000E+00  0.00000000E+00
  0.00000000E+00  0.00000000E+00  0.00000000E+00
  0.00000000E+00  0.00000000E+00  0.00000000E+00
  0.00000000E+00  0.00000000E+00  0.00000000E+00
  0.00000000E+00  0.00000000E+00  0.00000000E+00
  0.00000000E+00  0.00000000E+00  0.00000000E+00
  0.00000000E+00  0.00000000E+00  0.00000000E+00
  0.00000000E+00  0.00000000E+00  0.00000000E+00
  0.00000000E+00  0.00000000E+00  0.00000000E+00
  0.00000000E+00  0.00000000E+00  0.00000000E+00
  0.00000000E+00  0.00000000E+00  0.00000000E+00
  0.00000000E+00  0.00000000E+00  0.00000000E+00
  0.00000000E+00  0.00000000E+00  0.00000000E+00
  0.00000000E+00  0.00000000E+00  0.00000000E+00
  0.00000000E+00  0.00000000E+00  0.00000000E+00
  0.00000000E+00  0.00000000E+00  0.00000000E+00
  0.00000000E+00  0.00000000E+00  0.00000000E+00
  0.00000000E+00  0.00000000E+00  0.00000000E+00
  0.00000000E+00  0.00000000E+00  0.00000000E+00
  0.00000000E+00  0.00000000E+00  0.00000000E+00
  0.00000000E+00  0.00000000E+00  0.00000000E+00
  0.00000000E+00  0.00000000E+00  0.00000000E+00
  0.00000000E+00  0.00000000E+00  0.00000000E+00
  0.00000000E+00  0.00000000E+00  0.00000000E+00
  0.00000000E+00  0.00000000E+00  0.00000000E+00
  0.00000000E+00  0.00000000E+00  0.00000000E+00
  0.00000000E+00  0.00000000E+00  0.00000000E+00
  0.00000000E+00  0.00000000E+00  0.00000000E+00
  0.00000000E+00  0.00000000E+00  0.00000000E+00
  0.00000000E+00  0.00000000E+00  0.00000000E+00
  0.00000000E+00  0.00000000E+00  0.00000000E+00
  0.00000000E+00  0.00000000E+00  0.00000000E+00
  0.00000000E+00  0.00000000E+00  0.00000000E+00
  0.00000000E+00  0.00000000E+00  0.00000000E+00
  0.00000000E+00  0.00000000E+00  0.00000000E+00
  0.00000000E+00  0.00000000E+00  0.00000000E+00
  0.00000000E+00  0.00000000E+00  0.00000000E+00
  0.00000000E+00  0.00000000E+00  0.00000000E+00
  0.00000000E+00  0.00000000E+00  0.00000000E+00
  0.00000000E+00  0.00000000E+00  0.00000000E+00
  0.00000000E+00  0.00000000E+00  0.00000000E+00
  0.00000000E+00  0.00000000E+00  0.00000000E+00
  0.00000000E+00  0.00000000E+00  0.00000000E+00
  0.00000000E+00  0.00000000E+00  0.00000000E+00
  0.00000000E+00  0.00000000E+00  0.00000000E+00
  0.00000000E+00  0.00000000E+00  0.00000000E+00
  0.00000000E+00  0.00000000E+00  0.00000000E+00
  0.00000000E+00  0.00000000E+00  0.00000000E+00
  0.00000000E+00  0.00000000E+00  0.00000000E+00
  0.00000000E+00  0.00000000E+00  0.00000000E+00
  0.00000000E+00  0.00000000E+00  0.00000000E+00
  0.00000000E+00  0.00000000E+00  0.00000000E+00
  0.00000000E+00  0.00000000E+00  0.00000000E+00
  0.00000000E+00  0.00000000E+00  0.00000000E+00
  0.00000000E+00  0.00000000E+00  0.00000000E+00
  0.00000000E+00  0.00000000E+00  0.00000000E+00
  0.00000000E+00  0.00000000E+00  0.00000000E+00
  0.00000000E+00  0.00000000E+00  0.00000000E+00
  0.00000000E+00  0.00000000E+00  0.00000000E+00
  0.00000000E+00  0.00000000E+00  0.00000000E+00
  0.00000000E+00  0.00000000E+00  0.00000000E+00
  0.00000000E+00  0.00000000E+00  0.00000000E+00
  0.00000000E+00  0.00000000E+00  0.00000000E+00
  0.00000000E+00  0.00000000E+00  0.00000000E+00
  0.00000000E+00  0.00000000E+00  0.00000000E+00
  0.00000000E+00  0.00000000E+00  0.00000000E+00
  0.00000000E+00  0.00000000E+00  0.00000000E+00
  0.00000000E+00  0.00000000E+00  0.00000000E+00
  0.00000000E+00  0.00000000E+00  0.00000000E+00
  0.00000000E+00  0.00000000E+00  0.00000000E+00
  0.00000000E+00  0.00000000E+00  0.00000000E+00
  0.00000000E+00  0.00000000E+00  0.00000000E+00
  0.00000000E+00  0.00000000E+00  0.00000000E+00
  0.00000000E+00  0.00000000E+00  0.00000000E+00
  0.00000000E+00  0.00000000E+00  0.00000000E+00
  0.00000000E+00  0.00000000E+00  0.00000000E+00
  0.00000000E+00  0.00000000E+00  0.00000000E+00
  0.00000000E+00  0.00000000E+00  0.00000000E+00
  0.00000000E+00  0.00000000E+00  0.00000000E+00
  0.00000000E+00  0.00000000E+00  0.00000000E+00
  0.00000000E+00  0.00000000E+00  0.00000000E+00
  0.00000000E+00  0.00000000E+00  0.00000000E+00
  0.00000000E+00  0.00000000E+00  0.00000000E+00
  0.00000000E+00  0.00000000E+00  0.00000000E+00
  0.00000000E+00  0.00000000E+00  0.00000000E+00
  0.00000000E+00  0.00000000E+00  0.00000000E+00
  0.00000000E+00  0.00000000E+00  0.00000000E+00
  0.00000000E+00  0.00000000E+00  0.00000000E+00
  0.00000000E+00  0.00000000E+00  0.00000000E+00
  0.00000000E+00  0.00000000E+00  0.00000000E+00
  0.00000000E+00  0.00000000E+00  0.00000000E+00
  0.00000000E+00  0.00000000E+00  0.00000000E+00
  0.00000000E+00  0.00000000E+00  0.00000000E+00
  0.00000000E+00  0.00000000E+00  0.00000000E+00
  0.00000000E+00  0.00000000E+00  0.00000000E+00
  0.00000000E+00  0.00000000E+00  0.00000000E+00
  0.00000000E+00  0.00000000E+00  0.00000000E+00
  0.00000000E+00  0.00000000E+00  0.00000000E+00
  0.00000000E+00  0.00000000E+00  0.00000000E+00
  0.00000000E+00  0.00000000E+00  0.00000000E+00
  0.00000000E+00  0.00000000E+00  0.00000000E+00
  0.00000000E+00  0.00000000E+00  0.00000000E+00
  0.00000000E+00  0.00000000E+00  0.00000000E+00
  0.00000000E+00  0.00000000E+00  0.00000000E+00
  0.00000000E+00  0.00000000E+00  0.00000000E+00
  0.00000000E+00  0.00000000E+00  0.00000000E+00
  0.00000000E+00  0.00000000E+00  0.00000000E+00
  0.00000000E+00  0.00000000E+00  0.00000000E+00
  0.00000000E+00  0.00000000E+00  0.00000000E+00
  0.00000000E+00  0.00000000E+00  0.00000000E+00
  0.00000000E+00  0.00000000E+00  0.00000000E+00
  0.00000000E+00  0.00000000E+00  0.00000000E+00
  0.00000000E+00  0.00000000E+00  0.00000000E+00
  0.00000000E+00  0.00000000E+00  0.00000000E+00
  0.00000000E+00  0.00000000E+00  0.00000000E+00
  0.00000000E+00  0.00000000E+00  0.00000000E+00
  0.00000000E+00  0.00000000E+00  0.00000000E+00
  0.00000000E+00  0.00000000E+00  0.00000000E+00
  0.00000000E+00  0.00000000E+00  0.00000000E+00
  0.00000000E+00  0.00000000E+00  0.00000000E+00
  0.00000000E+00  0.00000000E+00  0.00000000E+00
  0.00000000E+00  0.00000000E+00  0.00000000E+00
  0.00000000E+00  0.00000000E+00  0.00000000E+00
  0.00000000E+00  0.00000000E+00  0.00000000E+00
  0.00000000E+00  0.00000000E+00  0.00000000E+00
  0.00000000E+00  0.00000000E+00  0.00000000E+00
  0.00000000E+00  0.00000000E+00  0.00000000E+00
  0.00000000E+00  0.00000000E+00  0.00000000E+00
  0.00000000E+00  0.00000000E+00  0.00000000E+00
  0.00000000E+00  0.00000000E+00  0.00000000E+00
  0.00000000E+00  0.00000000E+00  0.00000000E+00
  0.00000000E+00  0.00000000E+00  0.00000000E+00
  0.00000000E+00  0.00000000E+00  0.00000000E+00
  0.00000000E+00  0.00000000E+00  0.00000000E+00
  0.00000000E+00  0.00000000E+00  0.00000000E+00
  0.00000000E+00  0.00000000E+00  0.00000000E+00
  0.00000000E+00  0.00000000E+00  0.00000000E+00
  0.00000000E+00  0.00000000E+00  0.00000000E+00
  0.00000000E+00  0.00000000E+00  0.00000000E+00
  0.00000000E+00  0.00000000E+00  0.00000000E+00
  0.00000000E+00  0.00000000E+00  0.00000000E+00
  0.00000000E+00  0.00000000E+00  0.00000000E+00
  0.00000000E+00  0.00000000E+00  0.00000000E+00
  0.00000000E+00  0.00000000E+00  0.00000000E+00
  0.00000000E+00  0.00000000E+00  0.00000000E+00
  0.00000000E+00  0.00000000E+00  0.00000000E+00
  0.00000000E+00  0.00000000E+00  0.00000000E+00
  0.00000000E+00  0.00000000E+00  0.00000000E+00
  0.00000000E+00  0.00000000E+00  0.00000000E+00
  0.00000000E+00  0.00000000E+00  0.00000000E+00
  0.00000000E+00  0.00000000E+00  0.00000000E+00
  0.00000000E+00  0.00000000E+00  0.00000000E+00
  0.00000000E+00  0.00000000E+00  0.00000000E+00
  0.00000000E+00  0.00000000E+00  0.00000000E+00
  0.00000000E+00  0.00000000E+00  0.00000000E+00
  0.00000000E+00  0.00000000E+00  0.00000000E+00
  0.00000000E+00  0.00000000E+00  0.00000000E+00
  0.00000000E+00  0.00000000E+00  0.00000000E+00
  0.00000000E+00  0.00000000E+00  0.00000000E+00
  0.00000000E+00  0.00000000E+00  0.00000000E+00
  0.00000000E+00  0.00000000E+00  0.00000000E+00
  0.00000000E+00  0.00000000E+00  0.00000000E+00
  0.00000000E+00  0.00000000E+00  0.00000000E+00
  0.00000000E+00  0.00000000E+00  0.00000000E+00
  0.00000000E+00  0.00000000E+00  0.00000000E+00
  0.00000000E+00  0.00000000E+00  0.00000000E+00
  0.00000000E+00  0.00000000E+00  0.00000000E+00
  0.00000000E+00  0.00000000E+00  0.00000000E+00
  0.00000000E+00  0.00000000E+00  0.00000000E+00
  0.00000000E+00  0.00000000E+00  0.00000000E+00
  0.00000000E+00  0.00000000E+00  0.00000000E+00
  0.00000000E+00  0.00000000E+00  0.00000000E+00
  0.00000000E+00  0.00000000E+00  0.00000000E+00
  0.00000000E+00  0.00000000E+00  0.00000000E+00
  0.00000000E+00  0.00000000E+00  0.00000000E+00
  0.00000000E+00  0.00000000E+00  0.00000000E+00
  0.00000000E+00  0.00000000E+00  0.00000000E+00
  0.00000000E+00  0.00000000E+00  0.00000000E+00
  0.00000000E+00  0.00000000E+00  0.00000000E+00
  0.00000000E+00  0.00000000E+00  0.00000000E+00
  0.00000000E+00  0.00000000E+00  0.00000000E+00
