TiOF2 2x2x2 config 0019                 
   1.00000000000000     
     7.9138205601972453   -0.0000000075482937   -0.0000000192658658
    -0.0000000038718190    7.7558372743642838    0.0000168511380626
     0.0000000121260240    0.0000164187686730    7.5428660218082459
   Ti   O    F 
     8     8    16
Direct
 -0.0000000029779904 -0.0000000914466246 -0.0123480088672785
  0.0000000050968467  0.0000020993653252  0.5094660288205943
 -0.0000000020861643  0.5000000322017988  0.0000566204495853
  0.0000000034210681  0.5000007769913472  0.4997864594557968
  0.4999999957252982  0.0000050497136419  0.0001261285831743
  0.5000000018875863 -0.0000923676808322  0.5006939104287590
  0.5000000004426743  0.5000040242610740  0.0170609814749095
  0.5000000028047352  0.4999291199296478  0.4979859968511089
  0.5000000007508216  0.2540839345496205  0.5016569960414549
  0.5000000009006088  0.7460033518256742  0.5016565309053072
  0.0000000306372682 -0.0000017556773680  0.7504457916062492
 -0.0000000109681209  0.4999986199635268  0.2482816552917679
  0.0000000151698180  0.5000020028784503  0.7517802677265738
  0.5000000219157649  0.0000094958981176  0.2418314949992945
  0.4999999739699407  0.0000100884726177  0.7565203598320268
  0.5000000139927359  0.5000075458230322  0.2447502716818178
  0.2407854548314607 -0.0000000142905389  0.0044045156768569
  0.2381110703688831  0.0000031656694622  0.4944601921662284
  0.2493001854208200  0.4999998799195889 -0.0032520679488258
  0.2435057635662120  0.5000052451872243  0.5029315104336550
  0.7592145367706904 -0.0000000144318334  0.0044044264800815
  0.7618889340390782  0.0000031660082046  0.4944602611497215
  0.7506998124385998  0.4999998798727060 -0.0032521125324633
  0.7564942415667606  0.5000052451166681  0.5029315458863958
 -0.0000000107917500  0.2459501055870658  0.0052841905002054
  0.0000000059428611  0.2460999874172370  0.4949225433775501
 -0.0000000108678425  0.7540499408186420  0.0052856755940212
  0.0000000055863858  0.7539000468563843  0.4949197175564052
  0.5000000080848126  0.2536008896838788 -0.0071711972509571
  0.5000000081275165  0.7464074819306497 -0.0071717245553860
 -0.0000000330878134  0.0000010329556765  0.2486931174727023
  0.4999999773204307  0.5000120346299497  0.7583979207126820
 
  0.00000000E+00  0.00000000E+00  0.00000000E+00
  0.00000000E+00  0.00000000E+00  0.00000000E+00
  0.00000000E+00  0.00000000E+00  0.00000000E+00
  0.00000000E+00  0.00000000E+00  0.00000000E+00
  0.00000000E+00  0.00000000E+00  0.00000000E+00
  0.00000000E+00  0.00000000E+00  0.00000000E+00
  0.00000000E+00  0.00000000E+00  0.00000000E+00
  0.00000000E+00  0.00000000E+00  0.00000000E+00
  0.00000000E+00  0.00000000E+00  0.00000000E+00
  0.00000000E+00  0.00000000E+00  0.00000000E+00
  0.00000000E+00  0.00000000E+00  0.00000000E+00
  0.00000000E+00  0.00000000E+00  0.00000000E+00
  0.00000000E+00  0.00000000E+00  0.00000000E+00
  0.00000000E+00  0.00000000E+00  0.00000000E+00
  0.00000000E+00  0.00000000E+00  0.00000000E+00
  0.00000000E+00  0.00000000E+00  0.00000000E+00
  0.00000000E+00  0.00000000E+00  0.00000000E+00
  0.00000000E+00  0.00000000E+00  0.00000000E+00
  0.00000000E+00  0.00000000E+00  0.00000000E+00
  0.00000000E+00  0.00000000E+00  0.00000000E+00
  0.00000000E+00  0.00000000E+00  0.00000000E+00
  0.00000000E+00  0.00000000E+00  0.00000000E+00
  0.00000000E+00  0.00000000E+00  0.00000000E+00
  0.00000000E+00  0.00000000E+00  0.00000000E+00
  0.00000000E+00  0.00000000E+00  0.00000000E+00
  0.00000000E+00  0.00000000E+00  0.00000000E+00
  0.00000000E+00  0.00000000E+00  0.00000000E+00
  0.00000000E+00  0.00000000E+00  0.00000000E+00
  0.00000000E+00  0.00000000E+00  0.00000000E+00
  0.00000000E+00  0.00000000E+00  0.00000000E+00
  0.00000000E+00  0.00000000E+00  0.00000000E+00
  0.00000000E+00  0.00000000E+00  0.00000000E+00
