TiOF2 2x2x2 config 1955                 
   1.00000000000000     
     7.7359726833668878   -0.0006788151167771    0.0020047186246650
    -0.0006500600045688    7.6860841505218289    0.0013397381686249
     0.0020133681248874    0.0013220367481349    7.8120613009803632
   Ti   O    F 
     8     8    16
Direct
  0.0008661958708771  0.0001251316010311  0.9765966629255800
  0.9864961243983501  0.9879092993981118  0.4961000161883860
  0.9799286469719206  0.4996983772925390  0.0010913761674018
  0.9847370442181926  0.5121492037390709  0.5007715528741983
  0.4997283259264549  0.0002273329605060  0.9993382491408696
  0.5104582898080352  0.0008598734933400  0.4994622032417837
  0.5025063474573983  0.5002868236512938  0.0221227401626436
  0.5071074442719024  0.4999450081616246  0.5009798326824964
  0.7537616028560450  0.0039696688478017  0.4955131666091930
  0.7533254855844405  0.5006254561154933  0.0008172088360539
  0.7549047226301440  0.4965703814463183  0.5045537008887706
  0.0066479368011940  0.7497143097291286  0.4965834561951610
  0.4978353419694201  0.2472400292531560  0.5022719179716972
  0.4975074361827012  0.7536044363658831  0.5022194913703828
  0.9995748954565613  0.0004130283320833  0.7572872327947024
  0.4970380501200040  0.5003712457549057  0.2434556615232353
  0.2545249775512062  0.9999763569950773  0.0019009224647704
  0.2478205364675716  0.0043799697396665  0.4947234373816229
  0.2457797115138405  0.5005553377424050  0.9983173919012387
  0.2461113141364635  0.4958243681603847  0.5058395929757538
  0.7458488127392542  0.9997165833576815  0.0025048317075331
  0.0054732352990854  0.2491726737348472  0.0045451830700500
  0.0109933803542219  0.2503390918301776  0.4958623040648220
  0.0055653596425103  0.7505088893217220  0.0051447164378686
  0.4971321685031356  0.2435110775284812  0.9962809975496683
  0.4969427581824633  0.7569961745646978  0.9961814453524482
  0.0011419643980162  0.0017582331979042  0.2355098689261581
  0.0093971432002249  0.4962879664547231  0.2441111629402783
  0.0078975975463180  0.4963162991899281  0.7579386596001569
  0.4986682067574577  0.0002245922281929  0.2363224265566402
  0.4988004101887924  0.0003312103242976  0.7623704254959520
  0.4954785329958256  0.5003915694875047  0.7632821640025043
 
  0.00000000E+00  0.00000000E+00  0.00000000E+00
  0.00000000E+00  0.00000000E+00  0.00000000E+00
  0.00000000E+00  0.00000000E+00  0.00000000E+00
  0.00000000E+00  0.00000000E+00  0.00000000E+00
  0.00000000E+00  0.00000000E+00  0.00000000E+00
  0.00000000E+00  0.00000000E+00  0.00000000E+00
  0.00000000E+00  0.00000000E+00  0.00000000E+00
  0.00000000E+00  0.00000000E+00  0.00000000E+00
  0.00000000E+00  0.00000000E+00  0.00000000E+00
  0.00000000E+00  0.00000000E+00  0.00000000E+00
  0.00000000E+00  0.00000000E+00  0.00000000E+00
  0.00000000E+00  0.00000000E+00  0.00000000E+00
  0.00000000E+00  0.00000000E+00  0.00000000E+00
  0.00000000E+00  0.00000000E+00  0.00000000E+00
  0.00000000E+00  0.00000000E+00  0.00000000E+00
  0.00000000E+00  0.00000000E+00  0.00000000E+00
  0.00000000E+00  0.00000000E+00  0.00000000E+00
  0.00000000E+00  0.00000000E+00  0.00000000E+00
  0.00000000E+00  0.00000000E+00  0.00000000E+00
  0.00000000E+00  0.00000000E+00  0.00000000E+00
  0.00000000E+00  0.00000000E+00  0.00000000E+00
  0.00000000E+00  0.00000000E+00  0.00000000E+00
  0.00000000E+00  0.00000000E+00  0.00000000E+00
  0.00000000E+00  0.00000000E+00  0.00000000E+00
  0.00000000E+00  0.00000000E+00  0.00000000E+00
  0.00000000E+00  0.00000000E+00  0.00000000E+00
  0.00000000E+00  0.00000000E+00  0.00000000E+00
  0.00000000E+00  0.00000000E+00  0.00000000E+00
  0.00000000E+00  0.00000000E+00  0.00000000E+00
  0.00000000E+00  0.00000000E+00  0.00000000E+00
  0.00000000E+00  0.00000000E+00  0.00000000E+00
  0.00000000E+00  0.00000000E+00  0.00000000E+00
