TiOF2 2x2x2 config 1955                 
   1.00000000000000     
     7.7359726833668878   -0.0006788151167771    0.0020047186246650
    -0.0006500600045688    7.6860841505218289    0.0013397381686249
     0.0020133681248874    0.0013220367481349    7.8120613009803632
   Ti   O    F 
     8     8    16
Direct
  0.0008661958708747  0.0001251316010346 -0.0234033370744179
 -0.0135038756016501 -0.0120907006018917  0.4961000161883828
 -0.0200713530280794  0.4996983772925372  0.0010913761673989
 -0.0152629557818091  0.5121492037390725  0.5007715528742001
  0.4997283259264534  0.0002273329605028 -0.0006617508591309
  0.5104582898080385  0.0008598734933383  0.4994622032417856
  0.5025063474573991  0.5002868236512918  0.0221227401626405
  0.5071074442719053  0.4999450081616251  0.5009798326824982
  0.7537616028560482  0.0039696688477991  0.4955131666091916
  0.7533254855844407  0.5006254561154960  0.0008172088360559
  0.7549047226301452  0.4965703814463149  0.5045537008887681
  0.0066479368011912  0.7497143097291309  0.4965834561951593
  0.4978353419694220  0.2472400292531561  0.5022719179716938
  0.4975074361826998  0.7536044363658819  0.5022194913703846
 -0.0004251045434418  0.0004130283320832  0.7572872327946994
  0.4970380501200019  0.5003712457549028  0.2434556615232352
  0.2545249775512096 -0.0000236430049206  0.0019009224647732
  0.2478205364675695  0.0043799697396681  0.4947234373816204
  0.2457797115138384  0.5005553377424053 -0.0016826080987578
  0.2461113141364640  0.4958243681603837  0.5058395929757505
  0.7458488127392512 -0.0002834166423183  0.0025048317075350
  0.0054732352990847  0.2491726737348504  0.0045451830700470
  0.0109933803542187  0.2503390918301800  0.4958623040648231
  0.0055653596425108  0.7505088893217248  0.0051447164378652
  0.4971321685031332  0.2435110775284831 -0.0037190024503290
  0.4969427581824639  0.7569961745646956 -0.0038185546475489
  0.0011419643980170  0.0017582331979028  0.2355098689261550
  0.0093971432002274  0.4962879664547213  0.2441111629402750
  0.0078975975463162  0.4963162991899272  0.7579386596001558
  0.4986682067574567  0.0002245922281931  0.2363224265566413
  0.4988004101887941  0.0003312103243000  0.7623704254959517
  0.4954785329958264  0.5003915694875049  0.7632821640025035
 
  0.00000000E+00  0.00000000E+00  0.00000000E+00
  0.00000000E+00  0.00000000E+00  0.00000000E+00
  0.00000000E+00  0.00000000E+00  0.00000000E+00
  0.00000000E+00  0.00000000E+00  0.00000000E+00
  0.00000000E+00  0.00000000E+00  0.00000000E+00
  0.00000000E+00  0.00000000E+00  0.00000000E+00
  0.00000000E+00  0.00000000E+00  0.00000000E+00
  0.00000000E+00  0.00000000E+00  0.00000000E+00
  0.00000000E+00  0.00000000E+00  0.00000000E+00
  0.00000000E+00  0.00000000E+00  0.00000000E+00
  0.00000000E+00  0.00000000E+00  0.00000000E+00
  0.00000000E+00  0.00000000E+00  0.00000000E+00
  0.00000000E+00  0.00000000E+00  0.00000000E+00
  0.00000000E+00  0.00000000E+00  0.00000000E+00
  0.00000000E+00  0.00000000E+00  0.00000000E+00
  0.00000000E+00  0.00000000E+00  0.00000000E+00
  0.00000000E+00  0.00000000E+00  0.00000000E+00
  0.00000000E+00  0.00000000E+00  0.00000000E+00
  0.00000000E+00  0.00000000E+00  0.00000000E+00
  0.00000000E+00  0.00000000E+00  0.00000000E+00
  0.00000000E+00  0.00000000E+00  0.00000000E+00
  0.00000000E+00  0.00000000E+00  0.00000000E+00
  0.00000000E+00  0.00000000E+00  0.00000000E+00
  0.00000000E+00  0.00000000E+00  0.00000000E+00
  0.00000000E+00  0.00000000E+00  0.00000000E+00
  0.00000000E+00  0.00000000E+00  0.00000000E+00
  0.00000000E+00  0.00000000E+00  0.00000000E+00
  0.00000000E+00  0.00000000E+00  0.00000000E+00
  0.00000000E+00  0.00000000E+00  0.00000000E+00
  0.00000000E+00  0.00000000E+00  0.00000000E+00
  0.00000000E+00  0.00000000E+00  0.00000000E+00
  0.00000000E+00  0.00000000E+00  0.00000000E+00
