config 43                               
   1.00000000000000     
    15.4263309999999993    0.0000000000000000    0.0000000000000000
     0.0000000000000000   15.4263309999999993    0.0000000000000000
     0.0000000000000000    0.0000000000000000   15.4263309999999993
   Li   Ti   O    F 
     1    64    64   128
Direct
  0.5551864384319249  0.6216324354934584  0.6268696030071698
  0.9954464420183258  0.9955250547975479  0.9945594641943722
  0.9995061575612029  0.9917860332164898  0.4934498988105495
  0.0061576034933510  0.4955246546794278  0.9974966700023490
  0.9948823238449511  0.5025687720151022  0.5077739580903182
  0.4944190272654299  0.9942847470012898  0.9989651455603964
  0.5007104448383668  0.0073536651289605  0.5004258585741405
  0.5043564005221013  0.4955887578731931  0.9975947544119680
  0.4914208095196134  0.4961389847660466  0.4925045401228738
  0.0070740487258581  0.0030542933727417  0.2561410255595108
  0.0016256999721989  0.0074575316463743  0.7567547414183130
  0.9935471456255633  0.4939732949203075  0.2515143085380730
  0.9931720258319167  0.4993731145827094  0.7419442993746604
  0.5064782328612276  0.0082183041858632  0.2497709684782860
  0.4929997890863149  0.0061528538575016  0.7516727850332600
  0.4923594241168214  0.4976274010791524  0.2557348952297937
  0.5010015083693610  0.5034889006609014  0.7623315468872573
  0.9956766559458838  0.2574934057257550  0.0011741608134236
  0.9989478966516158  0.2480141196056888  0.4912379631650742
  0.9984077514181271  0.7581634851137576  0.0061711561350268
  0.9970523013162553  0.7565083401781302  0.5059786408438502
  0.4951080466737642  0.2579247680365592  0.0006994059682870
  0.5088541780932875  0.2436357520306541  0.4996745071107315
  0.5075005568704907  0.7563811180255480  0.9975225858888235
  0.5040554836482800  0.7542821665762183  0.5019891276175070
  0.9999554002549887  0.2584010503065928  0.2551219409814781
  0.0070548371326346  0.2426379648020853  0.7472454250367833
  0.0073277262898752  0.7487223528124898  0.2430503404464935
  0.9928106845655107  0.7503740505769946  0.7431678453925366
  0.5084168748203964  0.2422039705708654  0.2513437035804283
  0.5073654646989464  0.2432421650648419  0.7498951353718017
  0.5073633267609928  0.7517955129034806  0.2489136607871009
  0.5022386356791544  0.7446944747379958  0.7426549960810688
  0.2565925489788785  0.9988164576810625  0.0060332028962735
  0.2500770063497633  0.9938762126947556  0.5065519155163783
  0.2439648959952713  0.5079289755581646  0.9976359394945198
  0.2542286370182282  0.4941326842564348  0.5071992829324653
  0.7573677505823545  0.0003237028182137  0.9941262705870051
  0.7503733363025761  0.0062296570754082  0.4941863267758419
  0.7421127417771604  0.5007523517533659  0.0048306445410799
  0.7561957317300446  0.4979605532948261  0.5056384130717132
  0.2451356382014807  0.0025282519284842  0.2437862247565814
  0.2576789608419818  0.9980758355647588  0.7443257161746303
  0.2548764379478391  0.4923506205170503  0.2517646100855065
  0.2468828634824569  0.5060234245144454  0.7415532542190161
  0.7450225421325488  0.0001606662642562  0.2556202240089598
  0.7480482985712471  0.0059734193363139  0.7562043524559933
  0.7556150802511259  0.4993001850833205  0.2425549505333017
  0.7576055250210982  0.4983685217308094  0.7427735941401742
  0.2574671946451917  0.2514522887538494  0.0059078610162971
  0.2534015120358055  0.2565974342585087  0.5056433165807120
  0.2521187507461061  0.7426935215816549  0.9935551204346786
  0.2507299103427975  0.7551459038121905  0.4929764582341115
  0.7575377244724696  0.2507276723965358  0.0068637169859137
  0.7430233991139914  0.2423557084013542  0.4976737448097563
  0.7422834643616630  0.7498077263213657  0.9944602860740923
  0.7410770899730347  0.7530026485330719  0.4936317697355355
  0.2515769859196587  0.2577195204878683  0.2437029418511604
  0.2443934570836803  0.2518314576927972  0.7438110182960787
  0.2444936625454846  0.7482907949964945  0.2557567090584324
  0.2474950451236686  0.7416356688617153  0.7567265933721337
  0.7426250678308396  0.2506412216653441  0.2422555785291111
  0.7443843307005777  0.2420232176970767  0.7506993994681513
  0.7464758330186612  0.7505464714396243  0.2565932854207806
  0.7577907498173052  0.7508327146300829  0.7573521172236781
  0.0108697659209810  0.5017382080843180  0.6249421856706375
  0.9957254445163750  0.0060648238976861  0.3760943066963721
  0.9999902217476520  0.0023067343811542  0.8728052978718972
  0.4976839817784242  0.4979714339552098  0.3742620807322369
  0.4901365334645691  0.5001557901441956  0.8771658265301125
  0.9997101970190522  0.7463306148253552  0.1256221289077415
  0.0017390330357713  0.7457809245305610  0.6242530424961797
  0.5084842478828200  0.7458752366791409  0.6286451219340532
  0.9954553567977421  0.2468559520770412  0.3763902473206498
  0.2550487517087116  0.0033417473983954  0.1254248888831264
  0.2540433477576416  0.0035276834801218  0.6254134953633975
  0.2378704916712836  0.4950953398580487  0.6261444401630775
  0.7489147774427414  0.4933583368567451  0.1254593650441657
  0.7416225745417643  0.4982968463633996  0.6245603927377239
  0.7508375971850796  0.9971266322872198  0.3758844829971074
  0.7463281427752397  0.9966449186037410  0.8735230123353869
  0.2467134982473079  0.2497131465142178  0.1257667735642427
  0.2531093779791591  0.2495537763240426  0.6252376270717488
  0.7436009245472948  0.2562268521788275  0.1260903652846045
  0.2555284153435844  0.7467399928008552  0.3748785634525598
  0.2511324375986034  0.7527053916038864  0.8750489409409512
  0.7540610667573401  0.7539435751602660  0.3727042826006354
  0.7501960707859191  0.7538788872650566  0.8759038705057586
  0.1247638413338535  0.5037377032616814  0.9927804487896146
  0.6259162994592786  0.5074733370267520  0.9963787903285904
  0.1257097695780900  0.0035377083711819  0.2520026439888626
  0.6253081908525512  0.0014317696065894  0.2497142949903690
  0.6249850319479651  0.2571466026646602  0.4951821067681667
  0.6249343711842442  0.7422560465201071  0.0027194339941909
  0.6269199869978749  0.7616474668207839  0.4933680760730375
  0.1251006831856363  0.2541849759158393  0.7490822297096507
  0.1260124190244925  0.7515079853956060  0.2519754641436962
  0.6258740561108086  0.2451406007250281  0.2612938944360795
  0.6257800065760691  0.2551869691739555  0.7472289836322934
  0.6233100430438256  0.7535050891793696  0.2488027580377412
  0.3760968263874965  0.0003248681089724  0.9923364019991517
  0.3757408295874046  0.5048700796051732  0.5067852181779479
  0.8732140443543411  0.0023224112035565  0.0003313000746797
  0.8757317453286353  0.5014949811109798  0.5028373583397123
  0.3762863826949568  0.9996828899958016  0.7565819419275086
  0.3740770191657651  0.4963228146145981  0.2462934728187659
  0.8756152204811321  0.4976551629153587  0.2507209744269415
  0.8753722638639040  0.5098384742071266  0.7435421490369269
  0.3760059467890972  0.2482980991309518  0.0028595176193359
  0.8745375723798476  0.2482968557268320  0.0042987235426399
  0.8750151413213297  0.7409695670139697  0.7490502506307158
  0.5110456657579346  0.1227256606481741  0.4995529017615314
  0.9995240024909090  0.1260806474391450  0.7440430942023024
  0.4948947642521956  0.1252568761597217  0.2570376050828483
  0.5039769778983541  0.1241924502684546  0.7444695771844443
  0.5125029696631747  0.6223741475266790  0.7460195751073855
  0.0006823409427978  0.3752796560273804  0.0038264941040055
  0.0020480846787872  0.8752046175585124  0.0011293309730112
  0.9964419263070348  0.8748292343653030  0.4982733351431499
  0.5031691144564159  0.3741814889717897  0.0046572021371428
  0.5045810838396783  0.8754600400489109  0.9979680429304945
  0.0070014298196370  0.3741200038047662  0.2477945647912721
  0.2555994349230412  0.6252289990252208  0.0016582200437246
  0.7427136419244391  0.1247565846192021  0.5019053925280641
  0.2447989901961035  0.6242160376426199  0.7505367404511454
  0.7487137414135571  0.1245117919584729  0.7461664925444724
  0.2525250394741788  0.3731609348165119  0.4938383119555340
  0.2530257944744451  0.8757281593558683  0.4999358391093764
  0.2422354400277376  0.3747640310395817  0.2563155447295239
  0.0001282483931668  0.0026152724340281  0.1268296564059456
  0.0038169309653177  0.9979827665407610  0.6235444949709776
  0.0027458523074371  0.5079969286040542  0.1252792358069650
  0.4947422121863177  0.0019059155634236  0.1258864772146703
  0.4977025556032627  0.9933247151074157  0.6238659965302307
  0.5052548107412395  0.5035421360616039  0.1276073654759528
  0.5149577828151497  0.5023968068617554  0.6245909550728201
  0.0011517951173919  0.4965666470793927  0.3764285192960566
  0.9932873762727571  0.4982301734783386  0.8727646496040909
  0.5034115642808550  0.9950121769648378  0.3766242706930208
  0.5151258429310953  0.0050220802279403  0.8747060493347483
  0.0068347663589658  0.2458364951835566  0.1272102063671958
  0.9990746572864261  0.2578118520190215  0.6213256060836727
  0.5081825417286449  0.2440564497038968  0.1268100096980338
  0.4957039661450862  0.2518158342695558  0.6232871375903216
  0.4949213337927502  0.7516142034042880  0.1247288822415503
  0.9964402913529398  0.2507044964198773  0.8740842429934754
  0.9946717843071042  0.7496340969880271  0.3750865817486115
  0.0017215698623829  0.7505134318725725  0.8739119972850048
  0.4917485015423849  0.2581763928503477  0.3761584169001609
  0.5010934771549322  0.2484181539947994  0.8745208933501978
  0.4908088620764285  0.7501957106182812  0.3705739660184487
  0.4967466100425688  0.7456260010802344  0.8744132685023928
  0.2422198132717511  0.4950192683435696  0.1249868248801836
  0.7495393595230190  0.0056976096528008  0.1263757167721522
  0.7460445595312553  0.9972991991866879  0.6231367104881119
  0.2528697252437638  0.0014008231315914  0.3757369730509990
  0.2433857793546907  0.9952627825493356  0.8743773058822635
  0.2504136513954820  0.5107301351982002  0.3754432507392231
  0.2619748337458738  0.4975498010279150  0.8737938100807663
  0.7486588489704953  0.5040869019990427  0.3751590968192803
  0.7550246375102980  0.5038826666666617  0.8739074247637060
  0.2518737530329900  0.7544963730062597  0.1247574349142341
  0.2475114548706071  0.7508535483652612  0.6252961714057899
  0.7524807314605266  0.2580322309714124  0.6230391764200799
  0.7536209703047582  0.7467584093752140  0.1251513890287165
  0.7457108758090367  0.7454474002475865  0.6250665229059059
  0.2529055009101485  0.2438202405883482  0.3745387630508075
  0.2517523743995864  0.2510787526924471  0.8752475654252297
  0.7619421152606588  0.2463027738711704  0.3741662074194378
  0.7520193356354148  0.2474702939019847  0.8756446217113806
  0.1262488357170663  0.0024983598365841  0.0022408131660739
  0.1248170582765480  0.0041775452822551  0.4984319908525415
  0.1237506625646402  0.4989848003206330  0.4905235041583032
  0.6253622981139542  0.0020361825740993  0.0074421673905362
  0.6238881943757163  0.9836445226179649  0.5020625935470759
  0.6256164476698750  0.4916262637229068  0.4955481897888000
  0.1269741949971423  0.9968130628777265  0.7472198177329654
  0.1242231358911825  0.5077395328883286  0.2518569005729014
  0.1235627031921219  0.4907588831319931  0.7644492435117888
  0.6235834273243339  0.9913332798239572  0.7417840068227675
  0.6252485234498562  0.5000893373896268  0.2521044511298248
  0.6268298394174472  0.4875760623900587  0.7594703735774585
  0.1252763275750411  0.2496982408134486  0.9952305802766355
  0.1237952017957995  0.2468587404275336  0.4989739835682419
  0.1253706684464512  0.7453580412669154  0.0006452645106480
  0.1238086664133862  0.7499292500660735  0.4956703142429467
  0.6263394016643875  0.2487233738669616  0.9947129824257156
  0.1248747442048837  0.2373899423176663  0.2559655894838982
  0.1232888362464384  0.7568221080236844  0.7508781609831523
  0.6273453842710265  0.7587229197942698  0.7545606436886340
  0.3769215989533192  0.0112010125503942  0.4964434015621694
  0.3734714738399300  0.4956082187369365  0.0112039852964772
  0.8747081998920931  0.0074223658663390  0.5085494157714116
  0.8749493492910658  0.4980540649693133  0.0010519433810096
  0.3774453967115907  0.9960457206635627  0.2560978684424485
  0.3756419039615711  0.5022502526148522  0.7382782198491837
  0.8741581677702496  0.9988322632849874  0.2469362016606710
  0.8743139594577299  0.9965513681852568  0.7425212707339053
  0.3790408783980787  0.2415351028638677  0.4982470530882809
  0.3765567692756753  0.7567078592821319  0.0010387144069451
  0.3751721539266138  0.7402363478523508  0.5060350453217257
  0.8745306203597533  0.2492360079543997  0.5044975591077441
  0.8728491425260813  0.7541718348052376  0.9992523646439684
  0.8729754425313907  0.7421411452061223  0.5034304213987714
  0.3783118039788895  0.2578528793443894  0.2473755458054218
  0.3766399843422890  0.2476285083750206  0.7526662902110141
  0.3766668199451998  0.7492344672314137  0.2451047647720497
  0.3750635064454214  0.7489865416663590  0.7479717585238532
  0.8744043096202990  0.2553011099519834  0.2451386652744958
  0.8746197683871255  0.2515676194524550  0.7473383040726073
  0.8746765461419682  0.7482285121946669  0.2478968861592684
  0.0038428770628610  0.1270901053107402  0.0010957589804479
  0.9988568349590812  0.1256237255790944  0.5089174513003294
  0.9941432716022074  0.6253519906372772  0.9948338937097972
  0.0029622245306729  0.6260526480665761  0.4929421644600183
  0.5044372102974369  0.1247604172179900  0.0010546220523315
  0.4903833830051368  0.6270395071000870  0.0045280669020014
  0.5146513482167749  0.6211279006143414  0.5079157456340317
  0.9920757535082108  0.1277722979544625  0.2464109797839435
  0.9988498282803346  0.6234672052201395  0.2566054100028358
  0.0130103190768730  0.6243608736137517  0.7555390767665201
  0.5006674828656104  0.6259383091272126  0.2484042571800773
  0.0016612809516095  0.3737595911807099  0.4983774881614503
  0.4928598230966224  0.3710179733545566  0.5047744521426308
  0.4843107061464293  0.8825246463587820  0.4977048855855669
  0.9935185480315150  0.3746836360522547  0.7506326146403354
  0.9962939886966770  0.8760998703045509  0.2515836327796447
  0.9970947421132751  0.8755465578418221  0.7473690566039864
  0.5045723786470778  0.3723152438874809  0.2446664611747959
  0.4943301154502790  0.3736310649765454  0.7471816813594847
  0.4970203333212906  0.8767153584947919  0.2486320659573432
  0.4989327292488718  0.8752546389665420  0.7564077387724338
  0.2464470900130014  0.1250119667599882  0.9935285168270492
  0.2479932417082111  0.1247370897158967  0.4968535663514972
  0.2441864575326836  0.6258613053242067  0.5046521565993451
  0.7440352379326509  0.1261110846957549  0.9999660098844885
  0.7611539659696069  0.6254614473218681  0.0014639796850878
  0.7427959537038736  0.6249871394001705  0.4995727098274647
  0.2603979713609338  0.1266755559372528  0.2537406824205837
  0.2487133656940120  0.1246006668829225  0.7572953344731077
  0.2518467723327926  0.6237796663235927  0.2417802627245725
  0.7592120479135368  0.1259806932826650  0.2506632971908136
  0.7477614544945828  0.6250637943357900  0.2484636601405859
  0.7349360969732632  0.6247464827491546  0.7493370515737575
  0.2487517615919102  0.3761557191341398  0.9977031254025256
  0.2454823498180896  0.8741877933020952  0.0028220769467143
  0.7478885556547930  0.3750194005231866  0.9895652341381431
  0.7558676864636589  0.3723875826510885  0.4931303190374811
  0.7457615251410844  0.8750923593226588  0.0098224255315804
  0.7631843634925017  0.8767880196502607  0.5055505670659250
  0.2572869388578661  0.3760920796082576  0.7561330937687439
  0.2543049323432351  0.8758542048687800  0.2513959436037207
  0.2508533195153205  0.8732983897261510  0.7463950923513776
  0.7476195325887066  0.3742922076034915  0.2621362967360840
  0.7580302646191539  0.3737867021857614  0.7544280333786574
  0.7541748757155506  0.8755974198253446  0.2404931932257250
  0.7545701520883630  0.8750624136351091  0.7423754361443056
 
  0.00000000E+00  0.00000000E+00  0.00000000E+00
  0.00000000E+00  0.00000000E+00  0.00000000E+00
  0.00000000E+00  0.00000000E+00  0.00000000E+00
  0.00000000E+00  0.00000000E+00  0.00000000E+00
  0.00000000E+00  0.00000000E+00  0.00000000E+00
  0.00000000E+00  0.00000000E+00  0.00000000E+00
  0.00000000E+00  0.00000000E+00  0.00000000E+00
  0.00000000E+00  0.00000000E+00  0.00000000E+00
  0.00000000E+00  0.00000000E+00  0.00000000E+00
  0.00000000E+00  0.00000000E+00  0.00000000E+00
  0.00000000E+00  0.00000000E+00  0.00000000E+00
  0.00000000E+00  0.00000000E+00  0.00000000E+00
  0.00000000E+00  0.00000000E+00  0.00000000E+00
  0.00000000E+00  0.00000000E+00  0.00000000E+00
  0.00000000E+00  0.00000000E+00  0.00000000E+00
  0.00000000E+00  0.00000000E+00  0.00000000E+00
  0.00000000E+00  0.00000000E+00  0.00000000E+00
  0.00000000E+00  0.00000000E+00  0.00000000E+00
  0.00000000E+00  0.00000000E+00  0.00000000E+00
  0.00000000E+00  0.00000000E+00  0.00000000E+00
  0.00000000E+00  0.00000000E+00  0.00000000E+00
  0.00000000E+00  0.00000000E+00  0.00000000E+00
  0.00000000E+00  0.00000000E+00  0.00000000E+00
  0.00000000E+00  0.00000000E+00  0.00000000E+00
  0.00000000E+00  0.00000000E+00  0.00000000E+00
  0.00000000E+00  0.00000000E+00  0.00000000E+00
  0.00000000E+00  0.00000000E+00  0.00000000E+00
  0.00000000E+00  0.00000000E+00  0.00000000E+00
  0.00000000E+00  0.00000000E+00  0.00000000E+00
  0.00000000E+00  0.00000000E+00  0.00000000E+00
  0.00000000E+00  0.00000000E+00  0.00000000E+00
  0.00000000E+00  0.00000000E+00  0.00000000E+00
  0.00000000E+00  0.00000000E+00  0.00000000E+00
  0.00000000E+00  0.00000000E+00  0.00000000E+00
  0.00000000E+00  0.00000000E+00  0.00000000E+00
  0.00000000E+00  0.00000000E+00  0.00000000E+00
  0.00000000E+00  0.00000000E+00  0.00000000E+00
  0.00000000E+00  0.00000000E+00  0.00000000E+00
  0.00000000E+00  0.00000000E+00  0.00000000E+00
  0.00000000E+00  0.00000000E+00  0.00000000E+00
  0.00000000E+00  0.00000000E+00  0.00000000E+00
  0.00000000E+00  0.00000000E+00  0.00000000E+00
  0.00000000E+00  0.00000000E+00  0.00000000E+00
  0.00000000E+00  0.00000000E+00  0.00000000E+00
  0.00000000E+00  0.00000000E+00  0.00000000E+00
  0.00000000E+00  0.00000000E+00  0.00000000E+00
  0.00000000E+00  0.00000000E+00  0.00000000E+00
  0.00000000E+00  0.00000000E+00  0.00000000E+00
  0.00000000E+00  0.00000000E+00  0.00000000E+00
  0.00000000E+00  0.00000000E+00  0.00000000E+00
  0.00000000E+00  0.00000000E+00  0.00000000E+00
  0.00000000E+00  0.00000000E+00  0.00000000E+00
  0.00000000E+00  0.00000000E+00  0.00000000E+00
  0.00000000E+00  0.00000000E+00  0.00000000E+00
  0.00000000E+00  0.00000000E+00  0.00000000E+00
  0.00000000E+00  0.00000000E+00  0.00000000E+00
  0.00000000E+00  0.00000000E+00  0.00000000E+00
  0.00000000E+00  0.00000000E+00  0.00000000E+00
  0.00000000E+00  0.00000000E+00  0.00000000E+00
  0.00000000E+00  0.00000000E+00  0.00000000E+00
  0.00000000E+00  0.00000000E+00  0.00000000E+00
  0.00000000E+00  0.00000000E+00  0.00000000E+00
  0.00000000E+00  0.00000000E+00  0.00000000E+00
  0.00000000E+00  0.00000000E+00  0.00000000E+00
  0.00000000E+00  0.00000000E+00  0.00000000E+00
  0.00000000E+00  0.00000000E+00  0.00000000E+00
  0.00000000E+00  0.00000000E+00  0.00000000E+00
  0.00000000E+00  0.00000000E+00  0.00000000E+00
  0.00000000E+00  0.00000000E+00  0.00000000E+00
  0.00000000E+00  0.00000000E+00  0.00000000E+00
  0.00000000E+00  0.00000000E+00  0.00000000E+00
  0.00000000E+00  0.00000000E+00  0.00000000E+00
  0.00000000E+00  0.00000000E+00  0.00000000E+00
  0.00000000E+00  0.00000000E+00  0.00000000E+00
  0.00000000E+00  0.00000000E+00  0.00000000E+00
  0.00000000E+00  0.00000000E+00  0.00000000E+00
  0.00000000E+00  0.00000000E+00  0.00000000E+00
  0.00000000E+00  0.00000000E+00  0.00000000E+00
  0.00000000E+00  0.00000000E+00  0.00000000E+00
  0.00000000E+00  0.00000000E+00  0.00000000E+00
  0.00000000E+00  0.00000000E+00  0.00000000E+00
  0.00000000E+00  0.00000000E+00  0.00000000E+00
  0.00000000E+00  0.00000000E+00  0.00000000E+00
  0.00000000E+00  0.00000000E+00  0.00000000E+00
  0.00000000E+00  0.00000000E+00  0.00000000E+00
  0.00000000E+00  0.00000000E+00  0.00000000E+00
  0.00000000E+00  0.00000000E+00  0.00000000E+00
  0.00000000E+00  0.00000000E+00  0.00000000E+00
  0.00000000E+00  0.00000000E+00  0.00000000E+00
  0.00000000E+00  0.00000000E+00  0.00000000E+00
  0.00000000E+00  0.00000000E+00  0.00000000E+00
  0.00000000E+00  0.00000000E+00  0.00000000E+00
  0.00000000E+00  0.00000000E+00  0.00000000E+00
  0.00000000E+00  0.00000000E+00  0.00000000E+00
  0.00000000E+00  0.00000000E+00  0.00000000E+00
  0.00000000E+00  0.00000000E+00  0.00000000E+00
  0.00000000E+00  0.00000000E+00  0.00000000E+00
  0.00000000E+00  0.00000000E+00  0.00000000E+00
  0.00000000E+00  0.00000000E+00  0.00000000E+00
  0.00000000E+00  0.00000000E+00  0.00000000E+00
  0.00000000E+00  0.00000000E+00  0.00000000E+00
  0.00000000E+00  0.00000000E+00  0.00000000E+00
  0.00000000E+00  0.00000000E+00  0.00000000E+00
  0.00000000E+00  0.00000000E+00  0.00000000E+00
  0.00000000E+00  0.00000000E+00  0.00000000E+00
  0.00000000E+00  0.00000000E+00  0.00000000E+00
  0.00000000E+00  0.00000000E+00  0.00000000E+00
  0.00000000E+00  0.00000000E+00  0.00000000E+00
  0.00000000E+00  0.00000000E+00  0.00000000E+00
  0.00000000E+00  0.00000000E+00  0.00000000E+00
  0.00000000E+00  0.00000000E+00  0.00000000E+00
  0.00000000E+00  0.00000000E+00  0.00000000E+00
  0.00000000E+00  0.00000000E+00  0.00000000E+00
  0.00000000E+00  0.00000000E+00  0.00000000E+00
  0.00000000E+00  0.00000000E+00  0.00000000E+00
  0.00000000E+00  0.00000000E+00  0.00000000E+00
  0.00000000E+00  0.00000000E+00  0.00000000E+00
  0.00000000E+00  0.00000000E+00  0.00000000E+00
  0.00000000E+00  0.00000000E+00  0.00000000E+00
  0.00000000E+00  0.00000000E+00  0.00000000E+00
  0.00000000E+00  0.00000000E+00  0.00000000E+00
  0.00000000E+00  0.00000000E+00  0.00000000E+00
  0.00000000E+00  0.00000000E+00  0.00000000E+00
  0.00000000E+00  0.00000000E+00  0.00000000E+00
  0.00000000E+00  0.00000000E+00  0.00000000E+00
  0.00000000E+00  0.00000000E+00  0.00000000E+00
  0.00000000E+00  0.00000000E+00  0.00000000E+00
  0.00000000E+00  0.00000000E+00  0.00000000E+00
  0.00000000E+00  0.00000000E+00  0.00000000E+00
  0.00000000E+00  0.00000000E+00  0.00000000E+00
  0.00000000E+00  0.00000000E+00  0.00000000E+00
  0.00000000E+00  0.00000000E+00  0.00000000E+00
  0.00000000E+00  0.00000000E+00  0.00000000E+00
  0.00000000E+00  0.00000000E+00  0.00000000E+00
  0.00000000E+00  0.00000000E+00  0.00000000E+00
  0.00000000E+00  0.00000000E+00  0.00000000E+00
  0.00000000E+00  0.00000000E+00  0.00000000E+00
  0.00000000E+00  0.00000000E+00  0.00000000E+00
  0.00000000E+00  0.00000000E+00  0.00000000E+00
  0.00000000E+00  0.00000000E+00  0.00000000E+00
  0.00000000E+00  0.00000000E+00  0.00000000E+00
  0.00000000E+00  0.00000000E+00  0.00000000E+00
  0.00000000E+00  0.00000000E+00  0.00000000E+00
  0.00000000E+00  0.00000000E+00  0.00000000E+00
  0.00000000E+00  0.00000000E+00  0.00000000E+00
  0.00000000E+00  0.00000000E+00  0.00000000E+00
  0.00000000E+00  0.00000000E+00  0.00000000E+00
  0.00000000E+00  0.00000000E+00  0.00000000E+00
  0.00000000E+00  0.00000000E+00  0.00000000E+00
  0.00000000E+00  0.00000000E+00  0.00000000E+00
  0.00000000E+00  0.00000000E+00  0.00000000E+00
  0.00000000E+00  0.00000000E+00  0.00000000E+00
  0.00000000E+00  0.00000000E+00  0.00000000E+00
  0.00000000E+00  0.00000000E+00  0.00000000E+00
  0.00000000E+00  0.00000000E+00  0.00000000E+00
  0.00000000E+00  0.00000000E+00  0.00000000E+00
  0.00000000E+00  0.00000000E+00  0.00000000E+00
  0.00000000E+00  0.00000000E+00  0.00000000E+00
  0.00000000E+00  0.00000000E+00  0.00000000E+00
  0.00000000E+00  0.00000000E+00  0.00000000E+00
  0.00000000E+00  0.00000000E+00  0.00000000E+00
  0.00000000E+00  0.00000000E+00  0.00000000E+00
  0.00000000E+00  0.00000000E+00  0.00000000E+00
  0.00000000E+00  0.00000000E+00  0.00000000E+00
  0.00000000E+00  0.00000000E+00  0.00000000E+00
  0.00000000E+00  0.00000000E+00  0.00000000E+00
  0.00000000E+00  0.00000000E+00  0.00000000E+00
  0.00000000E+00  0.00000000E+00  0.00000000E+00
  0.00000000E+00  0.00000000E+00  0.00000000E+00
  0.00000000E+00  0.00000000E+00  0.00000000E+00
  0.00000000E+00  0.00000000E+00  0.00000000E+00
  0.00000000E+00  0.00000000E+00  0.00000000E+00
  0.00000000E+00  0.00000000E+00  0.00000000E+00
  0.00000000E+00  0.00000000E+00  0.00000000E+00
  0.00000000E+00  0.00000000E+00  0.00000000E+00
  0.00000000E+00  0.00000000E+00  0.00000000E+00
  0.00000000E+00  0.00000000E+00  0.00000000E+00
  0.00000000E+00  0.00000000E+00  0.00000000E+00
  0.00000000E+00  0.00000000E+00  0.00000000E+00
  0.00000000E+00  0.00000000E+00  0.00000000E+00
  0.00000000E+00  0.00000000E+00  0.00000000E+00
  0.00000000E+00  0.00000000E+00  0.00000000E+00
  0.00000000E+00  0.00000000E+00  0.00000000E+00
  0.00000000E+00  0.00000000E+00  0.00000000E+00
  0.00000000E+00  0.00000000E+00  0.00000000E+00
  0.00000000E+00  0.00000000E+00  0.00000000E+00
  0.00000000E+00  0.00000000E+00  0.00000000E+00
  0.00000000E+00  0.00000000E+00  0.00000000E+00
  0.00000000E+00  0.00000000E+00  0.00000000E+00
  0.00000000E+00  0.00000000E+00  0.00000000E+00
  0.00000000E+00  0.00000000E+00  0.00000000E+00
  0.00000000E+00  0.00000000E+00  0.00000000E+00
  0.00000000E+00  0.00000000E+00  0.00000000E+00
  0.00000000E+00  0.00000000E+00  0.00000000E+00
  0.00000000E+00  0.00000000E+00  0.00000000E+00
  0.00000000E+00  0.00000000E+00  0.00000000E+00
  0.00000000E+00  0.00000000E+00  0.00000000E+00
  0.00000000E+00  0.00000000E+00  0.00000000E+00
  0.00000000E+00  0.00000000E+00  0.00000000E+00
  0.00000000E+00  0.00000000E+00  0.00000000E+00
  0.00000000E+00  0.00000000E+00  0.00000000E+00
  0.00000000E+00  0.00000000E+00  0.00000000E+00
  0.00000000E+00  0.00000000E+00  0.00000000E+00
  0.00000000E+00  0.00000000E+00  0.00000000E+00
  0.00000000E+00  0.00000000E+00  0.00000000E+00
  0.00000000E+00  0.00000000E+00  0.00000000E+00
  0.00000000E+00  0.00000000E+00  0.00000000E+00
  0.00000000E+00  0.00000000E+00  0.00000000E+00
  0.00000000E+00  0.00000000E+00  0.00000000E+00
  0.00000000E+00  0.00000000E+00  0.00000000E+00
  0.00000000E+00  0.00000000E+00  0.00000000E+00
  0.00000000E+00  0.00000000E+00  0.00000000E+00
  0.00000000E+00  0.00000000E+00  0.00000000E+00
  0.00000000E+00  0.00000000E+00  0.00000000E+00
  0.00000000E+00  0.00000000E+00  0.00000000E+00
  0.00000000E+00  0.00000000E+00  0.00000000E+00
  0.00000000E+00  0.00000000E+00  0.00000000E+00
  0.00000000E+00  0.00000000E+00  0.00000000E+00
  0.00000000E+00  0.00000000E+00  0.00000000E+00
  0.00000000E+00  0.00000000E+00  0.00000000E+00
  0.00000000E+00  0.00000000E+00  0.00000000E+00
  0.00000000E+00  0.00000000E+00  0.00000000E+00
  0.00000000E+00  0.00000000E+00  0.00000000E+00
  0.00000000E+00  0.00000000E+00  0.00000000E+00
  0.00000000E+00  0.00000000E+00  0.00000000E+00
  0.00000000E+00  0.00000000E+00  0.00000000E+00
  0.00000000E+00  0.00000000E+00  0.00000000E+00
  0.00000000E+00  0.00000000E+00  0.00000000E+00
  0.00000000E+00  0.00000000E+00  0.00000000E+00
  0.00000000E+00  0.00000000E+00  0.00000000E+00
  0.00000000E+00  0.00000000E+00  0.00000000E+00
  0.00000000E+00  0.00000000E+00  0.00000000E+00
  0.00000000E+00  0.00000000E+00  0.00000000E+00
  0.00000000E+00  0.00000000E+00  0.00000000E+00
  0.00000000E+00  0.00000000E+00  0.00000000E+00
  0.00000000E+00  0.00000000E+00  0.00000000E+00
  0.00000000E+00  0.00000000E+00  0.00000000E+00
  0.00000000E+00  0.00000000E+00  0.00000000E+00
  0.00000000E+00  0.00000000E+00  0.00000000E+00
  0.00000000E+00  0.00000000E+00  0.00000000E+00
  0.00000000E+00  0.00000000E+00  0.00000000E+00
  0.00000000E+00  0.00000000E+00  0.00000000E+00
  0.00000000E+00  0.00000000E+00  0.00000000E+00
  0.00000000E+00  0.00000000E+00  0.00000000E+00
  0.00000000E+00  0.00000000E+00  0.00000000E+00
  0.00000000E+00  0.00000000E+00  0.00000000E+00
  0.00000000E+00  0.00000000E+00  0.00000000E+00
  0.00000000E+00  0.00000000E+00  0.00000000E+00
  0.00000000E+00  0.00000000E+00  0.00000000E+00
  0.00000000E+00  0.00000000E+00  0.00000000E+00
  0.00000000E+00  0.00000000E+00  0.00000000E+00
  0.00000000E+00  0.00000000E+00  0.00000000E+00
  0.00000000E+00  0.00000000E+00  0.00000000E+00
  0.00000000E+00  0.00000000E+00  0.00000000E+00
  0.00000000E+00  0.00000000E+00  0.00000000E+00
  0.00000000E+00  0.00000000E+00  0.00000000E+00
  0.00000000E+00  0.00000000E+00  0.00000000E+00
