TiOF2 2x2x2 config 0009                 
   1.00000000000000     
     7.9028519702687614   -0.0000027619330357   -0.0000031937797399
    -0.0000027307484503    7.7904740296033994   -0.0000055096219814
    -0.0000030383607149   -0.0000053045272910    7.5147801866537574
   Ti   O    F 
     8     8    16
Direct
  0.9999999454871644  0.0002725091223547  0.9893203283907722
 -0.0000000419084589  0.0002725164115580  0.5106797748986500
  1.0000000447474759  0.4999033100803121  0.0000596738653597
  0.0000000494366705  0.4999032954060047  0.4999411844534429
  0.4999999642013394  0.9906701136432183  0.9999947435247536
  0.4999999235131808  0.9906702443798302  0.5000046338991749
  0.5000000652427667  0.5158100472785181  0.0106099967275895
  0.5000000424191244  0.5158101782811289  0.4893898669987598
  0.4999998870498158  0.7470820701132324  0.9961583624595262
  0.4999998493124506  0.7470819877642495  0.5038416731893178
  0.0000000222929766  0.9997133771629780  0.7499999313260377
 -0.0000000151647549  0.5007256680439285  0.2499999012644890
  1.0000000111889336  0.5005593022729669  0.7499998335853698
  0.4999998952057113  0.0059239639110814  0.2499999496588080
  0.4999999671985098  0.0052015742413029  0.7500000890055492
  0.5000000469651761  0.4900757718354510  0.2499999227791063
  0.2398014864321772  0.0013226479514646  0.0051674319343085
  0.2398014179817984  0.0013226791399368  0.4948325927633865
  0.2464940863098021  0.4987153363909513  0.9963038940670587
  0.2464940483308198  0.4987152864872423  0.5036958153931388
  0.7601984452001956  0.0013229458961006  0.0051675726345661
  0.7601985055598118  0.0013230237744781  0.4948325629144401
  0.7535060343143430  0.4987150528533199  0.9963039342252689
  0.7535059987490810  0.4987150289460901  0.5036960069626086
  0.9999998924772283  0.2458725431396212  0.0050826769837699
 -0.0000000992293870  0.2458725004291137  0.4949171745564708
  1.0000001713642799  0.7544027417882346  0.0049202817316952
  0.0000001601053027  0.7544027238608720  0.4950797219882294
  0.5000001594060625  0.2525685885386628  0.9956939749488721
  0.5000001045848175  0.2525685275075021  0.5043060408741225
  0.0000000437340326  0.9995186954446630  0.2500000579327984
  0.4999998874915671  0.4849657479036168  0.7500003940625662
 
  0.00000000E+00  0.00000000E+00  0.00000000E+00
  0.00000000E+00  0.00000000E+00  0.00000000E+00
  0.00000000E+00  0.00000000E+00  0.00000000E+00
  0.00000000E+00  0.00000000E+00  0.00000000E+00
  0.00000000E+00  0.00000000E+00  0.00000000E+00
  0.00000000E+00  0.00000000E+00  0.00000000E+00
  0.00000000E+00  0.00000000E+00  0.00000000E+00
  0.00000000E+00  0.00000000E+00  0.00000000E+00
  0.00000000E+00  0.00000000E+00  0.00000000E+00
  0.00000000E+00  0.00000000E+00  0.00000000E+00
  0.00000000E+00  0.00000000E+00  0.00000000E+00
  0.00000000E+00  0.00000000E+00  0.00000000E+00
  0.00000000E+00  0.00000000E+00  0.00000000E+00
  0.00000000E+00  0.00000000E+00  0.00000000E+00
  0.00000000E+00  0.00000000E+00  0.00000000E+00
  0.00000000E+00  0.00000000E+00  0.00000000E+00
  0.00000000E+00  0.00000000E+00  0.00000000E+00
  0.00000000E+00  0.00000000E+00  0.00000000E+00
  0.00000000E+00  0.00000000E+00  0.00000000E+00
  0.00000000E+00  0.00000000E+00  0.00000000E+00
  0.00000000E+00  0.00000000E+00  0.00000000E+00
  0.00000000E+00  0.00000000E+00  0.00000000E+00
  0.00000000E+00  0.00000000E+00  0.00000000E+00
  0.00000000E+00  0.00000000E+00  0.00000000E+00
  0.00000000E+00  0.00000000E+00  0.00000000E+00
  0.00000000E+00  0.00000000E+00  0.00000000E+00
  0.00000000E+00  0.00000000E+00  0.00000000E+00
  0.00000000E+00  0.00000000E+00  0.00000000E+00
  0.00000000E+00  0.00000000E+00  0.00000000E+00
  0.00000000E+00  0.00000000E+00  0.00000000E+00
  0.00000000E+00  0.00000000E+00  0.00000000E+00
  0.00000000E+00  0.00000000E+00  0.00000000E+00
