TiOF2 2x2x2 config 0516                 
   1.00000000000000     
     7.8782617303135769    0.0000049599303780   -0.0005127613596583
     0.0000104722205331    7.6513785914961367   -0.0000071947055135
    -0.0003525182838994   -0.0000074058474886    7.7217797930647576
   Ti   O    F 
     8     8    16
Direct
  0.0000628691592155  0.9999837272205028  0.9999379950082741
  0.0018533608965541  0.9999981845281312  0.4998962940585585
  0.0007156248200602  0.5000037972890183  0.0012624127125207
  0.9801852711024779  0.5000008936140290  0.5007601268756190
  0.5000928351014906  0.0000151534079151  0.0005424579082103
  0.5008341716712650  0.9999941349586905  0.4998427324067620
  0.5001826870105575  0.5000299003376725  0.9846266608602861
  0.5061296092894665  0.4999926591072992  0.5089099270107837
  0.7544610198672430  0.4999981195797147  0.4989388050441903
  0.5005825339320893  0.2409788245572102  0.0002227958277317
  0.5008700630044771  0.2403586138486844  0.4991384981148244
  0.5005839508142103  0.7590154292492954  0.0002209069015819
  0.5008706148476989  0.7596385672176780  0.4991385916496469
  0.9997336908957379  0.4999987859535651  0.2436013229617160
  0.9994937508048167  0.4999996166428602  0.7575014961284268
  0.4982075387769669  0.4999981270243197  0.7514000647266954
  0.2366773881753090  0.9999989693152926  0.0001369985069530
  0.2382249166526123  0.9999997121374236  0.5000524698750937
  0.2474230278240270  0.4999980737215850  0.0034173474782406
  0.2440253894461719  0.4999993559941771  0.4980787262947146
  0.7635407462922856  0.0000002275951161  0.0001640422609412
  0.7651583589895594  0.0000005042322542  0.5000814140000003
  0.7529041417214444  0.4999963143963768  0.0040680692439139
  0.0002113502930570  0.2401763654437232  0.0000345930321330
  0.0050421656582529  0.2398160816176684  0.5001484480546097
  0.0002090532690602  0.7598352980069905  0.0000360196890483
  0.0050414305507118  0.7601848296594653  0.5001472295979426
  0.0000836714292873  0.0000007128265551  0.2495267242686694
  0.0000765912847314  0.9999996555613961  0.7504240409956537
  0.4998167314050619  0.9999955669385230  0.2496483429755969
  0.4999179122646566  0.9999972387890068  0.7505311172206106
  0.4967875327494795  0.4999965592278386  0.2475633283100791
 
  0.00000000E+00  0.00000000E+00  0.00000000E+00
  0.00000000E+00  0.00000000E+00  0.00000000E+00
  0.00000000E+00  0.00000000E+00  0.00000000E+00
  0.00000000E+00  0.00000000E+00  0.00000000E+00
  0.00000000E+00  0.00000000E+00  0.00000000E+00
  0.00000000E+00  0.00000000E+00  0.00000000E+00
  0.00000000E+00  0.00000000E+00  0.00000000E+00
  0.00000000E+00  0.00000000E+00  0.00000000E+00
  0.00000000E+00  0.00000000E+00  0.00000000E+00
  0.00000000E+00  0.00000000E+00  0.00000000E+00
  0.00000000E+00  0.00000000E+00  0.00000000E+00
  0.00000000E+00  0.00000000E+00  0.00000000E+00
  0.00000000E+00  0.00000000E+00  0.00000000E+00
  0.00000000E+00  0.00000000E+00  0.00000000E+00
  0.00000000E+00  0.00000000E+00  0.00000000E+00
  0.00000000E+00  0.00000000E+00  0.00000000E+00
  0.00000000E+00  0.00000000E+00  0.00000000E+00
  0.00000000E+00  0.00000000E+00  0.00000000E+00
  0.00000000E+00  0.00000000E+00  0.00000000E+00
  0.00000000E+00  0.00000000E+00  0.00000000E+00
  0.00000000E+00  0.00000000E+00  0.00000000E+00
  0.00000000E+00  0.00000000E+00  0.00000000E+00
  0.00000000E+00  0.00000000E+00  0.00000000E+00
  0.00000000E+00  0.00000000E+00  0.00000000E+00
  0.00000000E+00  0.00000000E+00  0.00000000E+00
  0.00000000E+00  0.00000000E+00  0.00000000E+00
  0.00000000E+00  0.00000000E+00  0.00000000E+00
  0.00000000E+00  0.00000000E+00  0.00000000E+00
  0.00000000E+00  0.00000000E+00  0.00000000E+00
  0.00000000E+00  0.00000000E+00  0.00000000E+00
  0.00000000E+00  0.00000000E+00  0.00000000E+00
  0.00000000E+00  0.00000000E+00  0.00000000E+00
