Ti64 O64 F128                           
   1.00000000000000     
    15.2638358711715227    0.0000000000000000    0.0000000000000000
     0.0000000000000000   15.2638358711715227    0.0000000000000000
     0.0000000000000000    0.0000000000000000   15.2638358711715227
   Ti   O    F 
    64    64   128
Direct
  0.0010777844299375  0.9956753375890266  0.9947296141032963
  0.0020979753177021  0.9908767822913970  0.5040857838159625
  0.0047983302029321  0.4976120132678005  0.0064996089514844
  0.0086318813786791  0.5032076292167189  0.5058121270434677
  0.4906063148338268  0.0057021312917284  0.0040340441905578
  0.4987914492452605  0.9919929628590201  0.4908180158464213
  0.4921167970714742  0.4974597364565979  0.9927550874811520
  0.4980096471193530  0.4928002440070834  0.4915907579892951
  0.0060209857065074  0.0118289260757720  0.2513589905051571
  0.9952511372781012  0.9944671809002820  0.7585322974046304
  0.9957937454850426  0.4991068387236965  0.2439439061860522
  0.0018541438729710  0.4958312430197755  0.7448584943456318
  0.4945880114627854  0.0071116169458559  0.2556433882525774
  0.5092715218373550  0.0031227219932731  0.7479964074454114
  0.4922594820463239  0.4962739276473236  0.2534649959270285
  0.4948780127992143  0.5059671226657739  0.7524635459993396
  0.0015372417771507  0.2580407405752088  0.0062956975934528
  0.0047113274742070  0.2458614680399308  0.5071682986564008
  0.9948352709491304  0.7591516272596117  0.0012507464977558
  0.0022454834766004  0.7569860495148693  0.4932773469559522
  0.4910149980721347  0.2441963028200385  0.9993456603949030
  0.5064334853553673  0.2536438083826383  0.4997585559298066
  0.4950883434359080  0.7520817405239296  0.9916621328563390
  0.5019968386433477  0.7529778027104460  0.4912772127702157
  0.9954987622467616  0.2440179167862005  0.2451220376195422
  0.9989901595239692  0.2562791029552242  0.7439906532429891
  0.9961267849210088  0.7550548109272900  0.2578590369584436
  0.9908802156369434  0.7561881480186702  0.7487754210898506
  0.5069561499089669  0.2392875716992683  0.2467031850530640
  0.4932350006873581  0.2412131810638116  0.7510069542329078
  0.4947694476611446  0.7498075287975714  0.2548019192063656
  0.5045626317543945  0.7413215391958393  0.7528523432242727
  0.2582121408647748  0.9996204134887333  0.9941464260029963
  0.2502669661344354  0.9915287992701719  0.4931267137345056
  0.2565442374916657  0.4967615004591229  0.0091504180501458
  0.2419056349860695  0.4925481364990674  0.4956401355597734
  0.7481109486263775  0.9965904751967473  0.9954791481835223
  0.7515813186073724  0.0053010743616503  0.4935015963759397
  0.7480108374165994  0.4967583063583987  0.9953588084363967
  0.7536360609877137  0.5049170128758307  0.4926676093851357
  0.2428062748880798  0.0036831863874789  0.2570424208032449
  0.2530935178780971  0.9935958292972971  0.7551934680860103
  0.2530402584710666  0.4901925361706391  0.2428350955458723
  0.2595295863178321  0.4944395906663084  0.7516507608061079
  0.7540805485823371  0.0081239400157028  0.2579608615498283
  0.7432367782364219  0.0008437896393486  0.7585910973734594
  0.7566168013450784  0.4965799539845918  0.2548861579601085
  0.7510011188865334  0.4923005931347373  0.7557369133004009
  0.2584951544121220  0.2538881705719713  0.0067819140390720
  0.2427171172992702  0.2522102829522412  0.4981698940969540
  0.2556482348605001  0.7503394398586373  0.9925321053006877
  0.2470746654099623  0.7523417214815095  0.4924867942953798
  0.7451836308526201  0.2598534310332050  0.9944336945313865
  0.7449097521259126  0.2430746378228584  0.5028279807257128
  0.7553625224911971  0.7594739771903690  0.9975834774499026
  0.7531182421952018  0.7423556863456673  0.5077099565231484
  0.2512309542829333  0.2596639570974041  0.2449491243446806
  0.2580905815859056  0.2545539904428302  0.7551180406077789
  0.2554840098919596  0.7476046362618834  0.2550940764729183
  0.2479425273142389  0.7539563054831925  0.7547863315702368
  0.7444653018539401  0.2422242637010859  0.2483790611443750
  0.7479772969064696  0.2597021602430152  0.7576671589479704
  0.7566045459248253  0.7541759624266838  0.2528446955942197
  0.7591813481833668  0.7468535233721898  0.7440968375485896
  0.0144375867227081  0.5096135865517010  0.1257758440746402
  0.0105008489204601  0.5093091977768274  0.6252306014755394
  0.9828479200340517  0.9915261169663269  0.8763426641052819
  0.4801887628929739  0.0118746024982971  0.3736746716367158
  0.4919803784641239  0.5117219326820458  0.3739209973896614
  0.4937868567745427  0.5086105920604033  0.8753592987584637
  0.9872952421254273  0.2464465366575114  0.1264569619091974
  0.9852343974666739  0.2409278774297786  0.6250866396227053
  0.0174384541904719  0.7637274550413566  0.3762115029452814
  0.5116634048129358  0.7341805923068145  0.3734543305293025
  0.5105449412715295  0.7415383233796089  0.8741884274357548
  0.2312619845621448  0.4824383626683880  0.1236152430766422
  0.2680395677249640  0.0055122693307919  0.3746874706617440
  0.2641297183175784  0.0085845076714841  0.8755239811780938
  0.7645095865472504  0.9845897954749766  0.3752055492517028
  0.7664186174444140  0.9978673694586558  0.8762245860646330
  0.7549439870976882  0.4851905429167692  0.3747842444550782
  0.7559092219304657  0.4940770585624508  0.8755178612315202
  0.2625343253174803  0.2681840651635116  0.1242768189090288
  0.7694130601854199  0.7406066903282256  0.6252277150264408
  0.2358328102739023  0.7377710527837581  0.3741770506865918
  0.2386473567759884  0.7399485192310281  0.8740161903978763
  0.7294067217880549  0.2584011328118491  0.8757763595933448
  0.1251226710083350  0.5158204113831408  0.4859027975134467
  0.1241246081210284  0.0178761587268587  0.2678881599131849
  0.6257451886020599  0.9827705765701074  0.7651923833244746
  0.1244035626184057  0.2337928023383440  0.5103760613694500
  0.6255377240436594  0.2376596702082596  0.5130531151502712
  0.6256079609332290  0.2339485886302671  0.2346018436603236
  0.3746802247893312  0.9810714916013934  0.0162674687845522
  0.3741433306971238  0.4798400272568105  0.0106679957989574
  0.3748884637817296  0.4861626007758428  0.2377109134646320
  0.3746809619480885  0.5101722464478207  0.7365893742146654
  0.8758210225816481  0.4893660170062917  0.2402460772622466
  0.3752083412694275  0.2667509113743860  0.9805043042470473
  0.3743813171223158  0.7656728086955698  0.9923044164676662
  0.8754227386413855  0.7628613245855618  0.9866457659128344
  0.3762601778480766  0.2356613012922422  0.7697722375370867
  0.3748256208297899  0.7592137356452885  0.2578537459920933
  0.8737410296603344  0.7653800882963979  0.2640050050048173
  0.8749849615905726  0.7354643394801984  0.7704666256855808
  0.4845699164423118  0.1257284790912900  0.0123767534645201
  0.9780715918285969  0.1257763460174888  0.2634660854740923
  0.4828302380719530  0.1236383406514683  0.2301329408752479
  0.5144319730664834  0.1231092173502590  0.7417401729322403
  0.5177060968935993  0.6251190241991200  0.7373037334334889
  0.0124422456504130  0.3770011448537564  0.0025282119256134
  0.0131395849496746  0.8780285996984278  0.0131799631806495
  0.0199722557330489  0.8760890762249604  0.5164093052812092
  0.5075664247417283  0.3717180891388474  0.4856845066302877
  0.5128859313441927  0.8736509319826370  0.4867436151137125
  0.9876648641862646  0.3758463261318760  0.7470906990223460
  0.9870402389296907  0.8760632279277955  0.7363647795303067
  0.7644251124135510  0.1236438232172445  0.4899472211738888
  0.7662771936827846  0.6261495664831883  0.4862032131270262
  0.7690699738845148  0.1263287295973202  0.2639770495794704
  0.2403366785342489  0.3721708031592595  0.4865934331264196
  0.2323017977215636  0.8728049010751868  0.4939582816419482
  0.7392092019734989  0.3775437423817367  0.0138506611753592
  0.7382118340102852  0.8779060066943443  0.0099169144930866
  0.2336461346285732  0.3723745081838025  0.2697053208295993
  0.2580235256791961  0.3731427891770864  0.7633722713190287
  0.2590091286882226  0.8742820539669183  0.7540447375130438
  0.7696975615732182  0.3751258549843837  0.7392974607878250
  0.0141911875717732  0.0164657057527878  0.1257377248059234
  0.0159489326767557  0.0175937109226042  0.6246873288910134
  0.5188347463983580  0.9854560678649554  0.1262231619001643
  0.5163681859647421  0.9885385211794885  0.6221077887460611
  0.5131792626413046  0.4845644784173843  0.1242756481414059
  0.5092589260466701  0.4855499006067708  0.6227224466461637
  0.9824549631922658  0.9823273628084711  0.3775456421187209
  0.9884497618281546  0.4936724070028879  0.3761462686062399
  0.9873366460920854  0.5016470263513469  0.8754534130207945
  0.4823662160851199  0.0062546400077636  0.8751672475763976
  0.9865850812343705  0.7402081187888523  0.1279045224943496
  0.9798656484362970  0.7368150069721640  0.6219869163285224
  0.4819004557957891  0.2704438067183506  0.1248431811891833
  0.4811209655680647  0.2593240966690162  0.6250875667765218
  0.4973471957261302  0.7642626984308895  0.1247490036400842
  0.4900486092188448  0.7605791871861115  0.6225045587037398
  0.0097290687266603  0.2575724443718623  0.3753707836324436
  0.0138229378991278  0.2509949089998922  0.8754188733567471
  0.0199503197403218  0.7615915170096949  0.8743292447801292
  0.5112430946299129  0.2271834465449920  0.3736309693933365
  0.5254379086742879  0.2405264073215193  0.8762271449151476
  0.2333377494260788  0.9939228032728190  0.1253165377911619
  0.2323255380665825  0.9956156425534309  0.6238551919012912
  0.2344136258321914  0.4883820825665037  0.6245930084828434
  0.7359986610310848  0.0128134003710156  0.1275440467982317
  0.7375394654916236  0.0046661562733251  0.6245493386474013
  0.7430369207197944  0.5183991381278945  0.1258854307475845
  0.7463973400482751  0.5126430499529129  0.6249716694403488
  0.2659179449829510  0.5156408634459563  0.3737649368153840
  0.2609924427381952  0.5165932210052754  0.8767022557317744
  0.2654986559739210  0.2566136920524414  0.6256499123681459
  0.2533393263622042  0.7613018545246797  0.1247118856455246
  0.2610365832279560  0.7522049123181368  0.6230999633284863
  0.7703593958751067  0.2406350844875523  0.1248483605275718
  0.7679432798300440  0.2387258381510419  0.6272353097336371
  0.7622611510608628  0.7393888762784765  0.1267666017650198
  0.2415864000546956  0.2269403260384228  0.3728793139397934
  0.2316024754100885  0.2322563871157819  0.8778564950014248
  0.7367654379479842  0.2668240244819032  0.3746903531423622
  0.7329801405180073  0.7658327222022350  0.3759036677916788
  0.7310683683357198  0.7601986147847836  0.8728726477065289
  0.1262075662307059  0.0191236157728444  0.9887010804847446
  0.1230262893576585  0.0191036658323507  0.4813629914552626
  0.1275437912264020  0.5172911796126544  0.9817876190381724
  0.6224258124979283  0.0160916190108882  0.9856792724499264
  0.6244594780993453  0.0145745377161198  0.4846766861991950
  0.6234357439515841  0.5170764550827381  0.9969606440188993
  0.6256411228216399  0.5123741868906829  0.4971880522719884
  0.1236336940018898  0.9918196358431643  0.7624519032640793
  0.1245993552763608  0.5149457414251958  0.2677373281938648
  0.1259274859033870  0.4914227686371606  0.7655287385333577
  0.6243977177856351  0.0138821177697832  0.2645425779449041
  0.6256697328017019  0.5090916053325107  0.2535895070808220
  0.6259034875554099  0.4813053309196775  0.7513627999887995
  0.1270225152450146  0.2352097362079588  0.0125975062535997
  0.1245201884860155  0.7365914839075642  0.0123142260570371
  0.1226051551727252  0.7266717844400827  0.5192733446975784
  0.6227141547657895  0.2384611162558762  0.0233641039836902
  0.6256212585450032  0.7379652914858202  0.0117510644721261
  0.6263202525984721  0.7339084866451892  0.5154356553740969
  0.1249346990351414  0.2300040975303068  0.2409412232589922
  0.1258961042009323  0.2563374548680831  0.7368742829068958
  0.1224631561029781  0.7399968929884427  0.2355148750421065
  0.1224152950667528  0.7593900417027813  0.7309996776390804
  0.6244619533741373  0.2646212104993905  0.7291046618651004
  0.6277007084850779  0.7403299437729650  0.2388914066364065
  0.6284431861973675  0.7701088286754365  0.7348235730591287
  0.3746095471073480  0.9828958603145262  0.5213857707268356
  0.3728625276940438  0.4903454774570261  0.5131237156956485
  0.8750144484491101  0.9960096936439174  0.0221948075006397
  0.8770043740301765  0.9815025578192189  0.5198855052674383
  0.8757777280850191  0.4960332366112427  0.0119886802801519
  0.8774155334968649  0.4852444008409685  0.5093877814880604
  0.3730357265396546  0.9801929292656406  0.2304198743919679
  0.3765275782133790  0.0103189344972043  0.7306877542848583
  0.8765546109567977  0.9814371299013906  0.2340213928834487
  0.8733588802869945  0.0177159959162365  0.7310690520656976
  0.8751932454182000  0.5231976215805310  0.7428387371214956
  0.3750355833449578  0.2509529201127763  0.4861681750331017
  0.3742938409050507  0.7602914433956882  0.4880456990045055
  0.8741910857116070  0.2609435079719717  0.9838621194603159
  0.8747227979419957  0.2631698699607244  0.4862404193437470
  0.8759882261564677  0.7730578851734570  0.4812527898079113
  0.3773224354322818  0.2634764696148933  0.2657664770863654
  0.3749587242122199  0.7340464016431599  0.7545167521075823
  0.8729959735218126  0.2739945128156269  0.2639992368941514
  0.8737798844738134  0.2328825837792780  0.7694945865525634
  0.9887346535320720  0.1267528027437169  0.9943802898497300
  0.9816552996875356  0.1198235890862652  0.4864078235928341
  0.9918521734335141  0.6281767358899097  0.9922860874545872
  0.9795960495468135  0.6286154406515362  0.4889505562999491
  0.4882900136013691  0.1214132369164963  0.5141029142212055
  0.4856197352949252  0.6250374436825125  0.0160391187218260
  0.4890347536525252  0.6241212080675954  0.5136293222038674
  0.0099002230428519  0.1244227671961679  0.7579775311352659
  0.9887658682131887  0.6279593977184492  0.2626670973196138
  0.0151282089178066  0.6277674266681819  0.7577693666120884
  0.4929332677841467  0.6240730948515570  0.2298086167421165
  0.0124925061919767  0.3746455308783441  0.5051341373963356
  0.5209809803517286  0.3723784966824976  0.9891874042562550
  0.5193005560495103  0.8779555563574685  0.9898850791888230
  0.0194579747473281  0.3740878972043341  0.2484211109393711
  0.0134561438341138  0.8783998103416708  0.2363200384553289
  0.5138846433223807  0.3700453599986626  0.2646373882014923
  0.4926751153995891  0.3716830681296749  0.7591730078532772
  0.5146817568060592  0.8761777793833726  0.2600384894288145
  0.4840531568164113  0.8747730934865526  0.7549448966130583
  0.2660504420601689  0.1261596696739760  0.0146789410009325
  0.2627386505550124  0.1211053776759685  0.5107967133470620
  0.2644814095853283  0.6245417730929405  0.0157897749075845
  0.2638851781989866  0.6232912378917748  0.5102669150117397
  0.7581248866577037  0.1280898762398408  0.9981090965072933
  0.7589291157234399  0.6283694686107650  0.9920543670243467
  0.2692172393489541  0.1257175023710644  0.2357627302468261
  0.2392483999183351  0.1239525081978839  0.7397466297816416
  0.2573150952663747  0.6232502201022513  0.2339156296026804
  0.2357277931085825  0.6236810849499025  0.7382828454243018
  0.7342035263904323  0.1271257911157878  0.7522985134981068
  0.7591872739762701  0.6277697513731927  0.2649602369344978
  0.7292118093286191  0.6249887127686795  0.7579333727475803
  0.2282832045853171  0.3746393409173885  0.9769790645138341
  0.2268759581375152  0.8760191951304955  0.9933456323593426
  0.7412651013320750  0.3748380532776820  0.5150581809236155
  0.7351481322232432  0.8740888181857140  0.5104730052886498
  0.2337776808959075  0.8750930518527104  0.2554555191365437
  0.7360326507129985  0.3734644219956298  0.2323296521932380
  0.7345362583198167  0.8765934252219523  0.2348178629231178
  0.7696300003275692  0.8757546717778316  0.7427308725406018
 
  0.00000000E+00  0.00000000E+00  0.00000000E+00
  0.00000000E+00  0.00000000E+00  0.00000000E+00
  0.00000000E+00  0.00000000E+00  0.00000000E+00
  0.00000000E+00  0.00000000E+00  0.00000000E+00
  0.00000000E+00  0.00000000E+00  0.00000000E+00
  0.00000000E+00  0.00000000E+00  0.00000000E+00
  0.00000000E+00  0.00000000E+00  0.00000000E+00
  0.00000000E+00  0.00000000E+00  0.00000000E+00
  0.00000000E+00  0.00000000E+00  0.00000000E+00
  0.00000000E+00  0.00000000E+00  0.00000000E+00
  0.00000000E+00  0.00000000E+00  0.00000000E+00
  0.00000000E+00  0.00000000E+00  0.00000000E+00
  0.00000000E+00  0.00000000E+00  0.00000000E+00
  0.00000000E+00  0.00000000E+00  0.00000000E+00
  0.00000000E+00  0.00000000E+00  0.00000000E+00
  0.00000000E+00  0.00000000E+00  0.00000000E+00
  0.00000000E+00  0.00000000E+00  0.00000000E+00
  0.00000000E+00  0.00000000E+00  0.00000000E+00
  0.00000000E+00  0.00000000E+00  0.00000000E+00
  0.00000000E+00  0.00000000E+00  0.00000000E+00
  0.00000000E+00  0.00000000E+00  0.00000000E+00
  0.00000000E+00  0.00000000E+00  0.00000000E+00
  0.00000000E+00  0.00000000E+00  0.00000000E+00
  0.00000000E+00  0.00000000E+00  0.00000000E+00
  0.00000000E+00  0.00000000E+00  0.00000000E+00
  0.00000000E+00  0.00000000E+00  0.00000000E+00
  0.00000000E+00  0.00000000E+00  0.00000000E+00
  0.00000000E+00  0.00000000E+00  0.00000000E+00
  0.00000000E+00  0.00000000E+00  0.00000000E+00
  0.00000000E+00  0.00000000E+00  0.00000000E+00
  0.00000000E+00  0.00000000E+00  0.00000000E+00
  0.00000000E+00  0.00000000E+00  0.00000000E+00
  0.00000000E+00  0.00000000E+00  0.00000000E+00
  0.00000000E+00  0.00000000E+00  0.00000000E+00
  0.00000000E+00  0.00000000E+00  0.00000000E+00
  0.00000000E+00  0.00000000E+00  0.00000000E+00
  0.00000000E+00  0.00000000E+00  0.00000000E+00
  0.00000000E+00  0.00000000E+00  0.00000000E+00
  0.00000000E+00  0.00000000E+00  0.00000000E+00
  0.00000000E+00  0.00000000E+00  0.00000000E+00
  0.00000000E+00  0.00000000E+00  0.00000000E+00
  0.00000000E+00  0.00000000E+00  0.00000000E+00
  0.00000000E+00  0.00000000E+00  0.00000000E+00
  0.00000000E+00  0.00000000E+00  0.00000000E+00
  0.00000000E+00  0.00000000E+00  0.00000000E+00
  0.00000000E+00  0.00000000E+00  0.00000000E+00
  0.00000000E+00  0.00000000E+00  0.00000000E+00
  0.00000000E+00  0.00000000E+00  0.00000000E+00
  0.00000000E+00  0.00000000E+00  0.00000000E+00
  0.00000000E+00  0.00000000E+00  0.00000000E+00
  0.00000000E+00  0.00000000E+00  0.00000000E+00
  0.00000000E+00  0.00000000E+00  0.00000000E+00
  0.00000000E+00  0.00000000E+00  0.00000000E+00
  0.00000000E+00  0.00000000E+00  0.00000000E+00
  0.00000000E+00  0.00000000E+00  0.00000000E+00
  0.00000000E+00  0.00000000E+00  0.00000000E+00
  0.00000000E+00  0.00000000E+00  0.00000000E+00
  0.00000000E+00  0.00000000E+00  0.00000000E+00
  0.00000000E+00  0.00000000E+00  0.00000000E+00
  0.00000000E+00  0.00000000E+00  0.00000000E+00
  0.00000000E+00  0.00000000E+00  0.00000000E+00
  0.00000000E+00  0.00000000E+00  0.00000000E+00
  0.00000000E+00  0.00000000E+00  0.00000000E+00
  0.00000000E+00  0.00000000E+00  0.00000000E+00
  0.00000000E+00  0.00000000E+00  0.00000000E+00
  0.00000000E+00  0.00000000E+00  0.00000000E+00
  0.00000000E+00  0.00000000E+00  0.00000000E+00
  0.00000000E+00  0.00000000E+00  0.00000000E+00
  0.00000000E+00  0.00000000E+00  0.00000000E+00
  0.00000000E+00  0.00000000E+00  0.00000000E+00
  0.00000000E+00  0.00000000E+00  0.00000000E+00
  0.00000000E+00  0.00000000E+00  0.00000000E+00
  0.00000000E+00  0.00000000E+00  0.00000000E+00
  0.00000000E+00  0.00000000E+00  0.00000000E+00
  0.00000000E+00  0.00000000E+00  0.00000000E+00
  0.00000000E+00  0.00000000E+00  0.00000000E+00
  0.00000000E+00  0.00000000E+00  0.00000000E+00
  0.00000000E+00  0.00000000E+00  0.00000000E+00
  0.00000000E+00  0.00000000E+00  0.00000000E+00
  0.00000000E+00  0.00000000E+00  0.00000000E+00
  0.00000000E+00  0.00000000E+00  0.00000000E+00
  0.00000000E+00  0.00000000E+00  0.00000000E+00
  0.00000000E+00  0.00000000E+00  0.00000000E+00
  0.00000000E+00  0.00000000E+00  0.00000000E+00
  0.00000000E+00  0.00000000E+00  0.00000000E+00
  0.00000000E+00  0.00000000E+00  0.00000000E+00
  0.00000000E+00  0.00000000E+00  0.00000000E+00
  0.00000000E+00  0.00000000E+00  0.00000000E+00
  0.00000000E+00  0.00000000E+00  0.00000000E+00
  0.00000000E+00  0.00000000E+00  0.00000000E+00
  0.00000000E+00  0.00000000E+00  0.00000000E+00
  0.00000000E+00  0.00000000E+00  0.00000000E+00
  0.00000000E+00  0.00000000E+00  0.00000000E+00
  0.00000000E+00  0.00000000E+00  0.00000000E+00
  0.00000000E+00  0.00000000E+00  0.00000000E+00
  0.00000000E+00  0.00000000E+00  0.00000000E+00
  0.00000000E+00  0.00000000E+00  0.00000000E+00
  0.00000000E+00  0.00000000E+00  0.00000000E+00
  0.00000000E+00  0.00000000E+00  0.00000000E+00
  0.00000000E+00  0.00000000E+00  0.00000000E+00
  0.00000000E+00  0.00000000E+00  0.00000000E+00
  0.00000000E+00  0.00000000E+00  0.00000000E+00
  0.00000000E+00  0.00000000E+00  0.00000000E+00
  0.00000000E+00  0.00000000E+00  0.00000000E+00
  0.00000000E+00  0.00000000E+00  0.00000000E+00
  0.00000000E+00  0.00000000E+00  0.00000000E+00
  0.00000000E+00  0.00000000E+00  0.00000000E+00
  0.00000000E+00  0.00000000E+00  0.00000000E+00
  0.00000000E+00  0.00000000E+00  0.00000000E+00
  0.00000000E+00  0.00000000E+00  0.00000000E+00
  0.00000000E+00  0.00000000E+00  0.00000000E+00
  0.00000000E+00  0.00000000E+00  0.00000000E+00
  0.00000000E+00  0.00000000E+00  0.00000000E+00
  0.00000000E+00  0.00000000E+00  0.00000000E+00
  0.00000000E+00  0.00000000E+00  0.00000000E+00
  0.00000000E+00  0.00000000E+00  0.00000000E+00
  0.00000000E+00  0.00000000E+00  0.00000000E+00
  0.00000000E+00  0.00000000E+00  0.00000000E+00
  0.00000000E+00  0.00000000E+00  0.00000000E+00
  0.00000000E+00  0.00000000E+00  0.00000000E+00
  0.00000000E+00  0.00000000E+00  0.00000000E+00
  0.00000000E+00  0.00000000E+00  0.00000000E+00
  0.00000000E+00  0.00000000E+00  0.00000000E+00
  0.00000000E+00  0.00000000E+00  0.00000000E+00
  0.00000000E+00  0.00000000E+00  0.00000000E+00
  0.00000000E+00  0.00000000E+00  0.00000000E+00
  0.00000000E+00  0.00000000E+00  0.00000000E+00
  0.00000000E+00  0.00000000E+00  0.00000000E+00
  0.00000000E+00  0.00000000E+00  0.00000000E+00
  0.00000000E+00  0.00000000E+00  0.00000000E+00
  0.00000000E+00  0.00000000E+00  0.00000000E+00
  0.00000000E+00  0.00000000E+00  0.00000000E+00
  0.00000000E+00  0.00000000E+00  0.00000000E+00
  0.00000000E+00  0.00000000E+00  0.00000000E+00
  0.00000000E+00  0.00000000E+00  0.00000000E+00
  0.00000000E+00  0.00000000E+00  0.00000000E+00
  0.00000000E+00  0.00000000E+00  0.00000000E+00
  0.00000000E+00  0.00000000E+00  0.00000000E+00
  0.00000000E+00  0.00000000E+00  0.00000000E+00
  0.00000000E+00  0.00000000E+00  0.00000000E+00
  0.00000000E+00  0.00000000E+00  0.00000000E+00
  0.00000000E+00  0.00000000E+00  0.00000000E+00
  0.00000000E+00  0.00000000E+00  0.00000000E+00
  0.00000000E+00  0.00000000E+00  0.00000000E+00
  0.00000000E+00  0.00000000E+00  0.00000000E+00
  0.00000000E+00  0.00000000E+00  0.00000000E+00
  0.00000000E+00  0.00000000E+00  0.00000000E+00
  0.00000000E+00  0.00000000E+00  0.00000000E+00
  0.00000000E+00  0.00000000E+00  0.00000000E+00
  0.00000000E+00  0.00000000E+00  0.00000000E+00
  0.00000000E+00  0.00000000E+00  0.00000000E+00
  0.00000000E+00  0.00000000E+00  0.00000000E+00
  0.00000000E+00  0.00000000E+00  0.00000000E+00
  0.00000000E+00  0.00000000E+00  0.00000000E+00
  0.00000000E+00  0.00000000E+00  0.00000000E+00
  0.00000000E+00  0.00000000E+00  0.00000000E+00
  0.00000000E+00  0.00000000E+00  0.00000000E+00
  0.00000000E+00  0.00000000E+00  0.00000000E+00
  0.00000000E+00  0.00000000E+00  0.00000000E+00
  0.00000000E+00  0.00000000E+00  0.00000000E+00
  0.00000000E+00  0.00000000E+00  0.00000000E+00
  0.00000000E+00  0.00000000E+00  0.00000000E+00
  0.00000000E+00  0.00000000E+00  0.00000000E+00
  0.00000000E+00  0.00000000E+00  0.00000000E+00
  0.00000000E+00  0.00000000E+00  0.00000000E+00
  0.00000000E+00  0.00000000E+00  0.00000000E+00
  0.00000000E+00  0.00000000E+00  0.00000000E+00
  0.00000000E+00  0.00000000E+00  0.00000000E+00
  0.00000000E+00  0.00000000E+00  0.00000000E+00
  0.00000000E+00  0.00000000E+00  0.00000000E+00
  0.00000000E+00  0.00000000E+00  0.00000000E+00
  0.00000000E+00  0.00000000E+00  0.00000000E+00
  0.00000000E+00  0.00000000E+00  0.00000000E+00
  0.00000000E+00  0.00000000E+00  0.00000000E+00
  0.00000000E+00  0.00000000E+00  0.00000000E+00
  0.00000000E+00  0.00000000E+00  0.00000000E+00
  0.00000000E+00  0.00000000E+00  0.00000000E+00
  0.00000000E+00  0.00000000E+00  0.00000000E+00
  0.00000000E+00  0.00000000E+00  0.00000000E+00
  0.00000000E+00  0.00000000E+00  0.00000000E+00
  0.00000000E+00  0.00000000E+00  0.00000000E+00
  0.00000000E+00  0.00000000E+00  0.00000000E+00
  0.00000000E+00  0.00000000E+00  0.00000000E+00
  0.00000000E+00  0.00000000E+00  0.00000000E+00
  0.00000000E+00  0.00000000E+00  0.00000000E+00
  0.00000000E+00  0.00000000E+00  0.00000000E+00
  0.00000000E+00  0.00000000E+00  0.00000000E+00
  0.00000000E+00  0.00000000E+00  0.00000000E+00
  0.00000000E+00  0.00000000E+00  0.00000000E+00
  0.00000000E+00  0.00000000E+00  0.00000000E+00
  0.00000000E+00  0.00000000E+00  0.00000000E+00
  0.00000000E+00  0.00000000E+00  0.00000000E+00
  0.00000000E+00  0.00000000E+00  0.00000000E+00
  0.00000000E+00  0.00000000E+00  0.00000000E+00
  0.00000000E+00  0.00000000E+00  0.00000000E+00
  0.00000000E+00  0.00000000E+00  0.00000000E+00
  0.00000000E+00  0.00000000E+00  0.00000000E+00
  0.00000000E+00  0.00000000E+00  0.00000000E+00
  0.00000000E+00  0.00000000E+00  0.00000000E+00
  0.00000000E+00  0.00000000E+00  0.00000000E+00
  0.00000000E+00  0.00000000E+00  0.00000000E+00
  0.00000000E+00  0.00000000E+00  0.00000000E+00
  0.00000000E+00  0.00000000E+00  0.00000000E+00
  0.00000000E+00  0.00000000E+00  0.00000000E+00
  0.00000000E+00  0.00000000E+00  0.00000000E+00
  0.00000000E+00  0.00000000E+00  0.00000000E+00
  0.00000000E+00  0.00000000E+00  0.00000000E+00
  0.00000000E+00  0.00000000E+00  0.00000000E+00
  0.00000000E+00  0.00000000E+00  0.00000000E+00
  0.00000000E+00  0.00000000E+00  0.00000000E+00
  0.00000000E+00  0.00000000E+00  0.00000000E+00
  0.00000000E+00  0.00000000E+00  0.00000000E+00
  0.00000000E+00  0.00000000E+00  0.00000000E+00
  0.00000000E+00  0.00000000E+00  0.00000000E+00
  0.00000000E+00  0.00000000E+00  0.00000000E+00
  0.00000000E+00  0.00000000E+00  0.00000000E+00
  0.00000000E+00  0.00000000E+00  0.00000000E+00
  0.00000000E+00  0.00000000E+00  0.00000000E+00
  0.00000000E+00  0.00000000E+00  0.00000000E+00
  0.00000000E+00  0.00000000E+00  0.00000000E+00
  0.00000000E+00  0.00000000E+00  0.00000000E+00
  0.00000000E+00  0.00000000E+00  0.00000000E+00
  0.00000000E+00  0.00000000E+00  0.00000000E+00
  0.00000000E+00  0.00000000E+00  0.00000000E+00
  0.00000000E+00  0.00000000E+00  0.00000000E+00
  0.00000000E+00  0.00000000E+00  0.00000000E+00
  0.00000000E+00  0.00000000E+00  0.00000000E+00
  0.00000000E+00  0.00000000E+00  0.00000000E+00
  0.00000000E+00  0.00000000E+00  0.00000000E+00
  0.00000000E+00  0.00000000E+00  0.00000000E+00
  0.00000000E+00  0.00000000E+00  0.00000000E+00
  0.00000000E+00  0.00000000E+00  0.00000000E+00
  0.00000000E+00  0.00000000E+00  0.00000000E+00
  0.00000000E+00  0.00000000E+00  0.00000000E+00
  0.00000000E+00  0.00000000E+00  0.00000000E+00
  0.00000000E+00  0.00000000E+00  0.00000000E+00
  0.00000000E+00  0.00000000E+00  0.00000000E+00
  0.00000000E+00  0.00000000E+00  0.00000000E+00
  0.00000000E+00  0.00000000E+00  0.00000000E+00
  0.00000000E+00  0.00000000E+00  0.00000000E+00
  0.00000000E+00  0.00000000E+00  0.00000000E+00
  0.00000000E+00  0.00000000E+00  0.00000000E+00
  0.00000000E+00  0.00000000E+00  0.00000000E+00
  0.00000000E+00  0.00000000E+00  0.00000000E+00
  0.00000000E+00  0.00000000E+00  0.00000000E+00
  0.00000000E+00  0.00000000E+00  0.00000000E+00
  0.00000000E+00  0.00000000E+00  0.00000000E+00
  0.00000000E+00  0.00000000E+00  0.00000000E+00
  0.00000000E+00  0.00000000E+00  0.00000000E+00
  0.00000000E+00  0.00000000E+00  0.00000000E+00
  0.00000000E+00  0.00000000E+00  0.00000000E+00
  0.00000000E+00  0.00000000E+00  0.00000000E+00
  0.00000000E+00  0.00000000E+00  0.00000000E+00
  0.00000000E+00  0.00000000E+00  0.00000000E+00
  0.00000000E+00  0.00000000E+00  0.00000000E+00
  0.00000000E+00  0.00000000E+00  0.00000000E+00
