Ti27 O27 F54                            
   1.00000000000000     
    11.5640161548347180    0.0060074001707464   -0.0115002119155466
     0.0060062970519265   11.5817353999176245    0.0096012375882196
    -0.0115596918405849    0.0096003442591016   11.5899526055844522
   Ti   O    F 
    27    27    54
Direct
 -0.0089557771755200  0.0007407288652569  0.0115517819384036
  0.0076029932688262  0.0092498972972818  0.3245827370898789
 -0.0110558482443488 -0.0001949407761350  0.6674440319622637
 -0.0120497731608415  0.3429103165386880 -0.0005856321795148
 -0.0018065556654876  0.3215877825711752  0.3424888506410601
  0.0002386128069779  0.3441117134876617  0.6570192141327017
  0.0070303795335810  0.6576646915293729 -0.0098124624782826
 -0.0089041367979003  0.6666588133531045  0.3333646616419097
 -0.0010927866694759  0.6577447555711421  0.6787818476472747
  0.3344590529079881 -0.0134046971767941 -0.0008992932913889
  0.3216331031487240  0.0002566396256775  0.3435869585184942
  0.3324278888240298 -0.0104891566584530  0.6571177946257866
  0.3339765530299865  0.3315588727895316 -0.0121851979979387
  0.3413150078328895  0.3435150490813634  0.3330374655576823
  0.3457552837206034  0.3333735439188589  0.6718871576753828
  0.3223581755091873  0.6723308476759661  0.0074456106066945
  0.3335553561215002  0.6578579526295888  0.3221219031766230
  0.3454726040478738  0.6752284289413820  0.6663997843794701
  0.6770093621765471  0.0007598283140795 -0.0090372344608084
  0.6668323091113942  0.0120120402224248  0.3340864352513963
  0.6732424722043517  0.0002141696242828  0.6779236241450116
  0.6756193881516790  0.3412356207003431 -0.0102635261569491
  0.6567231809510288  0.3255323914225813  0.3343010274016665
  0.6601530603167486  0.3432064809133123  0.6771199846814979
  0.6677534910400375  0.6565174273953076 -0.0118361990359093
  0.6757036478325468  0.6679134074718268  0.3331237965321352
  0.6611216007962865  0.6561387576414531  0.6766799217958360
 -0.0120558032889386  0.1664759807682375  0.3345076111967973
 -0.0071199695816542  0.4996661793247419 -0.0013276225188796
 -0.0074916883943664  0.4999446049963920  0.6702741790960078
  0.3304759005645775  0.4995595011292284  0.3369145826343155
  0.3355627078815607  0.8353183375232349 -0.0088978932254708
  0.3330559940943273  0.8342308113962663  0.6751746986914160
  0.6753356955082968  0.1648828860080968  0.3335746475120436
  0.6708239266244206  0.5010781405489110  0.0005838145920924
  0.6794942841022651  0.4999009552810809  0.6666409486395515
  0.1665220047147329 -0.0005001465455849  0.3334237039944426
  0.1665120893853250  0.6647532326472856 -0.0010554136819287
  0.5006099273122516  0.3313978703841972  0.3405889120167191
  0.4983266070016660  0.3372613982519109  0.6543180760739282
  0.4998848216940300  0.6615163153339333  0.6652036140961775
  0.8331826830615187  0.0044927314032590 -0.0052315526301679
  0.8347704087717309 -0.0017167262441801  0.6684062406613008
  0.8339359574224532  0.3212394259228868  0.0001457209484189
  0.8330926958320495  0.6649465234880809  0.3312758282931926
 -0.0038090792760869 -0.0029181913551808  0.1666352776505070
 -0.0009665678473029  0.3363366800930531  0.4991122273028376
 -0.0105860856615940  0.6737405616351235  0.8319993635870426
  0.3354063209127002  0.0003664850469265  0.5002646006813982
  0.3385644929062802  0.3342970526160372  0.8347515448527766
  0.3368720532932989  0.6681657035912476  0.1678416189152503
  0.6609339787151963  0.0018754149302968  0.8330167584360167
  0.6587150216306555  0.3243156141051223  0.8336042998009348
  0.6771689326734235  0.6752102487724964  0.8336644906196231
  0.0123713427223228  0.1664293983135887 -0.0013171844706088
  0.0043064453281274  0.1648387997822726  0.6667919892708429
  0.0081977149889300  0.5024107353837859  0.3274592933620784
  0.0026590586803858  0.8347601332906811 -0.0003313820620615
 -0.0019373561046927  0.8318311863375951  0.3403838244257782
  0.0085248223580404  0.8345573134149189  0.6593341439275586
  0.3315166918113901  0.1658023690417459  0.0051969384191941
  0.3347954791162274  0.1670040328939233  0.3269832851784166
  0.3310027008305823  0.1660766739682252  0.6681466202502417
  0.3384673894906363  0.4974381024292712  0.0044069645975711
  0.3230268629450936  0.4997212135967474  0.6573208903588765
  0.3398324971475588  0.8329280974412452  0.3335314002851439
  0.6576017610608282  0.1650534841658992  0.0129174381860643
  0.6654032963755159  0.1650188604431997  0.6542728057639039
  0.6631409644809878  0.5021189326226837  0.3335018767931384
  0.6605407967860689  0.8352511844674189  0.0079619655007851
  0.6617179691845271  0.8332454696135143  0.3332564414913419
  0.6616191849242977  0.8354414499083085  0.6590847974950919
  0.1679859297430726  0.0008630499551696 -0.0016414756458108
  0.1649920072775188  0.0035632975044705  0.6685184358963081
  0.1683810367073244  0.3349163638767335  0.0016651483635485
  0.1666909351398977  0.3273164159967538  0.3289446681965408
  0.1669709166369995  0.3315489684454053  0.6689894092957490
  0.1644718069747017  0.6742699243860193  0.3331315743630573
  0.1662541975718201  0.6653126323068647  0.6675618783210228
  0.5000707902065014  0.0042641931736997  0.0061838943025245
  0.5009257572204123  0.0017736377906187  0.3278072298477779
  0.5004296755580140  0.0049831389878839  0.6658346463739595
  0.4987418708098913  0.3300355374986221  0.0115741612227561
  0.4995890063928602  0.6660616876872155 -0.0048840919479594
  0.5024381124193779  0.6663050349350519  0.3411236118404015
  0.8312542676861544 -0.0144865528875605  0.3408092150619303
  0.8321621678774727  0.3487057307945788  0.3255790276679704
  0.8348184165077653  0.3182948203668655  0.6717850217299112
  0.8331782594701580  0.6792501848531026  0.0170881589552165
  0.8342639139454617  0.6824260697413737  0.6505833933782893
  0.0003664957263689 -0.0008924738606547  0.5014228657348547
  0.0072422975331404 -0.0030819148745927  0.8327177699823373
  0.0042706137526162  0.3332230605964221  0.1676315640019473
  0.0054549895247975  0.3255287068890099  0.8320889057603099
  0.0031710913699102  0.6735965670396270  0.1693348913667699
  0.0047820823346352  0.6637434760816443  0.4975721787664903
  0.3344824174056915 -0.0028041707817963  0.1661420661665327
  0.3367227575927649  0.0125261504546233  0.8338699591933025
  0.3316975151216183  0.3328963248165915  0.1661369824571036
  0.3197926731772904  0.3243086265316190  0.4991333817808437
  0.3280029662897394  0.6729623162281816  0.4984278332344739
  0.3334769682492018  0.6524948116668120  0.8331574514645782
  0.6696718375185408 -0.0048939423107165  0.1689740121659535
  0.6609210432080346 -0.0043606612048955  0.4989292608258772
  0.6644573792773869  0.3351615248122512  0.1690892814431311
  0.6808703152101846  0.3344858748832287  0.4981994890192739
  0.6573767900083227  0.6698632463090127  0.1697358057903123
  0.6674971207554767  0.6698419501723648  0.4970249628126354
 
  0.00000000E+00  0.00000000E+00  0.00000000E+00
  0.00000000E+00  0.00000000E+00  0.00000000E+00
  0.00000000E+00  0.00000000E+00  0.00000000E+00
  0.00000000E+00  0.00000000E+00  0.00000000E+00
  0.00000000E+00  0.00000000E+00  0.00000000E+00
  0.00000000E+00  0.00000000E+00  0.00000000E+00
  0.00000000E+00  0.00000000E+00  0.00000000E+00
  0.00000000E+00  0.00000000E+00  0.00000000E+00
  0.00000000E+00  0.00000000E+00  0.00000000E+00
  0.00000000E+00  0.00000000E+00  0.00000000E+00
  0.00000000E+00  0.00000000E+00  0.00000000E+00
  0.00000000E+00  0.00000000E+00  0.00000000E+00
  0.00000000E+00  0.00000000E+00  0.00000000E+00
  0.00000000E+00  0.00000000E+00  0.00000000E+00
  0.00000000E+00  0.00000000E+00  0.00000000E+00
  0.00000000E+00  0.00000000E+00  0.00000000E+00
  0.00000000E+00  0.00000000E+00  0.00000000E+00
  0.00000000E+00  0.00000000E+00  0.00000000E+00
  0.00000000E+00  0.00000000E+00  0.00000000E+00
  0.00000000E+00  0.00000000E+00  0.00000000E+00
  0.00000000E+00  0.00000000E+00  0.00000000E+00
  0.00000000E+00  0.00000000E+00  0.00000000E+00
  0.00000000E+00  0.00000000E+00  0.00000000E+00
  0.00000000E+00  0.00000000E+00  0.00000000E+00
  0.00000000E+00  0.00000000E+00  0.00000000E+00
  0.00000000E+00  0.00000000E+00  0.00000000E+00
  0.00000000E+00  0.00000000E+00  0.00000000E+00
  0.00000000E+00  0.00000000E+00  0.00000000E+00
  0.00000000E+00  0.00000000E+00  0.00000000E+00
  0.00000000E+00  0.00000000E+00  0.00000000E+00
  0.00000000E+00  0.00000000E+00  0.00000000E+00
  0.00000000E+00  0.00000000E+00  0.00000000E+00
  0.00000000E+00  0.00000000E+00  0.00000000E+00
  0.00000000E+00  0.00000000E+00  0.00000000E+00
  0.00000000E+00  0.00000000E+00  0.00000000E+00
  0.00000000E+00  0.00000000E+00  0.00000000E+00
  0.00000000E+00  0.00000000E+00  0.00000000E+00
  0.00000000E+00  0.00000000E+00  0.00000000E+00
  0.00000000E+00  0.00000000E+00  0.00000000E+00
  0.00000000E+00  0.00000000E+00  0.00000000E+00
  0.00000000E+00  0.00000000E+00  0.00000000E+00
  0.00000000E+00  0.00000000E+00  0.00000000E+00
  0.00000000E+00  0.00000000E+00  0.00000000E+00
  0.00000000E+00  0.00000000E+00  0.00000000E+00
  0.00000000E+00  0.00000000E+00  0.00000000E+00
  0.00000000E+00  0.00000000E+00  0.00000000E+00
  0.00000000E+00  0.00000000E+00  0.00000000E+00
  0.00000000E+00  0.00000000E+00  0.00000000E+00
  0.00000000E+00  0.00000000E+00  0.00000000E+00
  0.00000000E+00  0.00000000E+00  0.00000000E+00
  0.00000000E+00  0.00000000E+00  0.00000000E+00
  0.00000000E+00  0.00000000E+00  0.00000000E+00
  0.00000000E+00  0.00000000E+00  0.00000000E+00
  0.00000000E+00  0.00000000E+00  0.00000000E+00
  0.00000000E+00  0.00000000E+00  0.00000000E+00
  0.00000000E+00  0.00000000E+00  0.00000000E+00
  0.00000000E+00  0.00000000E+00  0.00000000E+00
  0.00000000E+00  0.00000000E+00  0.00000000E+00
  0.00000000E+00  0.00000000E+00  0.00000000E+00
  0.00000000E+00  0.00000000E+00  0.00000000E+00
  0.00000000E+00  0.00000000E+00  0.00000000E+00
  0.00000000E+00  0.00000000E+00  0.00000000E+00
  0.00000000E+00  0.00000000E+00  0.00000000E+00
  0.00000000E+00  0.00000000E+00  0.00000000E+00
  0.00000000E+00  0.00000000E+00  0.00000000E+00
  0.00000000E+00  0.00000000E+00  0.00000000E+00
  0.00000000E+00  0.00000000E+00  0.00000000E+00
  0.00000000E+00  0.00000000E+00  0.00000000E+00
  0.00000000E+00  0.00000000E+00  0.00000000E+00
  0.00000000E+00  0.00000000E+00  0.00000000E+00
  0.00000000E+00  0.00000000E+00  0.00000000E+00
  0.00000000E+00  0.00000000E+00  0.00000000E+00
  0.00000000E+00  0.00000000E+00  0.00000000E+00
  0.00000000E+00  0.00000000E+00  0.00000000E+00
  0.00000000E+00  0.00000000E+00  0.00000000E+00
  0.00000000E+00  0.00000000E+00  0.00000000E+00
  0.00000000E+00  0.00000000E+00  0.00000000E+00
  0.00000000E+00  0.00000000E+00  0.00000000E+00
  0.00000000E+00  0.00000000E+00  0.00000000E+00
  0.00000000E+00  0.00000000E+00  0.00000000E+00
  0.00000000E+00  0.00000000E+00  0.00000000E+00
  0.00000000E+00  0.00000000E+00  0.00000000E+00
  0.00000000E+00  0.00000000E+00  0.00000000E+00
  0.00000000E+00  0.00000000E+00  0.00000000E+00
  0.00000000E+00  0.00000000E+00  0.00000000E+00
  0.00000000E+00  0.00000000E+00  0.00000000E+00
  0.00000000E+00  0.00000000E+00  0.00000000E+00
  0.00000000E+00  0.00000000E+00  0.00000000E+00
  0.00000000E+00  0.00000000E+00  0.00000000E+00
  0.00000000E+00  0.00000000E+00  0.00000000E+00
  0.00000000E+00  0.00000000E+00  0.00000000E+00
  0.00000000E+00  0.00000000E+00  0.00000000E+00
  0.00000000E+00  0.00000000E+00  0.00000000E+00
  0.00000000E+00  0.00000000E+00  0.00000000E+00
  0.00000000E+00  0.00000000E+00  0.00000000E+00
  0.00000000E+00  0.00000000E+00  0.00000000E+00
  0.00000000E+00  0.00000000E+00  0.00000000E+00
  0.00000000E+00  0.00000000E+00  0.00000000E+00
  0.00000000E+00  0.00000000E+00  0.00000000E+00
  0.00000000E+00  0.00000000E+00  0.00000000E+00
  0.00000000E+00  0.00000000E+00  0.00000000E+00
  0.00000000E+00  0.00000000E+00  0.00000000E+00
  0.00000000E+00  0.00000000E+00  0.00000000E+00
  0.00000000E+00  0.00000000E+00  0.00000000E+00
  0.00000000E+00  0.00000000E+00  0.00000000E+00
  0.00000000E+00  0.00000000E+00  0.00000000E+00
  0.00000000E+00  0.00000000E+00  0.00000000E+00
  0.00000000E+00  0.00000000E+00  0.00000000E+00
