Ti27 O27 F54                            
   1.00000000000000     
    11.5991009293256564   -0.0013385153381761    0.0019811733277216
    -0.0013047221521696   11.5746258959512325    0.0100601348616399
     0.0019798682789237    0.0100984616749253   11.5943529392616718
   Ti   O    F 
    27    27    54
Direct
  0.0011768462832432 -0.0117440827930018 -0.0010647729520449
 -0.0103004195506448  0.0089147142671153  0.3433148551540072
 -0.0099318745995479 -0.0072174941776590  0.6561020439347405
 -0.0110598777638362  0.3324299073044178 -0.0098198963062907
  0.0127143464825868  0.3230595846552026  0.3328986195511992
 -0.0123250345002998  0.3329026016029152  0.6759964951437140
 -0.0012102398145645  0.6732343857805072  0.0103935437875963
  0.0114521723460576  0.6657039753325132  0.3255205265242530
  0.0092807260982726  0.6784270104306298  0.6679453186349619
  0.3445396273406852 -0.0005823586843275  0.0066942654400095
  0.3338989254482989  0.0010761526555846  0.3202515784975607
  0.3333533479285326  0.0088169718030503  0.6659792140158287
  0.3332135541684450  0.3407195736542479  0.0138271352071553
  0.3238630120958539  0.3434987530323252  0.3248075398136923
  0.3330625944819369  0.3241656538567787  0.6671782174425593
  0.3403693404980586  0.6563349900158107  0.0001148968787938
  0.3265792718239466  0.6558004400186448  0.3419867955244266
  0.3240766472018798  0.6664909995077166  0.6549264090319168
  0.6574416398529456  0.0119636756692851  0.0004251788467957
  0.6776511848406346 -0.0095595830048132  0.3425345550967285
  0.6780730841863630 -0.0000068536245276  0.6561149729557912
  0.6757716252461970  0.3255151432998306 -0.0111770250972768
  0.6659808238139640  0.3334758796303878  0.3328428841116223
  0.6758426424369068  0.3406521837732936  0.6776524841343872
  0.6548477128690752  0.6681960899185287  0.0007092046621376
  0.6662505232694713  0.6798934622517128  0.3428504584475288
  0.6653818919460518  0.6554303603202932  0.6562758637676455
  0.0013170636308621  0.1684850279880429  0.3282241641690017
 -0.0013984860065280  0.8343233912275048 -0.0080973415647364
 -0.0004517483486168  0.8330406544863233  0.6760592525662107
  0.3315305536138594  0.1662708480471265  0.6657667033349316
  0.3335225844096306  0.5009108534352464  0.0048431768965826
  0.3418170376024880  0.4997378438326092  0.3273527494371483
  0.6641386726303192  0.1657930702383603  0.0038455176869759
  0.6648905361690721  0.4995174650915681  0.6633826674149188
  0.6637771872750523  0.8327062372653439  0.3262675812604749
  0.1676187047313276  0.3376757819523981  0.3366126856046744
  0.1658494677340529  0.6642500944700974  0.3376556541481461
  0.1674873038375213  0.6633812091123467  0.6633131510918895
  0.4983828541281822 -0.0084905746379006 -0.0022953141084573
  0.5011657995204793  0.6753651986233311  0.0023475881356743
  0.8328866088870460  0.0013189705104874  0.3287636399946561
  0.8324342802873961  0.0095818648181100  0.6699631442572651
  0.8339455935231648  0.3370390059999261  0.0052406854753913
  0.8333724371521140  0.3232345511946464  0.6628527102805216
  0.0033788652077624 -0.0020001131868049  0.5001816289922968
  0.0028585163766857  0.3312903174431671  0.8333178189227105
 -0.0004159461085698  0.6665727516584662  0.1650567435524570
  0.3310674768718769  0.0078428856332770  0.1665566906100616
  0.3367695246888318  0.3197159135498353  0.1663748403995391
  0.3442132006650962  0.6674122902571826  0.5008713596851839
  0.6614068710858056 -0.0003053093854399  0.5009462908645381
  0.6640592306192800  0.3338106786237274  0.8337321239614562
  0.6595929247335278  0.6699402632360357  0.4997618666813599
 -0.0000860569772781  0.1647532329891486  0.0094986567310204
  0.0167042902516489  0.1674284169510421  0.6639475718755439
  0.0081587144402384  0.5005926262139918 -0.0008963076299362
 -0.0096870417183427  0.4990321137182142  0.3373737390456357
 -0.0044419869463794  0.5001855921730315  0.6625340361115596
 -0.0007033412817962  0.8327952751653431  0.3311249844267267
  0.3354058584797616  0.1663877095209320 -0.0143696618799929
  0.3329916691134752  0.1651342927040498  0.3481212790122679
  0.3404346526999499  0.4972858762950744  0.6708878112040706
  0.3219596175629427  0.8338889799214028 -0.0024752559528000
  0.3402309965550723  0.8358000405047640  0.3320824022475786
  0.3336243551864143  0.8360620322169653  0.6697231781350650
  0.6665237164912384  0.1700985956663790  0.3260166897310293
  0.6514779699796990  0.1667721194697829  0.6670568767890674
  0.6607161083393239  0.5014259983819455  0.0021479153363220
  0.6626952514263338  0.4968495711889416  0.3352385272600674
  0.6794040884230759  0.8329217777877602  0.0042753763535874
  0.6672980012452879  0.8323630428340885  0.6743844346426325
  0.1673033160136603  0.0045290381783448 -0.0041847204262917
  0.1697473330637835 -0.0047664576459193  0.3351172922908033
  0.1697878482958689 -0.0032685782511027  0.6690510837908148
  0.1669199211547011  0.3280220072246131  0.0013766513184294
  0.1695573312986637  0.3418774253199957  0.6609302338829967
  0.1670161515101550  0.6681066499451649 -0.0046424849231609
  0.4988142934858172  0.0077750187333857  0.3314938011406381
  0.4970699405926172 -0.0041490524036252  0.6740480828197476
  0.4997683345460958  0.3341692503501815 -0.0006821288878145
  0.5026586247319940  0.3262648410550998  0.3382225026545900
  0.4977281925851747  0.3322528986073686  0.6630801224967894
  0.5007620253430159  0.6662861385542871  0.3177161995220464
  0.4990266636333790  0.6710332280889872  0.6799183037028671
  0.8344222584392179  0.0020860253785833  0.0019032890166911
  0.8290101554822734  0.3352963094032633  0.3310458136800442
  0.8318926012385367  0.6589613117974435 -0.0031652715855950
  0.8326823385860520  0.6634838026946227  0.3340887568206395
  0.8327591057596767  0.6660752045175229  0.6691004615281011
  0.0086821649225024 -0.0058269964272549  0.1645734331587169
  0.0032640763506886  0.0137298833504326  0.8351786111642087
  0.0029427483309213  0.3422530671735625  0.1658222296943562
 -0.0010449645814617  0.3342336261084164  0.5004001343430492
 -0.0093251891276395  0.6692175568626062  0.4995820263066548
 -0.0019452464937301  0.6556101377466280  0.8349287149458067
  0.3358782482662820 -0.0057751392474185  0.5009645432374857
  0.3288101736085443 -0.0029359738586925  0.8321893146282864
  0.3383658094090795  0.3363814835181021  0.5019913400872056
  0.3324348276107351  0.3344468896293524  0.8320320298052417
  0.3277446361144071  0.6783786076060284  0.1652964302081469
  0.3328884294603545  0.6683670056605053  0.8336377924682705
  0.6619636511360346  0.0004366855826235  0.1667398098213672
  0.6661913034435752 -0.0020102439911468  0.8342830610547979
  0.6593086173240985  0.3398071048541542  0.1698455249193220
  0.6648287188575686  0.3273549677218749  0.4958024543554995
  0.6744619263102466  0.6589323362534518  0.1656990311140871
  0.6697055606782064  0.6675733382242059  0.8357641344053907
 
  0.00000000E+00  0.00000000E+00  0.00000000E+00
  0.00000000E+00  0.00000000E+00  0.00000000E+00
  0.00000000E+00  0.00000000E+00  0.00000000E+00
  0.00000000E+00  0.00000000E+00  0.00000000E+00
  0.00000000E+00  0.00000000E+00  0.00000000E+00
  0.00000000E+00  0.00000000E+00  0.00000000E+00
  0.00000000E+00  0.00000000E+00  0.00000000E+00
  0.00000000E+00  0.00000000E+00  0.00000000E+00
  0.00000000E+00  0.00000000E+00  0.00000000E+00
  0.00000000E+00  0.00000000E+00  0.00000000E+00
  0.00000000E+00  0.00000000E+00  0.00000000E+00
  0.00000000E+00  0.00000000E+00  0.00000000E+00
  0.00000000E+00  0.00000000E+00  0.00000000E+00
  0.00000000E+00  0.00000000E+00  0.00000000E+00
  0.00000000E+00  0.00000000E+00  0.00000000E+00
  0.00000000E+00  0.00000000E+00  0.00000000E+00
  0.00000000E+00  0.00000000E+00  0.00000000E+00
  0.00000000E+00  0.00000000E+00  0.00000000E+00
  0.00000000E+00  0.00000000E+00  0.00000000E+00
  0.00000000E+00  0.00000000E+00  0.00000000E+00
  0.00000000E+00  0.00000000E+00  0.00000000E+00
  0.00000000E+00  0.00000000E+00  0.00000000E+00
  0.00000000E+00  0.00000000E+00  0.00000000E+00
  0.00000000E+00  0.00000000E+00  0.00000000E+00
  0.00000000E+00  0.00000000E+00  0.00000000E+00
  0.00000000E+00  0.00000000E+00  0.00000000E+00
  0.00000000E+00  0.00000000E+00  0.00000000E+00
  0.00000000E+00  0.00000000E+00  0.00000000E+00
  0.00000000E+00  0.00000000E+00  0.00000000E+00
  0.00000000E+00  0.00000000E+00  0.00000000E+00
  0.00000000E+00  0.00000000E+00  0.00000000E+00
  0.00000000E+00  0.00000000E+00  0.00000000E+00
  0.00000000E+00  0.00000000E+00  0.00000000E+00
  0.00000000E+00  0.00000000E+00  0.00000000E+00
  0.00000000E+00  0.00000000E+00  0.00000000E+00
  0.00000000E+00  0.00000000E+00  0.00000000E+00
  0.00000000E+00  0.00000000E+00  0.00000000E+00
  0.00000000E+00  0.00000000E+00  0.00000000E+00
  0.00000000E+00  0.00000000E+00  0.00000000E+00
  0.00000000E+00  0.00000000E+00  0.00000000E+00
  0.00000000E+00  0.00000000E+00  0.00000000E+00
  0.00000000E+00  0.00000000E+00  0.00000000E+00
  0.00000000E+00  0.00000000E+00  0.00000000E+00
  0.00000000E+00  0.00000000E+00  0.00000000E+00
  0.00000000E+00  0.00000000E+00  0.00000000E+00
  0.00000000E+00  0.00000000E+00  0.00000000E+00
  0.00000000E+00  0.00000000E+00  0.00000000E+00
  0.00000000E+00  0.00000000E+00  0.00000000E+00
  0.00000000E+00  0.00000000E+00  0.00000000E+00
  0.00000000E+00  0.00000000E+00  0.00000000E+00
  0.00000000E+00  0.00000000E+00  0.00000000E+00
  0.00000000E+00  0.00000000E+00  0.00000000E+00
  0.00000000E+00  0.00000000E+00  0.00000000E+00
  0.00000000E+00  0.00000000E+00  0.00000000E+00
  0.00000000E+00  0.00000000E+00  0.00000000E+00
  0.00000000E+00  0.00000000E+00  0.00000000E+00
  0.00000000E+00  0.00000000E+00  0.00000000E+00
  0.00000000E+00  0.00000000E+00  0.00000000E+00
  0.00000000E+00  0.00000000E+00  0.00000000E+00
  0.00000000E+00  0.00000000E+00  0.00000000E+00
  0.00000000E+00  0.00000000E+00  0.00000000E+00
  0.00000000E+00  0.00000000E+00  0.00000000E+00
  0.00000000E+00  0.00000000E+00  0.00000000E+00
  0.00000000E+00  0.00000000E+00  0.00000000E+00
  0.00000000E+00  0.00000000E+00  0.00000000E+00
  0.00000000E+00  0.00000000E+00  0.00000000E+00
  0.00000000E+00  0.00000000E+00  0.00000000E+00
  0.00000000E+00  0.00000000E+00  0.00000000E+00
  0.00000000E+00  0.00000000E+00  0.00000000E+00
  0.00000000E+00  0.00000000E+00  0.00000000E+00
  0.00000000E+00  0.00000000E+00  0.00000000E+00
  0.00000000E+00  0.00000000E+00  0.00000000E+00
  0.00000000E+00  0.00000000E+00  0.00000000E+00
  0.00000000E+00  0.00000000E+00  0.00000000E+00
  0.00000000E+00  0.00000000E+00  0.00000000E+00
  0.00000000E+00  0.00000000E+00  0.00000000E+00
  0.00000000E+00  0.00000000E+00  0.00000000E+00
  0.00000000E+00  0.00000000E+00  0.00000000E+00
  0.00000000E+00  0.00000000E+00  0.00000000E+00
  0.00000000E+00  0.00000000E+00  0.00000000E+00
  0.00000000E+00  0.00000000E+00  0.00000000E+00
  0.00000000E+00  0.00000000E+00  0.00000000E+00
  0.00000000E+00  0.00000000E+00  0.00000000E+00
  0.00000000E+00  0.00000000E+00  0.00000000E+00
  0.00000000E+00  0.00000000E+00  0.00000000E+00
  0.00000000E+00  0.00000000E+00  0.00000000E+00
  0.00000000E+00  0.00000000E+00  0.00000000E+00
  0.00000000E+00  0.00000000E+00  0.00000000E+00
  0.00000000E+00  0.00000000E+00  0.00000000E+00
  0.00000000E+00  0.00000000E+00  0.00000000E+00
  0.00000000E+00  0.00000000E+00  0.00000000E+00
  0.00000000E+00  0.00000000E+00  0.00000000E+00
  0.00000000E+00  0.00000000E+00  0.00000000E+00
  0.00000000E+00  0.00000000E+00  0.00000000E+00
  0.00000000E+00  0.00000000E+00  0.00000000E+00
  0.00000000E+00  0.00000000E+00  0.00000000E+00
  0.00000000E+00  0.00000000E+00  0.00000000E+00
  0.00000000E+00  0.00000000E+00  0.00000000E+00
  0.00000000E+00  0.00000000E+00  0.00000000E+00
  0.00000000E+00  0.00000000E+00  0.00000000E+00
  0.00000000E+00  0.00000000E+00  0.00000000E+00
  0.00000000E+00  0.00000000E+00  0.00000000E+00
  0.00000000E+00  0.00000000E+00  0.00000000E+00
  0.00000000E+00  0.00000000E+00  0.00000000E+00
  0.00000000E+00  0.00000000E+00  0.00000000E+00
  0.00000000E+00  0.00000000E+00  0.00000000E+00
  0.00000000E+00  0.00000000E+00  0.00000000E+00
  0.00000000E+00  0.00000000E+00  0.00000000E+00
