TiOF2 2x2x2 config 0011                 
   1.00000000000000     
     7.8836984621222665   -0.0000000027466025    0.0000000231519589
     0.0000000008603375    7.7782517035920531    0.0000000472214357
     0.0000000187154367    0.0000000656709874    7.5050969065636268
   Ti   O    F 
     8     8    16
Direct
  0.0000000015639188  0.0002128222562732  0.0003049697655015
  0.9999999984326280  0.0002127559868796  0.4996917253205737
  0.0000000015729427  0.4997872639831016  0.0003063447862033
  0.9999999984471799  0.4997872425762750  0.4996930990700150
  0.4999999996407567  0.9870306573600942  0.9897089717589864
  0.5000000003396181  0.9870306463192762  0.5102912513078763
  0.4999999996579945  0.5129692968828365  0.9897089315840191
  0.5000000003501199  0.5129693094339203  0.5102912277473948
  0.4999999969702031  0.7500000335945316  0.0054766866616660
  0.5000000030319853  0.7499999320322672  0.4945231929215481
  0.9999999999902087  0.9996978765823883  0.2500003902260559
  0.9999999999921130  0.9995260962973589  0.7500004577487402
  0.0000000000133795  0.5003021988011724  0.2500001793272233
  0.0000000000056701  0.5004739759495536  0.7500002256648415
  0.5000000000020819  0.0087569719608140  0.7500005537094907
  0.5000000000138343  0.4912429732162877  0.7500004192631451
  0.2506138425737561  0.0017766144562543  0.0037854019665602
  0.2506137927558925  0.0017764535905798  0.4962147208787968
  0.2506138397942905  0.4982234293302454  0.0037853406690758
  0.2506137891531424  0.4982234647595263  0.4962146718149043
  0.7493861584486439  0.0017766194291298  0.0037854258730405
  0.7493862061885466  0.0017764485827811  0.4962147447612040
  0.7493861612564814  0.4982234243122434  0.0037853645608479
  0.7493862098340287  0.4982234697327215  0.4962146957214557
  0.0000000233022135  0.2500000447615349  0.9997360842650593
  0.9999999766884144  0.2499999963352053  0.5002645477205192
  0.0000000100333395  0.7500000393204758  0.9998775258371282
  0.9999999899562440  0.7500000032127119  0.5001231135579474
  0.4999999845091665  0.2499999874499323  0.0080683806011308
  0.5000000154743205  0.2499999849802776  0.4919315214306152
  0.4999999999321574  0.0110088526248120  0.2499999145888196
  0.5000000000747420  0.4889911138885381  0.2499999188896282
 
  0.00000000E+00  0.00000000E+00  0.00000000E+00
  0.00000000E+00  0.00000000E+00  0.00000000E+00
  0.00000000E+00  0.00000000E+00  0.00000000E+00
  0.00000000E+00  0.00000000E+00  0.00000000E+00
  0.00000000E+00  0.00000000E+00  0.00000000E+00
  0.00000000E+00  0.00000000E+00  0.00000000E+00
  0.00000000E+00  0.00000000E+00  0.00000000E+00
  0.00000000E+00  0.00000000E+00  0.00000000E+00
  0.00000000E+00  0.00000000E+00  0.00000000E+00
  0.00000000E+00  0.00000000E+00  0.00000000E+00
  0.00000000E+00  0.00000000E+00  0.00000000E+00
  0.00000000E+00  0.00000000E+00  0.00000000E+00
  0.00000000E+00  0.00000000E+00  0.00000000E+00
  0.00000000E+00  0.00000000E+00  0.00000000E+00
  0.00000000E+00  0.00000000E+00  0.00000000E+00
  0.00000000E+00  0.00000000E+00  0.00000000E+00
  0.00000000E+00  0.00000000E+00  0.00000000E+00
  0.00000000E+00  0.00000000E+00  0.00000000E+00
  0.00000000E+00  0.00000000E+00  0.00000000E+00
  0.00000000E+00  0.00000000E+00  0.00000000E+00
  0.00000000E+00  0.00000000E+00  0.00000000E+00
  0.00000000E+00  0.00000000E+00  0.00000000E+00
  0.00000000E+00  0.00000000E+00  0.00000000E+00
  0.00000000E+00  0.00000000E+00  0.00000000E+00
  0.00000000E+00  0.00000000E+00  0.00000000E+00
  0.00000000E+00  0.00000000E+00  0.00000000E+00
  0.00000000E+00  0.00000000E+00  0.00000000E+00
  0.00000000E+00  0.00000000E+00  0.00000000E+00
  0.00000000E+00  0.00000000E+00  0.00000000E+00
  0.00000000E+00  0.00000000E+00  0.00000000E+00
  0.00000000E+00  0.00000000E+00  0.00000000E+00
  0.00000000E+00  0.00000000E+00  0.00000000E+00
