TiOF2 2x2x2 config 0011                 
   1.00000000000000     
     7.8836984621222665   -0.0000000027466025    0.0000000231519589
     0.0000000008603375    7.7782517035920531    0.0000000472214357
     0.0000000187154367    0.0000000656709874    7.5050969065636268
   Ti   O    F 
     8     8    16
Direct
  0.0000000015639178  0.0002128222562704  0.0003049697655036
 -0.0000000015673718  0.0002127559868798  0.4996917253205760
  0.0000000015729430  0.4997872639831032  0.0003063447862061
 -0.0000000015528208  0.4997872425762722  0.4996930990700166
  0.4999999996407545 -0.0129693426399080 -0.0102910282410161
  0.5000000003396199 -0.0129693536807240  0.5102912513078733
  0.4999999996579953  0.5129692968828382 -0.0102910684159783
  0.5000000003501210  0.5129693094339181  0.5102912277473917
  0.4999999969702052  0.7500000335945320  0.0054766866616657
  0.5000000030319874  0.7499999320322703  0.4945231929215504
 -0.0000000000097948 -0.0003021234176087  0.2500003902260526
 -0.0000000000078870 -0.0004739037026385  0.7500004577487402
  0.0000000000133773  0.5003021988011751  0.2500001793272255
  0.0000000000056706  0.5004739759495539  0.7500002256648380
  0.5000000000020788  0.0087569719608149  0.7500005537094915
  0.5000000000138310  0.4912429732162902  0.7500004192631425
  0.2506138425737542  0.0017766144562534  0.0037854019665588
  0.2506137927558940  0.0017764535905772  0.4962147208787945
  0.2506138397942881  0.4982234293302448  0.0037853406690748
  0.2506137891531415  0.4982234647595254  0.4962146718149058
  0.7493861584486431  0.0017766194291295  0.0037854258730409
  0.7493862061885486  0.0017764485827791  0.4962147447612069
  0.7493861612564848  0.4982234243122448  0.0037853645608455
  0.7493862098340263  0.4982234697327239  0.4962146957214523
  0.0000000233022117  0.2500000447615343 -0.0002639157349421
 -0.0000000233115879  0.2499999963352064  0.5002645477205170
  0.0000000100333381  0.7500000393204762 -0.0001224741628702
 -0.0000000100437576  0.7500000032127085  0.5001231135579449
  0.4999999845091679  0.2499999874499297  0.0080683806011295
  0.5000000154743238  0.2499999849802741  0.4919315214306119
  0.4999999999321563  0.0110088526248131  0.2499999145888228
  0.5000000000747393  0.4889911138885393  0.2499999188896277
 
  0.00000000E+00  0.00000000E+00  0.00000000E+00
  0.00000000E+00  0.00000000E+00  0.00000000E+00
  0.00000000E+00  0.00000000E+00  0.00000000E+00
  0.00000000E+00  0.00000000E+00  0.00000000E+00
  0.00000000E+00  0.00000000E+00  0.00000000E+00
  0.00000000E+00  0.00000000E+00  0.00000000E+00
  0.00000000E+00  0.00000000E+00  0.00000000E+00
  0.00000000E+00  0.00000000E+00  0.00000000E+00
  0.00000000E+00  0.00000000E+00  0.00000000E+00
  0.00000000E+00  0.00000000E+00  0.00000000E+00
  0.00000000E+00  0.00000000E+00  0.00000000E+00
  0.00000000E+00  0.00000000E+00  0.00000000E+00
  0.00000000E+00  0.00000000E+00  0.00000000E+00
  0.00000000E+00  0.00000000E+00  0.00000000E+00
  0.00000000E+00  0.00000000E+00  0.00000000E+00
  0.00000000E+00  0.00000000E+00  0.00000000E+00
  0.00000000E+00  0.00000000E+00  0.00000000E+00
  0.00000000E+00  0.00000000E+00  0.00000000E+00
  0.00000000E+00  0.00000000E+00  0.00000000E+00
  0.00000000E+00  0.00000000E+00  0.00000000E+00
  0.00000000E+00  0.00000000E+00  0.00000000E+00
  0.00000000E+00  0.00000000E+00  0.00000000E+00
  0.00000000E+00  0.00000000E+00  0.00000000E+00
  0.00000000E+00  0.00000000E+00  0.00000000E+00
  0.00000000E+00  0.00000000E+00  0.00000000E+00
  0.00000000E+00  0.00000000E+00  0.00000000E+00
  0.00000000E+00  0.00000000E+00  0.00000000E+00
  0.00000000E+00  0.00000000E+00  0.00000000E+00
  0.00000000E+00  0.00000000E+00  0.00000000E+00
  0.00000000E+00  0.00000000E+00  0.00000000E+00
  0.00000000E+00  0.00000000E+00  0.00000000E+00
  0.00000000E+00  0.00000000E+00  0.00000000E+00
