Ti27 O27 F54                            
   1.00000000000000     
    11.5855763196242378   -0.0159563250080979    0.0127336616063109
    -0.0159503719437938   11.5849758856855818    0.0074671390913072
     0.0128751186770289    0.0075097987347978   11.6076013304754664
   Ti   O    F 
    27    27    54
Direct
  0.0085285538267925  0.0004891214212819  0.0001880687944933
  0.0001531484062767  0.0129417418694473  0.3443420711421012
  0.9958863153578363  0.0106402493932052  0.6564458786124163
  0.0000166029005655  0.3463023041506261  0.9995629752288977
  0.0099559443193655  0.3239754651620572  0.3433925151333881
  0.0056471692936952  0.3245572024787506  0.6546062176996159
  0.0006707337122833  0.6599409233168743  0.9875345036829657
  0.9987587815887977  0.6673115288206475  0.3320336099664871
  0.0125494224470870  0.6659492113185408  0.6759168054262688
  0.3239089036361307  0.0004823222177208  0.9996589130848008
  0.3427867019373707  0.9989457331053870  0.3447166022184049
  0.3344805716505093  0.9874968281153116  0.6572165975780990
  0.3402538542181048  0.3429482490883515  0.0119659739418907
  0.3233992562409895  0.3432130231696391  0.3238513182635288
  0.3204358485497281  0.3333524895858702  0.6672509360231231
  0.3426486832711362  0.6540408925694621  0.0002342748697970
  0.3429860511920566  0.6576368620918558  0.3413207116126813
  0.3260040228895349  0.6746444927839690  0.6555694312634017
  0.6665816857014164  0.9884990149727386  0.0098603875465173
  0.6577484652997256  0.0043838206508369  0.3234098146973921
  0.6799714546135078  0.9988623281428630  0.6670990853724632
  0.6544791558586027  0.3335780329345752  0.9915144626323595
  0.6685038272825778  0.3201651976309492  0.3342173231361372
  0.6655396700956473  0.3398402297802221  0.6782980178480713
  0.6573788374138871  0.6748823246147637  0.0103074581468334
  0.6543000735822204  0.6662638516160442  0.3223655118582087
  0.6684643778132369  0.6541971475708053  0.6668358198593154
  0.9915444178256863  0.1657588946773103  0.3294622308870245
  0.0024509902687200  0.1665211570779732  0.6709327527486408
  0.0081673490643581  0.5000333186642649  0.0030183248758391
  0.3181222588620400  0.5004894380360838  0.0019547552290149
  0.3350790439270455  0.5011932034251316  0.3303842089999804
  0.3357006316695603  0.8338747371344795  0.6736617330057157
  0.6732936120175594  0.1675335193799583  0.3343799274568440
  0.6687243635510995  0.5007828338089411  0.6641253196871943
  0.6665493830175819  0.8344749778979477  0.9915352441414456
  0.1653502025733999  0.9986521414648593  0.0013526601828886
  0.1656230112189192  0.3328269345118713  0.3374265022815024
  0.1684481775429987  0.3428530804290517  0.6665005717175916
  0.1651249499936185  0.6566926236453128  0.6651819021724918
  0.4994866807378600  0.9940650763186696  0.3350807109885352
  0.5014262573821213  0.3382540362535735  0.0000193330225713
  0.4994292122308366  0.6595389747079849  0.0011821681267321
  0.5009600228114834  0.6750980846678019  0.3288080187521203
  0.8319573016646800  0.9961542073459881  0.6685072327970829
  0.0099456517302698  0.9968213684813563  0.4994906563767856
  0.9932193630701818  0.3389709273998918  0.5000571178374571
  0.9983707428481878  0.6694447562582226  0.8343984383910126
  0.3246176380756296  0.9973231412497938  0.5005315403611235
  0.3316573127319415  0.3257554721687939  0.1659504744412459
  0.3342334277758212  0.6698505304290023  0.5000378391733378
  0.6693829657429262  0.9957937113458897  0.1659008098081074
  0.6680066504238837  0.3298093781141276  0.8322272671739412
  0.6745328089335416  0.6668273559436528  0.1677602314355724
  0.9968341618710213  0.1657207606418396  0.9987248429154008
  0.9987600176928240  0.5044129415944170  0.3245147458121451
  0.9844216030387756  0.5008431397461166  0.6695400000408682
  0.9922801681173468  0.8344756757990410  0.0061281486738025
  0.0004433475570664  0.8304307595100369  0.3293677026198267
  0.0045412527460513  0.8325157809602715  0.6647727763493094
  0.3329764830346491  0.1649345487374987  0.9945438756763707
  0.3355094528643647  0.1655666701640328  0.3359901764630138
  0.3307043717902758  0.1663407177181071  0.6695319020316362
  0.3472778573745501  0.4986768476369150  0.6701830189237228
  0.3373171322673656  0.8364927771711663  0.9964207457205347
  0.3206692973520475  0.8340087549358941  0.3252365935536474
  0.6690956025818195  0.1666271968693422  0.0041782548028451
  0.6667490260037496  0.1664765594906683  0.6578316130728297
  0.6790666899645856  0.4999362447938793  0.9973146697043660
  0.6654806394211761  0.4991285288432650  0.3406982203011779
  0.6772814695623310  0.8325576679923827  0.3412225653281666
  0.6597692673624564  0.8326835794794718  0.6734335913404124
  0.1663275285580852  0.0015077230109100  0.3177577427310680
  0.1673392212996347  0.9988439056040690  0.6819793528450830
  0.1636311369338088  0.3192172832326321  0.9928389955814012
  0.1649649212002160  0.6836598682248862  0.0030400425317509
  0.1611292947956073  0.6669965129441167  0.3320711394033822
  0.4971638652773436  0.0046297428594144  0.9997514041310254
  0.5019017015876486  0.0056172199227618  0.6654833282111312
  0.5030078610398476  0.3312557721727245  0.3352436944670671
  0.4997837716984463  0.3276072274142976  0.6650003200239780
  0.5029889048899960  0.6663886126094596  0.6728607211599851
  0.8355285272097959  0.0041449190642382  0.9923738151507351
  0.8336987374652338  0.9904308564774453  0.3382010143652963
  0.8351188165791896  0.3310543828510717  0.0042991387810929
  0.8331263816102350  0.3453645516429518  0.3267084219606957
  0.8317503373472164  0.3291134566224798  0.6680439114954524
  0.8355476828423534  0.6656957492544322  0.0013825147795927
  0.8361204794651798  0.6647929450601850  0.3399896693681512
  0.8335811517334193  0.6761712854847701  0.6598688104364925
  0.9914122716031031  0.9965275751728200  0.1643912098092670
  0.9995985713838138  0.9917659546556763  0.8361627363292357
  0.0009338648401851  0.3322698886190665  0.1642789979117651
  0.9937523361826663  0.3363332780111605  0.8347538193873021
  0.9961977530388140  0.6707584563284144  0.1683537443331105
  0.9990269083773100  0.6651027208483669  0.4962959026201474
  0.3358638040535098  0.0034349164810479  0.1636750204851865
  0.3381392669179206  0.0047918029226324  0.8352861230654014
  0.3409852103611399  0.3300741848541477  0.5020007939763715
  0.3350424252118600  0.3301934861270723  0.8328619953138485
  0.3238286973973530  0.6756913432449210  0.1658996548895502
  0.3299660584795063  0.6654039634241471  0.8338102094174431
  0.6666740741228807  0.9951556728660265  0.5016566823521771
  0.6613342883597824  0.0111051401412965  0.8327031714951403
  0.6685499726714497  0.3383721357042191  0.1672816271577844
  0.6703673869971780  0.3333240870704302  0.5005968934565956
  0.6671065984637607  0.6715330067620400  0.5016471660507165
  0.6758898086110108  0.6629067508186210  0.8322335134840628
 
  0.00000000E+00  0.00000000E+00  0.00000000E+00
  0.00000000E+00  0.00000000E+00  0.00000000E+00
  0.00000000E+00  0.00000000E+00  0.00000000E+00
  0.00000000E+00  0.00000000E+00  0.00000000E+00
  0.00000000E+00  0.00000000E+00  0.00000000E+00
  0.00000000E+00  0.00000000E+00  0.00000000E+00
  0.00000000E+00  0.00000000E+00  0.00000000E+00
  0.00000000E+00  0.00000000E+00  0.00000000E+00
  0.00000000E+00  0.00000000E+00  0.00000000E+00
  0.00000000E+00  0.00000000E+00  0.00000000E+00
  0.00000000E+00  0.00000000E+00  0.00000000E+00
  0.00000000E+00  0.00000000E+00  0.00000000E+00
  0.00000000E+00  0.00000000E+00  0.00000000E+00
  0.00000000E+00  0.00000000E+00  0.00000000E+00
  0.00000000E+00  0.00000000E+00  0.00000000E+00
  0.00000000E+00  0.00000000E+00  0.00000000E+00
  0.00000000E+00  0.00000000E+00  0.00000000E+00
  0.00000000E+00  0.00000000E+00  0.00000000E+00
  0.00000000E+00  0.00000000E+00  0.00000000E+00
  0.00000000E+00  0.00000000E+00  0.00000000E+00
  0.00000000E+00  0.00000000E+00  0.00000000E+00
  0.00000000E+00  0.00000000E+00  0.00000000E+00
  0.00000000E+00  0.00000000E+00  0.00000000E+00
  0.00000000E+00  0.00000000E+00  0.00000000E+00
  0.00000000E+00  0.00000000E+00  0.00000000E+00
  0.00000000E+00  0.00000000E+00  0.00000000E+00
  0.00000000E+00  0.00000000E+00  0.00000000E+00
  0.00000000E+00  0.00000000E+00  0.00000000E+00
  0.00000000E+00  0.00000000E+00  0.00000000E+00
  0.00000000E+00  0.00000000E+00  0.00000000E+00
  0.00000000E+00  0.00000000E+00  0.00000000E+00
  0.00000000E+00  0.00000000E+00  0.00000000E+00
  0.00000000E+00  0.00000000E+00  0.00000000E+00
  0.00000000E+00  0.00000000E+00  0.00000000E+00
  0.00000000E+00  0.00000000E+00  0.00000000E+00
  0.00000000E+00  0.00000000E+00  0.00000000E+00
  0.00000000E+00  0.00000000E+00  0.00000000E+00
  0.00000000E+00  0.00000000E+00  0.00000000E+00
  0.00000000E+00  0.00000000E+00  0.00000000E+00
  0.00000000E+00  0.00000000E+00  0.00000000E+00
  0.00000000E+00  0.00000000E+00  0.00000000E+00
  0.00000000E+00  0.00000000E+00  0.00000000E+00
  0.00000000E+00  0.00000000E+00  0.00000000E+00
  0.00000000E+00  0.00000000E+00  0.00000000E+00
  0.00000000E+00  0.00000000E+00  0.00000000E+00
  0.00000000E+00  0.00000000E+00  0.00000000E+00
  0.00000000E+00  0.00000000E+00  0.00000000E+00
  0.00000000E+00  0.00000000E+00  0.00000000E+00
  0.00000000E+00  0.00000000E+00  0.00000000E+00
  0.00000000E+00  0.00000000E+00  0.00000000E+00
  0.00000000E+00  0.00000000E+00  0.00000000E+00
  0.00000000E+00  0.00000000E+00  0.00000000E+00
  0.00000000E+00  0.00000000E+00  0.00000000E+00
  0.00000000E+00  0.00000000E+00  0.00000000E+00
  0.00000000E+00  0.00000000E+00  0.00000000E+00
  0.00000000E+00  0.00000000E+00  0.00000000E+00
  0.00000000E+00  0.00000000E+00  0.00000000E+00
  0.00000000E+00  0.00000000E+00  0.00000000E+00
  0.00000000E+00  0.00000000E+00  0.00000000E+00
  0.00000000E+00  0.00000000E+00  0.00000000E+00
  0.00000000E+00  0.00000000E+00  0.00000000E+00
  0.00000000E+00  0.00000000E+00  0.00000000E+00
  0.00000000E+00  0.00000000E+00  0.00000000E+00
  0.00000000E+00  0.00000000E+00  0.00000000E+00
  0.00000000E+00  0.00000000E+00  0.00000000E+00
  0.00000000E+00  0.00000000E+00  0.00000000E+00
  0.00000000E+00  0.00000000E+00  0.00000000E+00
  0.00000000E+00  0.00000000E+00  0.00000000E+00
  0.00000000E+00  0.00000000E+00  0.00000000E+00
  0.00000000E+00  0.00000000E+00  0.00000000E+00
  0.00000000E+00  0.00000000E+00  0.00000000E+00
  0.00000000E+00  0.00000000E+00  0.00000000E+00
  0.00000000E+00  0.00000000E+00  0.00000000E+00
  0.00000000E+00  0.00000000E+00  0.00000000E+00
  0.00000000E+00  0.00000000E+00  0.00000000E+00
  0.00000000E+00  0.00000000E+00  0.00000000E+00
  0.00000000E+00  0.00000000E+00  0.00000000E+00
  0.00000000E+00  0.00000000E+00  0.00000000E+00
  0.00000000E+00  0.00000000E+00  0.00000000E+00
  0.00000000E+00  0.00000000E+00  0.00000000E+00
  0.00000000E+00  0.00000000E+00  0.00000000E+00
  0.00000000E+00  0.00000000E+00  0.00000000E+00
  0.00000000E+00  0.00000000E+00  0.00000000E+00
  0.00000000E+00  0.00000000E+00  0.00000000E+00
  0.00000000E+00  0.00000000E+00  0.00000000E+00
  0.00000000E+00  0.00000000E+00  0.00000000E+00
  0.00000000E+00  0.00000000E+00  0.00000000E+00
  0.00000000E+00  0.00000000E+00  0.00000000E+00
  0.00000000E+00  0.00000000E+00  0.00000000E+00
  0.00000000E+00  0.00000000E+00  0.00000000E+00
  0.00000000E+00  0.00000000E+00  0.00000000E+00
  0.00000000E+00  0.00000000E+00  0.00000000E+00
  0.00000000E+00  0.00000000E+00  0.00000000E+00
  0.00000000E+00  0.00000000E+00  0.00000000E+00
  0.00000000E+00  0.00000000E+00  0.00000000E+00
  0.00000000E+00  0.00000000E+00  0.00000000E+00
  0.00000000E+00  0.00000000E+00  0.00000000E+00
  0.00000000E+00  0.00000000E+00  0.00000000E+00
  0.00000000E+00  0.00000000E+00  0.00000000E+00
  0.00000000E+00  0.00000000E+00  0.00000000E+00
  0.00000000E+00  0.00000000E+00  0.00000000E+00
  0.00000000E+00  0.00000000E+00  0.00000000E+00
  0.00000000E+00  0.00000000E+00  0.00000000E+00
  0.00000000E+00  0.00000000E+00  0.00000000E+00
  0.00000000E+00  0.00000000E+00  0.00000000E+00
  0.00000000E+00  0.00000000E+00  0.00000000E+00
  0.00000000E+00  0.00000000E+00  0.00000000E+00
  0.00000000E+00  0.00000000E+00  0.00000000E+00
