TiOF2 2x2x2 config 0299                 
   1.00000000000000     
     7.8712720528819924    0.0000034558058319    0.0000004282555778
     0.0000033677760048    7.6697589922262059    0.0055659760075474
     0.0000004188053115    0.0055655882869774    7.6697618500754130
   Ti   O    F 
     8     8    16
Direct
  0.0000000361676047  0.9872085634521361  0.9872074740966469
  0.9999999613075816  0.0127899224654501  0.5127913481951969
  0.9999999612949713  0.5127899564604770  0.0127912940458927
  0.0000000360037341  0.4872092101214545  0.4872073797833233
  0.4999999651954360  0.0127909057713379  0.0127928248998304
  0.5000000364388971  0.9872091475945545  0.4872091228184801
  0.5000000366331748  0.4872104326288841  0.9872077613408656
  0.4999999652962364  0.5127912136203681  0.5127921916334724
  1.0000000065900130  0.2500014600164113  0.4999997576247708
  1.0000000065714323  0.7500025681933482 -0.0000001499155494
  0.4999999935315959  0.2499976410659731  1.0000001823568885
  0.4999999935292053  0.7499993457123165  0.5000001076504943
  1.0000000032410796 -0.0000000802297219  0.7500018411367272
  0.0000000032515528  0.4999998184908542  0.2500021239189845
  0.4999999970940537  1.0000001441233617  0.2499965501696496
  0.4999999970103005  0.5000000712257957  0.7500004930404536
  0.2500002298218222  1.0000000657506274  1.0000000489008047
  0.2499998113988151  0.9999999772596210  0.4999999037792410
  0.2500002840576408  0.4999999363785259  0.0000000454727476
  0.2499995853778141  0.5000000070467271  0.4999999680996670
  0.7499997721538797  1.0000000651644925  1.0000000489364376
  0.7500001863193609  0.9999999767394455  0.4999999035639788
  0.7499997136868418  0.4999999358369698  0.0000000452321611
  0.7500004171217283  0.5000000064269211  0.4999999681351283
  0.0000000034214363  0.2499993530631245 -0.0000000292476089
  0.0000000034184303  0.7499995872038259  0.4999998389244374
  0.4999999969611074  0.2500002121353514  0.5000000720108075
  0.4999999968636267  0.7500006074029736  0.0000001216349578
  1.0000000037036660 -0.0000000179481436  0.2499994739578647
  1.0000000036760830  0.4999998766820292  0.7499994040714592
  0.4999999964537047  1.0000000768153070  0.7500008495943234
  0.4999999964071667  0.5000000133292081  0.2500000341374584
 
  0.00000000E+00  0.00000000E+00  0.00000000E+00
  0.00000000E+00  0.00000000E+00  0.00000000E+00
  0.00000000E+00  0.00000000E+00  0.00000000E+00
  0.00000000E+00  0.00000000E+00  0.00000000E+00
  0.00000000E+00  0.00000000E+00  0.00000000E+00
  0.00000000E+00  0.00000000E+00  0.00000000E+00
  0.00000000E+00  0.00000000E+00  0.00000000E+00
  0.00000000E+00  0.00000000E+00  0.00000000E+00
  0.00000000E+00  0.00000000E+00  0.00000000E+00
  0.00000000E+00  0.00000000E+00  0.00000000E+00
  0.00000000E+00  0.00000000E+00  0.00000000E+00
  0.00000000E+00  0.00000000E+00  0.00000000E+00
  0.00000000E+00  0.00000000E+00  0.00000000E+00
  0.00000000E+00  0.00000000E+00  0.00000000E+00
  0.00000000E+00  0.00000000E+00  0.00000000E+00
  0.00000000E+00  0.00000000E+00  0.00000000E+00
  0.00000000E+00  0.00000000E+00  0.00000000E+00
  0.00000000E+00  0.00000000E+00  0.00000000E+00
  0.00000000E+00  0.00000000E+00  0.00000000E+00
  0.00000000E+00  0.00000000E+00  0.00000000E+00
  0.00000000E+00  0.00000000E+00  0.00000000E+00
  0.00000000E+00  0.00000000E+00  0.00000000E+00
  0.00000000E+00  0.00000000E+00  0.00000000E+00
  0.00000000E+00  0.00000000E+00  0.00000000E+00
  0.00000000E+00  0.00000000E+00  0.00000000E+00
  0.00000000E+00  0.00000000E+00  0.00000000E+00
  0.00000000E+00  0.00000000E+00  0.00000000E+00
  0.00000000E+00  0.00000000E+00  0.00000000E+00
  0.00000000E+00  0.00000000E+00  0.00000000E+00
  0.00000000E+00  0.00000000E+00  0.00000000E+00
  0.00000000E+00  0.00000000E+00  0.00000000E+00
  0.00000000E+00  0.00000000E+00  0.00000000E+00
