TiOF2 2x2x2 config 1822                 
   1.00000000000000     
     7.7565139594862051   -0.0000864184707059    0.0019987700166836
    -0.0000873245899458    7.7567769521318235    0.0030691862164206
     0.0019817132223218    0.0030817403829940    7.6655929387867632
   Ti   O    F 
     8     8    16
Direct
  0.0011605533819226  0.9999223567302090  0.9807352831631704
  0.9892911844851928  0.9893965315524458  0.5027689904299890
  0.9848391056684759  0.4999395536807782  0.9886187958985304
  0.0002458782368619  0.5150990516038768  0.5113430531656726
  0.4996952662806854  0.0151742745337600  0.0126906374084817
  0.5151560384339881  0.9997847218287572  0.4872974438816903
  0.5107104646450349  0.4895017668710370  0.9972254741921370
  0.4988522376851322  0.4999271011085672  0.5192422830814928
  0.7491238906088455  0.0012835521805783  0.5002394739742706
  0.7511283862417761  0.5015138783615015  0.0037001390852230
  0.0007382434032625  0.7488575130323392  0.4963041237769172
  0.4992596291369322  0.2492057767011589  0.9997172368684936
  0.0018214998157038  0.0028298352898911  0.7532490839650722
  0.0015210590320545  0.4978288892733782  0.7499721663013125
  0.4988329751973014  0.9983016108397352  0.2499874647775167
  0.4978574422902652  0.5025644552424899  0.7467402865844069
  0.2484450214252303  0.9950534605107965 -0.0000584823234537
  0.2516773184591090  0.0030105485100129  0.5011975629228497
  0.2483844248429563  0.5032784266840572  0.0060269850457391
  0.2518640400473263  0.4953168338061182  0.4907625989716504
  0.7526138698249506  0.9947930994592230  0.9997414422358134
  0.7470158422392631  0.4951343750792550  0.4894087729851898
  0.0044182449927774  0.2474171108149595  0.0090122951612295
  0.0021883020719135  0.2516244915415954  0.4939415583809122
  0.0036282182916673  0.7522666053186976  0.0108681588904905
  0.4961320665391110  0.2518977642249424  0.5006263712012762
  0.4978320306650315  0.7517650680187508  0.9988587085277643
  0.4952482955572428  0.7477290639320854  0.4997381721738008
  0.0039146892018243  0.0042141943410440  0.2443460722550428
  0.0037634941467722  0.4953936759167669  0.2500178856093379
  0.4960777796515338  0.9953168266052295  0.7500315552954253
  0.4965625074998476  0.5046575864059694  0.2556484061125631
 
  0.00000000E+00  0.00000000E+00  0.00000000E+00
  0.00000000E+00  0.00000000E+00  0.00000000E+00
  0.00000000E+00  0.00000000E+00  0.00000000E+00
  0.00000000E+00  0.00000000E+00  0.00000000E+00
  0.00000000E+00  0.00000000E+00  0.00000000E+00
  0.00000000E+00  0.00000000E+00  0.00000000E+00
  0.00000000E+00  0.00000000E+00  0.00000000E+00
  0.00000000E+00  0.00000000E+00  0.00000000E+00
  0.00000000E+00  0.00000000E+00  0.00000000E+00
  0.00000000E+00  0.00000000E+00  0.00000000E+00
  0.00000000E+00  0.00000000E+00  0.00000000E+00
  0.00000000E+00  0.00000000E+00  0.00000000E+00
  0.00000000E+00  0.00000000E+00  0.00000000E+00
  0.00000000E+00  0.00000000E+00  0.00000000E+00
  0.00000000E+00  0.00000000E+00  0.00000000E+00
  0.00000000E+00  0.00000000E+00  0.00000000E+00
  0.00000000E+00  0.00000000E+00  0.00000000E+00
  0.00000000E+00  0.00000000E+00  0.00000000E+00
  0.00000000E+00  0.00000000E+00  0.00000000E+00
  0.00000000E+00  0.00000000E+00  0.00000000E+00
  0.00000000E+00  0.00000000E+00  0.00000000E+00
  0.00000000E+00  0.00000000E+00  0.00000000E+00
  0.00000000E+00  0.00000000E+00  0.00000000E+00
  0.00000000E+00  0.00000000E+00  0.00000000E+00
  0.00000000E+00  0.00000000E+00  0.00000000E+00
  0.00000000E+00  0.00000000E+00  0.00000000E+00
  0.00000000E+00  0.00000000E+00  0.00000000E+00
  0.00000000E+00  0.00000000E+00  0.00000000E+00
  0.00000000E+00  0.00000000E+00  0.00000000E+00
  0.00000000E+00  0.00000000E+00  0.00000000E+00
  0.00000000E+00  0.00000000E+00  0.00000000E+00
  0.00000000E+00  0.00000000E+00  0.00000000E+00
