Ti27 O27 F54                            
   1.00000000000000     
    11.5884784203253286   -0.0104802106381404   -0.0072426837736964
    -0.0104878882988649   11.5915237844821082    0.0054472514500791
    -0.0072367312082033    0.0054573563913600   11.5717608078162595
   Ti   O    F 
    27    27    54
Direct
 -0.0005265929073307  0.0009451735513599 -0.0096559250726320
  0.0132345268214932 -0.0013002264783621  0.3335911557480292
 -0.0001718582006964  0.0003063986129015  0.6757007072650456
  0.0057910417676250  0.3442345109995600 -0.0084293647111451
 -0.0095522328720640  0.3441120607468069  0.3340960961862881
 -0.0002131458066287  0.3430621582782306  0.6782501492590594
 -0.0082785702552093  0.6571731697713261  0.0093245617253890
  0.0063301050229158  0.6579826893947247  0.3234675084771784
  0.0099541656748355  0.6566129343166230  0.6660260953318494
  0.3431874928198593 -0.0084189480021946  0.0084269260633350
  0.3286802630095189  0.0089379089902508  0.3232852953944975
  0.3426662807882415  0.0113676761728264  0.6668331322125672
  0.3197146126795119  0.3342077857412037 -0.0000410570790964
  0.3340248291767540  0.3224905622278454  0.3440796309704862
  0.3425848615327034  0.3248242908468869  0.6569625877631069
  0.3345741650485881  0.6784454441168574 -0.0096107727244420
  0.3198972216080240  0.6668358247820284  0.3342887419551058
  0.3241183958474710  0.6667806478203022  0.6770097705479339
  0.6544923387510049  0.0058512392699470  0.0064031396700537
  0.6679599816586442 -0.0068139571392157  0.3221906930068765
  0.6561313800015832 -0.0092294324298388  0.6660473820893944
  0.6656779557437679  0.3206473929074831 -0.0000959018037762
  0.6759907983789060  0.3344526325690063  0.3437405222344497
  0.6559616224389704  0.3331787591920540  0.6577772923490003
  0.6774218242034792  0.6650495954825951 -0.0099978314041445
  0.6651090163593077  0.6784338285351624  0.3344424169007873
  0.6660816135203701  0.6766169602307965  0.6766068113997139
  0.0002184595739799  0.4997199665250449 -0.0031143198185444
  0.0018107336547404  0.4992379410913038  0.3364250531904194
 -0.0018099290065162  0.5004765619489894  0.6679622362007179
  0.3339740828316985  0.1662441298928911  0.3377552700065663
  0.3259836266384779  0.1654407820662163  0.6652232332152288
  0.3296190752709889  0.8328346989135130 -0.0004434036796888
  0.6700163097398576  0.1684636060943656 -0.0036461780554371
  0.6682119873617256  0.8319237372039301  0.3409043553162766
  0.6671479185345923  0.8336143787353643  0.6587768343593312
  0.1643777410374053 -0.0092539550266340  0.3335306417067421
  0.1679202155245720  0.3292821018810149  0.0029426324972225
  0.1684019816353880  0.6751921600810216  0.3405039191271169
  0.1665889233738242  0.6709956507084356  0.6620662668432984
  0.5004675610867386  0.0010187846357849 -0.0124805729239103
  0.5008829563722627  0.0041317803818123  0.6734330308962683
  0.5017974249082946  0.3314838731323245  0.6751442075092708
  0.8328241071744177  0.3305484041277832  0.3327868289759730
  0.8321125291464999  0.6695016704837211 -0.0019579768810436
  0.0011737200470187  0.0048553747294506  0.8326919418958534
 -0.0043421006094536  0.3233255114694464  0.8331397964589100
  0.0016921470977421  0.6716630272476272  0.1676854933011429
  0.3380531541849524  0.0018176483020723  0.1667634636806059
  0.3354235886892421  0.3400688131535320  0.4988607636228629
  0.3389172099853667  0.6641072831830671  0.8327787694785349
  0.6641514628352618 -0.0023594225332015  0.1677669454687576
  0.6623239660848076  0.3323051072432562  0.4995447185390114
  0.6593616098350961  0.6662381050320954  0.8325848863467310
 -0.0100117443380412  0.1641565387539266  0.0085818187543098
  0.0046147031015322  0.1646436448512783  0.3327093933354908
  0.0066444551102667  0.1642596425175237  0.6586073913731526
  0.0094707927431034  0.8367800396393384 -0.0021941236719091
 -0.0143531160576215  0.8346742606179373  0.3377344708523237
 -0.0080672388702381  0.8358573937718714  0.6653480456055738
  0.3367171624923476  0.1684928218013064 -0.0066594235885201
  0.3351480764021391  0.5001430893301289  0.0057463129389434
  0.3307272944055298  0.5006767522134927  0.3266720977189531
  0.3313810709067670  0.4998183955008773  0.6667830617072622
  0.3454021485966079  0.8314093269934411  0.3344451690842196
  0.3378454906298535  0.8336482771904643  0.6657099666662534
  0.6598037298740993  0.1665590151782524  0.3299752381684876
  0.6742315638038601  0.1661755671172462  0.6756732397218761
  0.6645654507402411  0.4977936438517003  0.0051051172375442
  0.6661513666160925  0.5019721801325849  0.3279882646031932
  0.6729831602042756  0.5006539946688273  0.6661647221275225
  0.6641573177028272  0.8328187954461784  0.0005292925886886
  0.1637150949924471  0.0109731647324572  0.0048665847280238
  0.1638642489067654 -0.0102505450590069  0.6597705924050993
  0.1663463447428820  0.3319545472823965  0.3271348136204465
  0.1670194706138646  0.3360873101001174  0.6689693317316704
  0.1673260136541870  0.6634765020128762 -0.0021523920852304
  0.5015412293209708 -0.0015224765034395  0.3443616877836906
  0.4995705412280851  0.3346028979959348 -0.0066428275068995
  0.5009447480466419  0.3387621375693970  0.3259859163064431
  0.5011804719207191  0.6647465042932286  0.0103575229740552
  0.4998507424413973  0.6619434020579282  0.3322527070164577
  0.4995242100192976  0.6620171156440039  0.6573161567624822
  0.8353341637177027 -0.0085778301014800  0.0015778415228030
  0.8346603268783360  0.0079150259550201  0.3347533573034739
  0.8355014329412950  0.0052881271317926  0.6630520588461918
  0.8319169488900150  0.3361847369174867  0.0094245550298295
  0.8337968000726887  0.3279345436272611  0.6611778658886441
  0.8307225568788065  0.6628881133066014  0.3342260869124651
  0.8339307113171871  0.6682719385221870  0.6681883946890300
 -0.0039175896020848 -0.0041329441217792  0.1657251071661735
 -0.0034912164631166 -0.0003123052567440  0.5011808932275933
  0.0001259450584932  0.3272455901090692  0.1666644061738515
  0.0054369409426357  0.3259946103812526  0.5011499273533465
 -0.0090337187455687  0.6739145285349962  0.4999740843626341
  0.0019215628724961  0.6775282008852870  0.8327646962253595
  0.3328767436742388 -0.0089026483151394  0.5004705611004815
  0.3169274979236305 -0.0013545142689129  0.8326508516847851
  0.3394590624108608  0.3320914148211241  0.1654284111227638
  0.3300505275318100  0.3404669010831297  0.8339464113890400
  0.3319129855544579  0.6658293261427657  0.1676256419752582
  0.3416315628709291  0.6632961929051867  0.4995765971638908
  0.6705318559982705  0.0122119436423490  0.4998315476897776
  0.6818786472614268 -0.0051699061887638  0.8330765396555041
  0.6605675428241181  0.3333267569725461  0.1661978313357139
  0.6777993244307650  0.3413557751522443  0.8344089881739369
  0.6656533296217418  0.6684671436875665  0.1680454675604510
  0.6673686993673353  0.6552505375612920  0.4993931264542739
 
  0.00000000E+00  0.00000000E+00  0.00000000E+00
  0.00000000E+00  0.00000000E+00  0.00000000E+00
  0.00000000E+00  0.00000000E+00  0.00000000E+00
  0.00000000E+00  0.00000000E+00  0.00000000E+00
  0.00000000E+00  0.00000000E+00  0.00000000E+00
  0.00000000E+00  0.00000000E+00  0.00000000E+00
  0.00000000E+00  0.00000000E+00  0.00000000E+00
  0.00000000E+00  0.00000000E+00  0.00000000E+00
  0.00000000E+00  0.00000000E+00  0.00000000E+00
  0.00000000E+00  0.00000000E+00  0.00000000E+00
  0.00000000E+00  0.00000000E+00  0.00000000E+00
  0.00000000E+00  0.00000000E+00  0.00000000E+00
  0.00000000E+00  0.00000000E+00  0.00000000E+00
  0.00000000E+00  0.00000000E+00  0.00000000E+00
  0.00000000E+00  0.00000000E+00  0.00000000E+00
  0.00000000E+00  0.00000000E+00  0.00000000E+00
  0.00000000E+00  0.00000000E+00  0.00000000E+00
  0.00000000E+00  0.00000000E+00  0.00000000E+00
  0.00000000E+00  0.00000000E+00  0.00000000E+00
  0.00000000E+00  0.00000000E+00  0.00000000E+00
  0.00000000E+00  0.00000000E+00  0.00000000E+00
  0.00000000E+00  0.00000000E+00  0.00000000E+00
  0.00000000E+00  0.00000000E+00  0.00000000E+00
  0.00000000E+00  0.00000000E+00  0.00000000E+00
  0.00000000E+00  0.00000000E+00  0.00000000E+00
  0.00000000E+00  0.00000000E+00  0.00000000E+00
  0.00000000E+00  0.00000000E+00  0.00000000E+00
  0.00000000E+00  0.00000000E+00  0.00000000E+00
  0.00000000E+00  0.00000000E+00  0.00000000E+00
  0.00000000E+00  0.00000000E+00  0.00000000E+00
  0.00000000E+00  0.00000000E+00  0.00000000E+00
  0.00000000E+00  0.00000000E+00  0.00000000E+00
  0.00000000E+00  0.00000000E+00  0.00000000E+00
  0.00000000E+00  0.00000000E+00  0.00000000E+00
  0.00000000E+00  0.00000000E+00  0.00000000E+00
  0.00000000E+00  0.00000000E+00  0.00000000E+00
  0.00000000E+00  0.00000000E+00  0.00000000E+00
  0.00000000E+00  0.00000000E+00  0.00000000E+00
  0.00000000E+00  0.00000000E+00  0.00000000E+00
  0.00000000E+00  0.00000000E+00  0.00000000E+00
  0.00000000E+00  0.00000000E+00  0.00000000E+00
  0.00000000E+00  0.00000000E+00  0.00000000E+00
  0.00000000E+00  0.00000000E+00  0.00000000E+00
  0.00000000E+00  0.00000000E+00  0.00000000E+00
  0.00000000E+00  0.00000000E+00  0.00000000E+00
  0.00000000E+00  0.00000000E+00  0.00000000E+00
  0.00000000E+00  0.00000000E+00  0.00000000E+00
  0.00000000E+00  0.00000000E+00  0.00000000E+00
  0.00000000E+00  0.00000000E+00  0.00000000E+00
  0.00000000E+00  0.00000000E+00  0.00000000E+00
  0.00000000E+00  0.00000000E+00  0.00000000E+00
  0.00000000E+00  0.00000000E+00  0.00000000E+00
  0.00000000E+00  0.00000000E+00  0.00000000E+00
  0.00000000E+00  0.00000000E+00  0.00000000E+00
  0.00000000E+00  0.00000000E+00  0.00000000E+00
  0.00000000E+00  0.00000000E+00  0.00000000E+00
  0.00000000E+00  0.00000000E+00  0.00000000E+00
  0.00000000E+00  0.00000000E+00  0.00000000E+00
  0.00000000E+00  0.00000000E+00  0.00000000E+00
  0.00000000E+00  0.00000000E+00  0.00000000E+00
  0.00000000E+00  0.00000000E+00  0.00000000E+00
  0.00000000E+00  0.00000000E+00  0.00000000E+00
  0.00000000E+00  0.00000000E+00  0.00000000E+00
  0.00000000E+00  0.00000000E+00  0.00000000E+00
  0.00000000E+00  0.00000000E+00  0.00000000E+00
  0.00000000E+00  0.00000000E+00  0.00000000E+00
  0.00000000E+00  0.00000000E+00  0.00000000E+00
  0.00000000E+00  0.00000000E+00  0.00000000E+00
  0.00000000E+00  0.00000000E+00  0.00000000E+00
  0.00000000E+00  0.00000000E+00  0.00000000E+00
  0.00000000E+00  0.00000000E+00  0.00000000E+00
  0.00000000E+00  0.00000000E+00  0.00000000E+00
  0.00000000E+00  0.00000000E+00  0.00000000E+00
  0.00000000E+00  0.00000000E+00  0.00000000E+00
  0.00000000E+00  0.00000000E+00  0.00000000E+00
  0.00000000E+00  0.00000000E+00  0.00000000E+00
  0.00000000E+00  0.00000000E+00  0.00000000E+00
  0.00000000E+00  0.00000000E+00  0.00000000E+00
  0.00000000E+00  0.00000000E+00  0.00000000E+00
  0.00000000E+00  0.00000000E+00  0.00000000E+00
  0.00000000E+00  0.00000000E+00  0.00000000E+00
  0.00000000E+00  0.00000000E+00  0.00000000E+00
  0.00000000E+00  0.00000000E+00  0.00000000E+00
  0.00000000E+00  0.00000000E+00  0.00000000E+00
  0.00000000E+00  0.00000000E+00  0.00000000E+00
  0.00000000E+00  0.00000000E+00  0.00000000E+00
  0.00000000E+00  0.00000000E+00  0.00000000E+00
  0.00000000E+00  0.00000000E+00  0.00000000E+00
  0.00000000E+00  0.00000000E+00  0.00000000E+00
  0.00000000E+00  0.00000000E+00  0.00000000E+00
  0.00000000E+00  0.00000000E+00  0.00000000E+00
  0.00000000E+00  0.00000000E+00  0.00000000E+00
  0.00000000E+00  0.00000000E+00  0.00000000E+00
  0.00000000E+00  0.00000000E+00  0.00000000E+00
  0.00000000E+00  0.00000000E+00  0.00000000E+00
  0.00000000E+00  0.00000000E+00  0.00000000E+00
  0.00000000E+00  0.00000000E+00  0.00000000E+00
  0.00000000E+00  0.00000000E+00  0.00000000E+00
  0.00000000E+00  0.00000000E+00  0.00000000E+00
  0.00000000E+00  0.00000000E+00  0.00000000E+00
  0.00000000E+00  0.00000000E+00  0.00000000E+00
  0.00000000E+00  0.00000000E+00  0.00000000E+00
  0.00000000E+00  0.00000000E+00  0.00000000E+00
  0.00000000E+00  0.00000000E+00  0.00000000E+00
  0.00000000E+00  0.00000000E+00  0.00000000E+00
  0.00000000E+00  0.00000000E+00  0.00000000E+00
  0.00000000E+00  0.00000000E+00  0.00000000E+00
  0.00000000E+00  0.00000000E+00  0.00000000E+00
