config 57                               
   1.00000000000000     
    15.4263309999999993    0.0000000000000000    0.0000000000000000
     0.0000000000000000   15.4263309999999993    0.0000000000000000
     0.0000000000000000    0.0000000000000000   15.4263309999999993
   Li   Ti   O    F 
     1    64    64   128
Direct
  0.8747171629837019  0.5529430430248398  0.1213382121307915
  0.9954274542092822  0.9954669402904497  0.9948600735165039
  0.9993829742476801  0.9915377122753249  0.4937808872923138
  0.0102282019387747  0.4946507535757071  0.9951370779067001
  0.9935369458267965  0.5031317731732236  0.5073878646065388
  0.4943543579432869  0.9944952569058978  0.9998546713651018
  0.5009584256387853  0.0080912342164547  0.4997953219841378
  0.5031012564801530  0.4955127641035605  0.9957585255662871
  0.4914934758651767  0.4991959329287136  0.4948283848971320
  0.0068781384103555  0.0024794933681680  0.2560835293193963
  0.0013697526247141  0.0073468467144301  0.7571897385649849
  0.9942841102253188  0.4951793975218356  0.2529510262384835
  0.9928856018258969  0.4995265146598243  0.7411872363107991
  0.5066027048916204  0.0082569214076974  0.2504678700707605
  0.4927465450984254  0.0050937383973589  0.7518887639207443
  0.4914602392951558  0.4975194074816079  0.2571021333693664
  0.5009493529940278  0.5042823046719138  0.7580990512774419
  0.9954559825954051  0.2573114342299945  0.0016096887474625
  0.9985327961916273  0.2484339525862928  0.4910788447261517
  0.9985167752301790  0.7583112218078064  0.0065084059718849
  0.9970367755414506  0.7563551378060036  0.5063834085685419
  0.4949397109354108  0.2581530444131144  0.0011830888250018
  0.5083370610696132  0.2455060954514177  0.4992142349689185
  0.5074376924666936  0.7566970334252899  0.9992920409829620
  0.5062812183149246  0.7528901824301197  0.5090651021448960
  0.9992442016938791  0.2589124532502730  0.2545647036103418
  0.0065844206478850  0.2424655302297152  0.7477048205944661
  0.0073651813117624  0.7493380671652105  0.2431412878470916
  0.9925531493237902  0.7505723891948626  0.7435125166582277
  0.5087575172040645  0.2429053016161571  0.2516009543551377
  0.5068741979992498  0.2429985749861951  0.7503597019029876
  0.5067945707037165  0.7525923008609426  0.2514297251862702
  0.5014162665165387  0.7421400664628519  0.7433887522899291
  0.2564594154854130  0.9988461367368363  0.0061500731237067
  0.2499418202631884  0.9936455495939445  0.5065466767711188
  0.2462304700402392  0.5083558084440469  0.9971804193032723
  0.2539725493413095  0.4942109629486723  0.5059504132512003
  0.7573230072802253  0.0007696370489630  0.9943919166250378
  0.7502013856719459  0.0063950127809806  0.4944433286243957
  0.7388451710442371  0.5024625773377168  0.0047942738512633
  0.7550444777226025  0.4982619977051494  0.5072822412866459
  0.2447680781446724  0.0019564485705750  0.2438160279073683
  0.2575745279508783  0.9978053120257198  0.7443239931902516
  0.2548629608053024  0.4927762683009947  0.2515331592589904
  0.2471266913341723  0.5060602120669252  0.7405616747187108
  0.7446129930633356  0.9995502899601232  0.2558289635960140
  0.7482342861475273  0.0064916324253098  0.7565955771560052
  0.7501792839804452  0.5004721369994809  0.2471143167302655
  0.7574423528744477  0.4987585907008892  0.7437227184405876
  0.2572926022867416  0.2515783715062587  0.0059976339290574
  0.2529907470931176  0.2566138210903738  0.5055003761442916
  0.2520975402018408  0.7430402037630464  0.9931945912936917
  0.2512978731637252  0.7552413017853156  0.4924421090059535
  0.7573264611073184  0.2512896780256810  0.0076344410189176
  0.7427592131053257  0.2424260771282022  0.4981837717428172
  0.7414207218738881  0.7512438667382140  0.9935551646112143
  0.7413503557348489  0.7530504705593731  0.4942734465413434
  0.2516125490782116  0.2575728150117201  0.2436927321026310
  0.2440660515232967  0.2515075228077249  0.7437616427227348
  0.2439634137076808  0.7488764582005522  0.2551746555009944
  0.2477684422837577  0.7416944363801929  0.7562944828411124
  0.7429045309036263  0.2509861859620927  0.2428310007828304
  0.7442811156153973  0.2424714129248975  0.7514570237569247
  0.7449638760743621  0.7517345499173049  0.2570813456611450
  0.7571372334596749  0.7518651920569043  0.7567315975167219
  0.0079934180034422  0.5055512134385857  0.6246168143382841
  0.9961422839043983  0.0021869468249319  0.3762039864142243
  1.0000200201014529 -0.0007017587768059  0.8732546389584149
  0.4998151679824374  0.4937129493244460  0.3753490626043160
  0.4944497356719849  0.4969589619720614  0.8743452928070737
  0.9949214014378303  0.7410251081520934  0.1256909697655656
 -0.0015410599627144  0.7429550891123172  0.6244740997304580
  0.4972326467870778  0.7529140538338099  0.6246729281615315
  0.9945283299296243  0.2505957282994811  0.3766054469679536
  0.2547192839480809  0.0028903420271748  0.1253401278345136
  0.2541764929601459  0.0030249096341468  0.6253415006534189
  0.2395625190579112  0.4955801401307929  0.6253492127197898
  0.7557910610255588  0.5081932938692320  0.1217845885983041
  0.7456371477024091  0.4969637445857812  0.6254121845601661
  0.7502495616678792  0.9959860489986965  0.3763628860346943
  0.7463089311164246  0.9958791712578453  0.8739436645562587
  0.2459785459582869  0.2497728807326315  0.1254505781311024
  0.2521920450003668  0.2493852227588196  0.6251744499871071
  0.7429825360346405  0.2538139493246808  0.1260780406453900
  0.2514285511165716  0.7467723589230564  0.3742539341727155
  0.2481040845593231  0.7522949927300413  0.8750846399099028
  0.7497717613109746  0.7585305323556756  0.3747837005657400
  0.7452446190926355  0.7582326353323566  0.8750797495217468
  0.1267210627822356  0.5045380972514095  0.9943063866554518
  0.6235740895238505  0.5090609296839883 -0.0007177766939320
  0.1254353027324641 -0.0011966589561982  0.2516510609244911
  0.6251238997898099  0.9957892698588341  0.2496839461392616
  0.6243612282742611  0.2569440034776799  0.4950496363803977
  0.6247335833505882  0.7415976295396728  0.0059474566978061
  0.6241571856182776  0.7617842769773161  0.4996619483040470
  0.1247039770423227  0.2514750285824351  0.7498697017343243
  0.1257309277408372  0.7577897718458704  0.2478739478300425
  0.6254889850742542  0.2522183798750707  0.2617172154137714
  0.6255698870448437  0.2527148034819597  0.7482114101454173
  0.6223194949282401  0.7607275947179462  0.2476765146445538
  0.3761116922172413 -0.0006311666053279  0.9930238821367759
  0.3747334874029244  0.5051346790786407  0.5029191601011811
  0.8732958302908126  0.0012096022177603  0.0004245748605962
  0.8749109596968867  0.5025524347189279  0.5005627920182131
  0.3760875653914952  0.9965019670901930  0.7562769333499768
  0.3725934245317079  0.5015970299665083  0.2503321211482785
  0.8808920661380124  0.5101279687620210  0.2423246132533800
  0.8753771355737411  0.5072415349328032  0.7468666338548317
  0.3759742184648387  0.2489801660976066  0.0035460424066389
  0.8748449388368996  0.2495257955719136  0.0049833546010145
  0.8747550966376373  0.7450278607668729  0.7525099269719895
  0.5099171943634622  0.1225350741506650  0.4955644886947096
  0.9965235340864582  0.1259706221389124  0.7476585537154578
  0.5005625698262840  0.1251029419460374  0.2621660520965511
  0.5014482076767836  0.1236945089656913  0.7478818111111469
  0.5013636888349154  0.6253696711069257  0.7499916098145352
  1.0013107928671270  0.3759166337975917  0.0070784939969586
  0.0032070372504335  0.8749863379017438  0.0047025073258000
 -0.0044593791242941  0.8745943061506776  0.5019545523226275
  0.5033748198429646  0.3743136446409396  0.0072098819707028
  0.5052394987233030  0.8755194768675596  0.0044427035635919
  0.0012728942654067  0.3738238434409832  0.2438806311342238
  0.2573886853310426  0.6253672090800949  0.0015400479035401
  0.7419099321587550  0.1247942760941930  0.5022813823256832
  0.2483037520459115  0.6245837655066260  0.7496853926798975
  0.7513937858258576  0.1249615856111214  0.7477109219610635
  0.2520838303089216  0.3730167758994561  0.4935924809639694
  0.2524938483885895  0.8755771759420581  0.4994974756513466
  0.2464869197550937  0.3744433482332575  0.2560579561489612
 -0.0002729599191958  0.0053985539471046  0.1267258187153477
  0.0033162510465355  1.0007666781701532  0.6238819504196128
  0.9994608447559641  0.5165754305514909  0.1230416929795430
  0.4949041286031478  0.0075442559564733  0.1263819372295459
  0.4974270829475194  0.9953553639953296  0.6230911930560328
  0.4973144162925085  0.5079692926506982  0.1265031177872271
  0.5065397043977161  0.5003298077710335  0.6245348294742740
  0.0020783705871885  0.4922585535418577  0.3769990775503984
  0.9949139322669396  0.4947558250381965  0.8722603401426682
  0.5032508248784284  0.9893711235361321  0.3769610356333314
  0.5141650435811015 -0.0004952678598775  0.8750639000858295
  0.0078668183531020  0.2426524090016765  0.1268479239703094
  0.9993905308767903  0.2539602697620721  0.6215897901468886
  0.5089029097780124  0.2392712581987786  0.1267526348160459
  0.4963828181938171  0.2475790909788290  0.6231176117930405
  0.4927948314671390  0.7457392297540043  0.1265796370666404
  0.9957743379419011  0.2546002106534236  0.8744078387968248
  0.9965232420378803  0.7537153392691001  0.3750042779160248
  0.0040720130438796  0.7528594143520758  0.8743977765252301
  0.4908920793726353  0.2616321154170470  0.3761545929012469
  0.5001390239856733  0.2519061388062818  0.8747096744137051
  0.4957797300115729  0.7549081362403023  0.3755449767031357
  0.5019855056806217  0.7531364290429526  0.8739113150768293
  0.2472498111035924  0.4947164363564420  0.1238725807968927
  0.7495784818962649  0.0071963803605805  0.1265298454102912
  0.7465937663838560  0.9983285401114546  0.6235509699202427
  0.2523662784310016  0.0013376460174620  0.3757133422142807
  0.2436612149758553  0.9955112815258150  0.8745062737403062
  0.2444432378119331  0.5107387807029879  0.3750230710714588
  0.2586066140086721  0.4978964529514170  0.8731446556514870
  0.7466668806967979  0.5023903625450984  0.3770581312838396
  0.7538660717187560  0.5016687411623298  0.8745168948705477
  0.2553191610911552  0.7544745004899038  0.1245123030285277
  0.2514534626552213  0.7510649521186595  0.6248954776728387
  0.7514154976303411  0.2581556500523380  0.6236210296461681
  0.7559812233112543  0.7430281796220664  0.1253167746425838
  0.7504696069934359  0.7466541183977883  0.6245751289907636
  0.2530615922833194  0.2433146703487807  0.3746768026016780
  0.2522369885259443  0.2506566677264083  0.8751328830600492
  0.7617214002627145  0.2456336210681952  0.3748842780332750
  0.7525918287568393  0.2500599167736905  0.8763673365719075
  0.1260716078633614  0.0036318423221968  0.0021536947962041
  0.1246317781245024  0.0034775394711092  0.4990651147634695
  0.1227056141742692  0.4992213135003744  0.4928701560360867
  0.6253870043812838  0.0033382523976502  0.0072526180840031
  0.6237391919088260  0.9837224258693965  0.5029661564659416
  0.6250625906973978  0.4934566417482045  0.4986131212772912
  0.1268147070563199 -0.0000625068937235  0.7473418922758951
  0.1250678832046768  0.5029984986231809  0.2456420919375001
  0.1231433675379877  0.4938515727994508  0.7621193045297925
  0.6236631924734602  0.9948385322095398  0.7417505745767253
  0.6188931908752647  0.4919317052874388  0.2458260100253616
  0.6266766210959887  0.4938237137108810  0.7555971468969789
  0.1249587490329605  0.2492073797637059  0.9944011188249197
  0.1235030741019795  0.2469760382972298  0.4984054251797398
  0.1253955328907577  0.7440260615602257  0.0041296638812024
  0.1238157567725476  0.7502390289552069  0.4989772851547949
  0.6266185771469196  0.2492537950102534  0.9941612696542381
  0.1247196533950796  0.2415165911202063  0.2567905438272502
  0.1232493487450083  0.7535892260793453  0.7477184289774083
  0.6262542772285267  0.7540131927478689  0.7464064872452721
  0.3773735791780370  0.0075277052600623  0.4959158397057900
  0.3734665641481998  0.4943925661774520  0.0052041047398612
  0.8745131018281858  0.0076800921795158  0.5079644303607925
  0.8777186319101479  0.5042207731909001  1.0060762157772025
  0.3773050240691107  1.0002411195011764  0.2562070312827923
  0.3745467308766096  0.4977622066906014  0.7416095056271267
  0.8739161297729199  0.0032567304293780  0.2477689894120196
  0.8742907010444857  0.9939682824421191  0.7431689273804304
  0.3787752891943849  0.2415803356024809  0.4987585013434452
  0.3767081960972813  0.7580607070277685  0.9978692174204656
  0.3767741612774669  0.7431320005284269  0.4988389618216243
  0.8740026909375477  0.2484996878525726  0.5054541733252802
  0.8725273035234451  0.7549552425411609  0.9967508656491125
  0.8721549046306917  0.7420605361021433  0.5003144438625415
  0.3779053448185866  0.2510496824284660  0.2468383111978664
  0.3763519515455378  0.2499366923069755  0.7519983745746424
  0.3767237609776890  0.7462136580907289  0.2498076130071803
  0.3749225358787052  0.7547926145434972  0.7522681900610223
  0.8745910650199917  0.2464138191558560  0.2442833756033637
  0.8743867884000205  0.2543230216054100  0.7473141496893555
  0.8737760822606663  0.7420521003447603  0.2511878550671109
  0.0026728353195406  0.1272786823949150 -0.0016948409846575
  0.9990533583617356  0.1253844354517011  0.5053457569473262
  0.9938582793645108  0.6253198424887708  0.9920959292993752
  1.0024998540540822  0.6264255220640869  0.4891808312737346
  0.5039708866393535  0.1248010169338176  0.9969811414847646
  0.4887360026121574  0.6277624905805084  0.9983626568497221
  0.5080222193772606  0.6266313456284937  0.4965886874872041
  0.9972443665029883  0.1272032393134768  0.2498658562041023
  0.0091336946980902  0.6250045906512915  0.2615772650063148
  0.0097662270436701  0.6245791175304412  0.7585405793970087
  0.5046708154240197  0.6268643759378836  0.2555141334171719
  0.0003106492673431  0.3739371221357621  0.5026578327224595
  0.4928118088295067  0.3719061026856762  0.5071504258361327
  0.4877050197982744  0.8780852528694919  0.4989284737148986
  0.9961364333060531  0.3747180915937920  0.7471389655451292
  0.9909310277375538  0.8760283621213498  0.2471459135785036
  0.0002453596801676  0.8755638964310944  0.7450545721264910
  0.4953946790631596  0.3715085520927067  0.2405979188987059
  0.4970387816919111  0.3732806526702022  0.7444347110921162
  0.4912552930244518  0.8767415826949239  0.2456404926696643
  0.5025635844350120  0.8752343412626173  0.7524131986504294
  0.2473202547037762  0.1249667549771155  0.9937111358687802
  0.2485889763793414  0.1242182286588453  0.4970143978071412
  0.2448944123421259  0.6263996034244033  0.5041541852938481
  0.7454949546938843  0.1265938103574145  0.9985184326311101
  0.7625326913374056  0.6271592743288817  0.9931686280871312
  0.7423423089957846  0.6258613814405161  0.4989878074744239
  0.2554762740752431  0.1261894016709750  0.2535382816247789
  0.2512888503268723  0.1244135750404247  0.7569987441168028
  0.2468555853898251  0.6244346696206023  0.2413528215901462
  0.7521566108104442  0.1253531771941102  0.2525542560690239
  0.7377859547087035  0.6296393959881894  0.2554143008401407
  0.7402048472349880  0.6254150579864739  0.7514245758057706
  0.2480306891294941  0.3762213626413085  0.9969312689075756
  0.2441852331521330  0.8741351607863445  0.0025589491473105
  0.7491369605772920  0.3766299466762431  0.9947156700838284
  0.7551290507424190  0.3724495639460592  0.4937490795492054
  0.7448098553468875  0.8756808490687253  0.0124906408691204
  0.7618069500440968  0.8766618710603929  0.5074984001837249
  0.2534847957129313  0.3759602097992459  0.7559626791581291
  0.2588172874768218  0.8758400446189742  0.2511954781250341
  0.2467158530830615  0.8734081707736305  0.7468554372763676
  0.7589427689310029  0.3714906414625211  0.2598170135066639
  0.7543678731240342  0.3741723347942215  0.7551600832488531
  0.7602213803913974  0.8757906997771048  0.2383816788840653
  0.7508153977185024  0.8757567532987384  0.7411492902855278
 
  0.00000000E+00  0.00000000E+00  0.00000000E+00
  0.00000000E+00  0.00000000E+00  0.00000000E+00
  0.00000000E+00  0.00000000E+00  0.00000000E+00
  0.00000000E+00  0.00000000E+00  0.00000000E+00
  0.00000000E+00  0.00000000E+00  0.00000000E+00
  0.00000000E+00  0.00000000E+00  0.00000000E+00
  0.00000000E+00  0.00000000E+00  0.00000000E+00
  0.00000000E+00  0.00000000E+00  0.00000000E+00
  0.00000000E+00  0.00000000E+00  0.00000000E+00
  0.00000000E+00  0.00000000E+00  0.00000000E+00
  0.00000000E+00  0.00000000E+00  0.00000000E+00
  0.00000000E+00  0.00000000E+00  0.00000000E+00
  0.00000000E+00  0.00000000E+00  0.00000000E+00
  0.00000000E+00  0.00000000E+00  0.00000000E+00
  0.00000000E+00  0.00000000E+00  0.00000000E+00
  0.00000000E+00  0.00000000E+00  0.00000000E+00
  0.00000000E+00  0.00000000E+00  0.00000000E+00
  0.00000000E+00  0.00000000E+00  0.00000000E+00
  0.00000000E+00  0.00000000E+00  0.00000000E+00
  0.00000000E+00  0.00000000E+00  0.00000000E+00
  0.00000000E+00  0.00000000E+00  0.00000000E+00
  0.00000000E+00  0.00000000E+00  0.00000000E+00
  0.00000000E+00  0.00000000E+00  0.00000000E+00
  0.00000000E+00  0.00000000E+00  0.00000000E+00
  0.00000000E+00  0.00000000E+00  0.00000000E+00
  0.00000000E+00  0.00000000E+00  0.00000000E+00
  0.00000000E+00  0.00000000E+00  0.00000000E+00
  0.00000000E+00  0.00000000E+00  0.00000000E+00
  0.00000000E+00  0.00000000E+00  0.00000000E+00
  0.00000000E+00  0.00000000E+00  0.00000000E+00
  0.00000000E+00  0.00000000E+00  0.00000000E+00
  0.00000000E+00  0.00000000E+00  0.00000000E+00
  0.00000000E+00  0.00000000E+00  0.00000000E+00
  0.00000000E+00  0.00000000E+00  0.00000000E+00
  0.00000000E+00  0.00000000E+00  0.00000000E+00
  0.00000000E+00  0.00000000E+00  0.00000000E+00
  0.00000000E+00  0.00000000E+00  0.00000000E+00
  0.00000000E+00  0.00000000E+00  0.00000000E+00
  0.00000000E+00  0.00000000E+00  0.00000000E+00
  0.00000000E+00  0.00000000E+00  0.00000000E+00
  0.00000000E+00  0.00000000E+00  0.00000000E+00
  0.00000000E+00  0.00000000E+00  0.00000000E+00
  0.00000000E+00  0.00000000E+00  0.00000000E+00
  0.00000000E+00  0.00000000E+00  0.00000000E+00
  0.00000000E+00  0.00000000E+00  0.00000000E+00
  0.00000000E+00  0.00000000E+00  0.00000000E+00
  0.00000000E+00  0.00000000E+00  0.00000000E+00
  0.00000000E+00  0.00000000E+00  0.00000000E+00
  0.00000000E+00  0.00000000E+00  0.00000000E+00
  0.00000000E+00  0.00000000E+00  0.00000000E+00
  0.00000000E+00  0.00000000E+00  0.00000000E+00
  0.00000000E+00  0.00000000E+00  0.00000000E+00
  0.00000000E+00  0.00000000E+00  0.00000000E+00
  0.00000000E+00  0.00000000E+00  0.00000000E+00
  0.00000000E+00  0.00000000E+00  0.00000000E+00
  0.00000000E+00  0.00000000E+00  0.00000000E+00
  0.00000000E+00  0.00000000E+00  0.00000000E+00
  0.00000000E+00  0.00000000E+00  0.00000000E+00
  0.00000000E+00  0.00000000E+00  0.00000000E+00
  0.00000000E+00  0.00000000E+00  0.00000000E+00
  0.00000000E+00  0.00000000E+00  0.00000000E+00
  0.00000000E+00  0.00000000E+00  0.00000000E+00
  0.00000000E+00  0.00000000E+00  0.00000000E+00
  0.00000000E+00  0.00000000E+00  0.00000000E+00
  0.00000000E+00  0.00000000E+00  0.00000000E+00
  0.00000000E+00  0.00000000E+00  0.00000000E+00
  0.00000000E+00  0.00000000E+00  0.00000000E+00
  0.00000000E+00  0.00000000E+00  0.00000000E+00
  0.00000000E+00  0.00000000E+00  0.00000000E+00
  0.00000000E+00  0.00000000E+00  0.00000000E+00
  0.00000000E+00  0.00000000E+00  0.00000000E+00
  0.00000000E+00  0.00000000E+00  0.00000000E+00
  0.00000000E+00  0.00000000E+00  0.00000000E+00
  0.00000000E+00  0.00000000E+00  0.00000000E+00
  0.00000000E+00  0.00000000E+00  0.00000000E+00
  0.00000000E+00  0.00000000E+00  0.00000000E+00
  0.00000000E+00  0.00000000E+00  0.00000000E+00
  0.00000000E+00  0.00000000E+00  0.00000000E+00
  0.00000000E+00  0.00000000E+00  0.00000000E+00
  0.00000000E+00  0.00000000E+00  0.00000000E+00
  0.00000000E+00  0.00000000E+00  0.00000000E+00
  0.00000000E+00  0.00000000E+00  0.00000000E+00
  0.00000000E+00  0.00000000E+00  0.00000000E+00
  0.00000000E+00  0.00000000E+00  0.00000000E+00
  0.00000000E+00  0.00000000E+00  0.00000000E+00
  0.00000000E+00  0.00000000E+00  0.00000000E+00
  0.00000000E+00  0.00000000E+00  0.00000000E+00
  0.00000000E+00  0.00000000E+00  0.00000000E+00
  0.00000000E+00  0.00000000E+00  0.00000000E+00
  0.00000000E+00  0.00000000E+00  0.00000000E+00
  0.00000000E+00  0.00000000E+00  0.00000000E+00
  0.00000000E+00  0.00000000E+00  0.00000000E+00
  0.00000000E+00  0.00000000E+00  0.00000000E+00
  0.00000000E+00  0.00000000E+00  0.00000000E+00
  0.00000000E+00  0.00000000E+00  0.00000000E+00
  0.00000000E+00  0.00000000E+00  0.00000000E+00
  0.00000000E+00  0.00000000E+00  0.00000000E+00
  0.00000000E+00  0.00000000E+00  0.00000000E+00
  0.00000000E+00  0.00000000E+00  0.00000000E+00
  0.00000000E+00  0.00000000E+00  0.00000000E+00
  0.00000000E+00  0.00000000E+00  0.00000000E+00
  0.00000000E+00  0.00000000E+00  0.00000000E+00
  0.00000000E+00  0.00000000E+00  0.00000000E+00
  0.00000000E+00  0.00000000E+00  0.00000000E+00
  0.00000000E+00  0.00000000E+00  0.00000000E+00
  0.00000000E+00  0.00000000E+00  0.00000000E+00
  0.00000000E+00  0.00000000E+00  0.00000000E+00
  0.00000000E+00  0.00000000E+00  0.00000000E+00
  0.00000000E+00  0.00000000E+00  0.00000000E+00
  0.00000000E+00  0.00000000E+00  0.00000000E+00
  0.00000000E+00  0.00000000E+00  0.00000000E+00
  0.00000000E+00  0.00000000E+00  0.00000000E+00
  0.00000000E+00  0.00000000E+00  0.00000000E+00
  0.00000000E+00  0.00000000E+00  0.00000000E+00
  0.00000000E+00  0.00000000E+00  0.00000000E+00
  0.00000000E+00  0.00000000E+00  0.00000000E+00
  0.00000000E+00  0.00000000E+00  0.00000000E+00
  0.00000000E+00  0.00000000E+00  0.00000000E+00
  0.00000000E+00  0.00000000E+00  0.00000000E+00
  0.00000000E+00  0.00000000E+00  0.00000000E+00
  0.00000000E+00  0.00000000E+00  0.00000000E+00
  0.00000000E+00  0.00000000E+00  0.00000000E+00
  0.00000000E+00  0.00000000E+00  0.00000000E+00
  0.00000000E+00  0.00000000E+00  0.00000000E+00
  0.00000000E+00  0.00000000E+00  0.00000000E+00
  0.00000000E+00  0.00000000E+00  0.00000000E+00
  0.00000000E+00  0.00000000E+00  0.00000000E+00
  0.00000000E+00  0.00000000E+00  0.00000000E+00
  0.00000000E+00  0.00000000E+00  0.00000000E+00
  0.00000000E+00  0.00000000E+00  0.00000000E+00
  0.00000000E+00  0.00000000E+00  0.00000000E+00
  0.00000000E+00  0.00000000E+00  0.00000000E+00
  0.00000000E+00  0.00000000E+00  0.00000000E+00
  0.00000000E+00  0.00000000E+00  0.00000000E+00
  0.00000000E+00  0.00000000E+00  0.00000000E+00
  0.00000000E+00  0.00000000E+00  0.00000000E+00
  0.00000000E+00  0.00000000E+00  0.00000000E+00
  0.00000000E+00  0.00000000E+00  0.00000000E+00
  0.00000000E+00  0.00000000E+00  0.00000000E+00
  0.00000000E+00  0.00000000E+00  0.00000000E+00
  0.00000000E+00  0.00000000E+00  0.00000000E+00
  0.00000000E+00  0.00000000E+00  0.00000000E+00
  0.00000000E+00  0.00000000E+00  0.00000000E+00
  0.00000000E+00  0.00000000E+00  0.00000000E+00
  0.00000000E+00  0.00000000E+00  0.00000000E+00
  0.00000000E+00  0.00000000E+00  0.00000000E+00
  0.00000000E+00  0.00000000E+00  0.00000000E+00
  0.00000000E+00  0.00000000E+00  0.00000000E+00
  0.00000000E+00  0.00000000E+00  0.00000000E+00
  0.00000000E+00  0.00000000E+00  0.00000000E+00
  0.00000000E+00  0.00000000E+00  0.00000000E+00
  0.00000000E+00  0.00000000E+00  0.00000000E+00
  0.00000000E+00  0.00000000E+00  0.00000000E+00
  0.00000000E+00  0.00000000E+00  0.00000000E+00
  0.00000000E+00  0.00000000E+00  0.00000000E+00
  0.00000000E+00  0.00000000E+00  0.00000000E+00
  0.00000000E+00  0.00000000E+00  0.00000000E+00
  0.00000000E+00  0.00000000E+00  0.00000000E+00
  0.00000000E+00  0.00000000E+00  0.00000000E+00
  0.00000000E+00  0.00000000E+00  0.00000000E+00
  0.00000000E+00  0.00000000E+00  0.00000000E+00
  0.00000000E+00  0.00000000E+00  0.00000000E+00
  0.00000000E+00  0.00000000E+00  0.00000000E+00
  0.00000000E+00  0.00000000E+00  0.00000000E+00
  0.00000000E+00  0.00000000E+00  0.00000000E+00
  0.00000000E+00  0.00000000E+00  0.00000000E+00
  0.00000000E+00  0.00000000E+00  0.00000000E+00
  0.00000000E+00  0.00000000E+00  0.00000000E+00
  0.00000000E+00  0.00000000E+00  0.00000000E+00
  0.00000000E+00  0.00000000E+00  0.00000000E+00
  0.00000000E+00  0.00000000E+00  0.00000000E+00
  0.00000000E+00  0.00000000E+00  0.00000000E+00
  0.00000000E+00  0.00000000E+00  0.00000000E+00
  0.00000000E+00  0.00000000E+00  0.00000000E+00
  0.00000000E+00  0.00000000E+00  0.00000000E+00
  0.00000000E+00  0.00000000E+00  0.00000000E+00
  0.00000000E+00  0.00000000E+00  0.00000000E+00
  0.00000000E+00  0.00000000E+00  0.00000000E+00
  0.00000000E+00  0.00000000E+00  0.00000000E+00
  0.00000000E+00  0.00000000E+00  0.00000000E+00
  0.00000000E+00  0.00000000E+00  0.00000000E+00
  0.00000000E+00  0.00000000E+00  0.00000000E+00
  0.00000000E+00  0.00000000E+00  0.00000000E+00
  0.00000000E+00  0.00000000E+00  0.00000000E+00
  0.00000000E+00  0.00000000E+00  0.00000000E+00
  0.00000000E+00  0.00000000E+00  0.00000000E+00
  0.00000000E+00  0.00000000E+00  0.00000000E+00
  0.00000000E+00  0.00000000E+00  0.00000000E+00
  0.00000000E+00  0.00000000E+00  0.00000000E+00
  0.00000000E+00  0.00000000E+00  0.00000000E+00
  0.00000000E+00  0.00000000E+00  0.00000000E+00
  0.00000000E+00  0.00000000E+00  0.00000000E+00
  0.00000000E+00  0.00000000E+00  0.00000000E+00
  0.00000000E+00  0.00000000E+00  0.00000000E+00
  0.00000000E+00  0.00000000E+00  0.00000000E+00
  0.00000000E+00  0.00000000E+00  0.00000000E+00
  0.00000000E+00  0.00000000E+00  0.00000000E+00
  0.00000000E+00  0.00000000E+00  0.00000000E+00
  0.00000000E+00  0.00000000E+00  0.00000000E+00
  0.00000000E+00  0.00000000E+00  0.00000000E+00
  0.00000000E+00  0.00000000E+00  0.00000000E+00
  0.00000000E+00  0.00000000E+00  0.00000000E+00
  0.00000000E+00  0.00000000E+00  0.00000000E+00
  0.00000000E+00  0.00000000E+00  0.00000000E+00
  0.00000000E+00  0.00000000E+00  0.00000000E+00
  0.00000000E+00  0.00000000E+00  0.00000000E+00
  0.00000000E+00  0.00000000E+00  0.00000000E+00
  0.00000000E+00  0.00000000E+00  0.00000000E+00
  0.00000000E+00  0.00000000E+00  0.00000000E+00
  0.00000000E+00  0.00000000E+00  0.00000000E+00
  0.00000000E+00  0.00000000E+00  0.00000000E+00
  0.00000000E+00  0.00000000E+00  0.00000000E+00
  0.00000000E+00  0.00000000E+00  0.00000000E+00
  0.00000000E+00  0.00000000E+00  0.00000000E+00
  0.00000000E+00  0.00000000E+00  0.00000000E+00
  0.00000000E+00  0.00000000E+00  0.00000000E+00
  0.00000000E+00  0.00000000E+00  0.00000000E+00
  0.00000000E+00  0.00000000E+00  0.00000000E+00
  0.00000000E+00  0.00000000E+00  0.00000000E+00
  0.00000000E+00  0.00000000E+00  0.00000000E+00
  0.00000000E+00  0.00000000E+00  0.00000000E+00
  0.00000000E+00  0.00000000E+00  0.00000000E+00
  0.00000000E+00  0.00000000E+00  0.00000000E+00
  0.00000000E+00  0.00000000E+00  0.00000000E+00
  0.00000000E+00  0.00000000E+00  0.00000000E+00
  0.00000000E+00  0.00000000E+00  0.00000000E+00
  0.00000000E+00  0.00000000E+00  0.00000000E+00
  0.00000000E+00  0.00000000E+00  0.00000000E+00
  0.00000000E+00  0.00000000E+00  0.00000000E+00
  0.00000000E+00  0.00000000E+00  0.00000000E+00
  0.00000000E+00  0.00000000E+00  0.00000000E+00
  0.00000000E+00  0.00000000E+00  0.00000000E+00
  0.00000000E+00  0.00000000E+00  0.00000000E+00
  0.00000000E+00  0.00000000E+00  0.00000000E+00
  0.00000000E+00  0.00000000E+00  0.00000000E+00
  0.00000000E+00  0.00000000E+00  0.00000000E+00
  0.00000000E+00  0.00000000E+00  0.00000000E+00
  0.00000000E+00  0.00000000E+00  0.00000000E+00
  0.00000000E+00  0.00000000E+00  0.00000000E+00
  0.00000000E+00  0.00000000E+00  0.00000000E+00
  0.00000000E+00  0.00000000E+00  0.00000000E+00
  0.00000000E+00  0.00000000E+00  0.00000000E+00
  0.00000000E+00  0.00000000E+00  0.00000000E+00
  0.00000000E+00  0.00000000E+00  0.00000000E+00
  0.00000000E+00  0.00000000E+00  0.00000000E+00
  0.00000000E+00  0.00000000E+00  0.00000000E+00
  0.00000000E+00  0.00000000E+00  0.00000000E+00
  0.00000000E+00  0.00000000E+00  0.00000000E+00
  0.00000000E+00  0.00000000E+00  0.00000000E+00
  0.00000000E+00  0.00000000E+00  0.00000000E+00
  0.00000000E+00  0.00000000E+00  0.00000000E+00
  0.00000000E+00  0.00000000E+00  0.00000000E+00
  0.00000000E+00  0.00000000E+00  0.00000000E+00
  0.00000000E+00  0.00000000E+00  0.00000000E+00
  0.00000000E+00  0.00000000E+00  0.00000000E+00
  0.00000000E+00  0.00000000E+00  0.00000000E+00
  0.00000000E+00  0.00000000E+00  0.00000000E+00
