TiOF2 2x2x2 config 0008                 
   1.00000000000000     
     7.9015903996227683    0.0000000014055538   -0.0000000246828132
     0.0000000044622731    7.7900533816538902    0.0000000175532597
    -0.0000000229056717    0.0000000191670685    7.5143805001419901
   Ti   O    F 
     8     8    16
Direct
  0.9999999956322441  0.0002487835657377  0.9893400628820999
  0.0000000048649582  0.0002487806226128  0.5106599166145713
  0.9999999993994138  0.4999048591630526  0.0006542285672211
  0.9999999994527897  0.4999048540435567  0.4993458597390585
  0.4999999925142475  0.9913717163640996  0.0006702702564567
  0.5000000075132505  0.9913717088437863  0.4993296749569325
  0.4999999986155004  0.5163169920890311  0.9893710621047660
  0.5000000024346036  0.5163169838458543  0.5106289632071324
  0.4999999623566111  0.7472900672829326  0.0033481569080394
  0.5000000264163376  0.7472900632228416  0.4966518551785413
  0.0000000006265637  0.9995609445477172  0.7499999898613012
  0.0000000156017990  0.5003480350450005  0.2499999972215292
  0.9999999829191992  0.5005504278522537  0.7499999976111766
  0.5000000013178365  0.0037283440202742  0.2499999872314689
  0.5000000009241035  0.0046447927505682  0.7499999906744605
  0.5000000234895765  0.4901771714097833  0.7500000123251027
  0.2398383962946724  0.0014284170363084  0.0050107596109612
  0.2398384063421872  0.0014283227941903  0.4949892420547641
  0.2465165595656131  0.4986765139198468  0.0033900362164374
  0.2465165581762250  0.4986765526502523  0.4966100066217933
  0.7601615957865846  0.0014283184030077  0.0050107232571008
  0.7601616025403075  0.0014284082385316  0.4949892053668350
  0.7534834382548752  0.4986765752502151  0.0033900610461686
  0.7534834427403325  0.4986765107819124  0.4966099488213729
  0.9999999443998604  0.2458333703604865  0.0047358762919529
  0.0000000466648018  0.2458333670330006  0.4952640887326396
  0.0000000461326408  0.7543911960157530  0.0048513819100648
  0.9999999624320424  0.7543911908203782  0.4951486334848312
  0.5000000267131171  0.2523793806350767  0.0042737722419020
  0.4999999792674785  0.2523793764083706  0.4957262377181806
  0.0000000005995986  0.9996553214485786  0.2499999902842092
  0.4999999800106352  0.4854426535349887  0.2500000110009495
 
  0.00000000E+00  0.00000000E+00  0.00000000E+00
  0.00000000E+00  0.00000000E+00  0.00000000E+00
  0.00000000E+00  0.00000000E+00  0.00000000E+00
  0.00000000E+00  0.00000000E+00  0.00000000E+00
  0.00000000E+00  0.00000000E+00  0.00000000E+00
  0.00000000E+00  0.00000000E+00  0.00000000E+00
  0.00000000E+00  0.00000000E+00  0.00000000E+00
  0.00000000E+00  0.00000000E+00  0.00000000E+00
  0.00000000E+00  0.00000000E+00  0.00000000E+00
  0.00000000E+00  0.00000000E+00  0.00000000E+00
  0.00000000E+00  0.00000000E+00  0.00000000E+00
  0.00000000E+00  0.00000000E+00  0.00000000E+00
  0.00000000E+00  0.00000000E+00  0.00000000E+00
  0.00000000E+00  0.00000000E+00  0.00000000E+00
  0.00000000E+00  0.00000000E+00  0.00000000E+00
  0.00000000E+00  0.00000000E+00  0.00000000E+00
  0.00000000E+00  0.00000000E+00  0.00000000E+00
  0.00000000E+00  0.00000000E+00  0.00000000E+00
  0.00000000E+00  0.00000000E+00  0.00000000E+00
  0.00000000E+00  0.00000000E+00  0.00000000E+00
  0.00000000E+00  0.00000000E+00  0.00000000E+00
  0.00000000E+00  0.00000000E+00  0.00000000E+00
  0.00000000E+00  0.00000000E+00  0.00000000E+00
  0.00000000E+00  0.00000000E+00  0.00000000E+00
  0.00000000E+00  0.00000000E+00  0.00000000E+00
  0.00000000E+00  0.00000000E+00  0.00000000E+00
  0.00000000E+00  0.00000000E+00  0.00000000E+00
  0.00000000E+00  0.00000000E+00  0.00000000E+00
  0.00000000E+00  0.00000000E+00  0.00000000E+00
  0.00000000E+00  0.00000000E+00  0.00000000E+00
  0.00000000E+00  0.00000000E+00  0.00000000E+00
  0.00000000E+00  0.00000000E+00  0.00000000E+00
