TiOF2 2x2x2 config 0008                 
   1.00000000000000     
     7.9015903996227683    0.0000000014055538   -0.0000000246828132
     0.0000000044622731    7.7900533816538902    0.0000000175532597
    -0.0000000229056717    0.0000000191670685    7.5143805001419901
   Ti   O    F 
     8     8    16
Direct
 -0.0000000043677592  0.0002487835657411 -0.0106599371179002
  0.0000000048649573  0.0002487806226109  0.5106599166145692
 -0.0000000006005857  0.4999048591630545  0.0006542285672178
 -0.0000000005472078  0.4999048540435565  0.4993458597390569
  0.4999999925142488 -0.0086282836359004  0.0006702702564593
  0.5000000075132496 -0.0086282911562165  0.4993296749569290
  0.4999999986155025  0.5163169920890318 -0.0106289378952315
  0.5000000024346029  0.5163169838458567  0.5106289632071320
  0.4999999623566082  0.7472900672829297  0.0033481569080378
  0.5000000264163347  0.7472900632228403  0.4966518551785391
  0.0000000006265614 -0.0004390554522811  0.7499999898613002
  0.0000000156018010  0.5003480350450030  0.2499999972215261
 -0.0000000170808013  0.5005504278522511  0.7499999976111740
  0.5000000013178379  0.0037283440202762  0.2499999872314684
  0.5000000009241009  0.0046447927505655  0.7499999906744627
  0.5000000234895770  0.4901771714097822  0.7500000123251034
  0.2398383962946742  0.0014284170363087  0.0050107596109621
  0.2398384063421850  0.0014283227941867  0.4949892420547607
  0.2465165595656130  0.4986765139198445  0.0033900362164362
  0.2465165581762274  0.4986765526502545  0.4966100066217964
  0.7601615957865872  0.0014283184030054  0.0050107232570990
  0.7601616025403063  0.0014284082385327  0.4949892053668334
  0.7534834382548775  0.4986765752502177  0.0033900610461695
  0.7534834427403324  0.4986765107819105  0.4966099488213737
 -0.0000000556001376  0.2458333703604879  0.0047358762919504
  0.0000000466648006  0.2458333670329980  0.4952640887326389
  0.0000000461326420  0.7543911960157540  0.0048513819100680
 -0.0000000375679597  0.7543911908203756  0.4951486334848306
  0.5000000267131141  0.2523793806350802  0.0042737722419007
  0.4999999792674771  0.2523793764083719  0.4957262377181810
  0.0000000005996001 -0.0003446785514215  0.2499999902842065
  0.4999999800106322  0.4854426535349903  0.2500000110009484
 
  0.00000000E+00  0.00000000E+00  0.00000000E+00
  0.00000000E+00  0.00000000E+00  0.00000000E+00
  0.00000000E+00  0.00000000E+00  0.00000000E+00
  0.00000000E+00  0.00000000E+00  0.00000000E+00
  0.00000000E+00  0.00000000E+00  0.00000000E+00
  0.00000000E+00  0.00000000E+00  0.00000000E+00
  0.00000000E+00  0.00000000E+00  0.00000000E+00
  0.00000000E+00  0.00000000E+00  0.00000000E+00
  0.00000000E+00  0.00000000E+00  0.00000000E+00
  0.00000000E+00  0.00000000E+00  0.00000000E+00
  0.00000000E+00  0.00000000E+00  0.00000000E+00
  0.00000000E+00  0.00000000E+00  0.00000000E+00
  0.00000000E+00  0.00000000E+00  0.00000000E+00
  0.00000000E+00  0.00000000E+00  0.00000000E+00
  0.00000000E+00  0.00000000E+00  0.00000000E+00
  0.00000000E+00  0.00000000E+00  0.00000000E+00
  0.00000000E+00  0.00000000E+00  0.00000000E+00
  0.00000000E+00  0.00000000E+00  0.00000000E+00
  0.00000000E+00  0.00000000E+00  0.00000000E+00
  0.00000000E+00  0.00000000E+00  0.00000000E+00
  0.00000000E+00  0.00000000E+00  0.00000000E+00
  0.00000000E+00  0.00000000E+00  0.00000000E+00
  0.00000000E+00  0.00000000E+00  0.00000000E+00
  0.00000000E+00  0.00000000E+00  0.00000000E+00
  0.00000000E+00  0.00000000E+00  0.00000000E+00
  0.00000000E+00  0.00000000E+00  0.00000000E+00
  0.00000000E+00  0.00000000E+00  0.00000000E+00
  0.00000000E+00  0.00000000E+00  0.00000000E+00
  0.00000000E+00  0.00000000E+00  0.00000000E+00
  0.00000000E+00  0.00000000E+00  0.00000000E+00
  0.00000000E+00  0.00000000E+00  0.00000000E+00
  0.00000000E+00  0.00000000E+00  0.00000000E+00
