config 55                               
   1.00000000000000     
    15.4263309999999993    0.0000000000000000    0.0000000000000000
     0.0000000000000000   15.4263309999999993    0.0000000000000000
     0.0000000000000000    0.0000000000000000   15.4263309999999993
   Li   Ti   O    F 
     1    64    64   128
Direct
  0.8747516126151529  0.4343675377442366  0.6228356711233229
  0.9957553367440891  0.9955645155461911  0.9930185049264938
  0.0008866161906322  0.9955262428296394  0.4924920462909911
  0.0065260059429914  0.4960371958320679  0.9965848867598192
  0.9968930634692351  0.5012475609709466  0.5048503312038134
  0.4946342278244777  0.9932121975113085  0.0002681338294467
  0.4999825802813215  0.0080297542511260  0.4983973948528422
  0.5047432564306970  0.4946480309082025  0.9967776774327445
  0.4911560898796453  0.4976669687010760  0.4959850038006438
  0.0065743184898159  0.0041276291442410  0.2551774500006497
  0.0012455882671834  0.0089888149772868  0.7552912254292461
  0.9943516268217140  0.4918485997644629  0.2509639651246167
  0.9953954663939508  0.4971288651663314  0.7438249204745716
  0.5052938776254549  0.0092148385443622  0.2507902395236895
  0.4922218697357235  0.0039047806520680  0.7529912420465418
  0.4928247678041727  0.4955185320608146  0.2577494444386153
  0.4992370655935071  0.5030663424671128  0.7590459350898756
  0.9956785559171533  0.2578461244045037  0.0021901093593900
  0.9987520747970687  0.2476373920621530  0.4942069490259109
  0.9987136975153442  0.7587099680135332  0.0048250474988484
  0.9989394763576641  0.7601652185435530  0.5044806048590753
  0.4954580995225696  0.2579923172658589  0.0024544626706535
  0.5090433086566344  0.2448056786881279  0.4980189339328605
  0.5076932024297909  0.7557943388875865  0.9999743568798700
  0.5071283127859552  0.7509928861815000  0.5088960103571776
  0.9984114028160346  0.2563464784877413  0.2591908104846575
  0.0063412860959782  0.2411468906931153  0.7482012049984985
  0.0064833488475193  0.7487982234578000  0.2426689077606470
  0.9935840642773740  0.7530721972128186  0.7419578997997318
  0.5081629248071525  0.2413211643381267  0.2525444403126071
  0.5062582276553588  0.2418441743658922  0.7516076204301448
  0.5062101111604399  0.7512101696015800  0.2525347456561921
  0.5012521351394080  0.7407664427009955  0.7441937717691067
  0.2567732382433420  0.9975239872503219  0.0057844401876647
  0.2499567391579803  0.9934552496045493  0.5064034750313350
  0.2443369031472896  0.5081072107543034  0.9974971145668952
  0.2540105069732592  0.4931528325784534  0.5071639501943210
  0.7567246651248170  0.0005949214793450  0.9937379533350708
  0.7511272167275048  0.0082562680926196  0.4947719725763511
  0.7418939568348578  0.4997021868228702  0.0054802308893175
  0.7537337716321686  0.4968000538778493  0.5031157100467637
  0.2447500726218234  0.0024271818312554  0.2435355251351470
  0.2580898330185521  0.9969192340828315  0.7445734699635759
  0.2549625300381520  0.4915823661030196  0.2518695950301437
  0.2481519264344037  0.5058662195954728  0.7409018016016431
  0.7438813850828281  0.0021844028825701  0.2555333539245715
  0.7484425141799705  0.0076335467442372  0.7552784575619512
  0.7559165384856168  0.4973639128634612  0.2411575470831979
  0.7550809964776208  0.4960401378907669  0.7444649344251710
  0.2570567176190338  0.2516860031624739  0.0064813712054942
  0.2520548691546177  0.2561009771010965  0.5053720888311561
  0.2527395850686094  0.7421240765583176  0.9941233298433465
  0.2511054515155013  0.7547796795933230  0.4929454929702669
  0.7567905617831218  0.2522285994334553  0.0080005204337811
  0.7451927189959535  0.2423409574886538  0.4975924939719631
  0.7420178018976469  0.7475357630911921  0.9934239903917660
  0.7421424273158418  0.7507300622453671  0.4930832235249883
  0.2503424122726333  0.2574961863387183  0.2439687528723428
  0.2440305695400356  0.2506516672356258  0.7441096829911039
  0.2436135889230839  0.7473405669949422  0.2562629119680904
  0.2490279599989011  0.7414711792988482  0.7567119215831003
  0.7419402015041394  0.2519919054147091  0.2413928818239196
  0.7443605831698159  0.2406116730818032  0.7507875363063486
  0.7454183325936184  0.7485846378745182  0.2569692334351832
  0.7577395450305908  0.7502652209707442  0.7563320642792418
  0.0037877685680954  0.4842329983379531  0.6249698135602247
  0.9985547637332559  0.0141266447730708  0.3755011905988327
  0.0021851892325983  0.0111553923046293  0.8720107785545002
  0.4966727133566597  0.4862324257946742  0.3762010219476951
  0.4916050660710711  0.4903984581167060  0.8747552150889233
  0.0020827412345902  0.7545860573647686  0.1250356869044595
  0.0059717642022707  0.7572469019826843  0.6241216139370758
  0.5060823241174872  0.7437931809048912  0.6248593481902683
  0.9862711025476262  0.2381372829930584  0.3724143975964828
  0.2582001579438469  0.0009894929764178  0.1251935642672160
  0.2591626748525948  0.0010598138131763  0.6254285290731673
  0.2342794802869477  0.4931966976317226  0.6263381088814812
  0.7451103227604241  0.4819753100904395  0.1247102280279421
  0.7494214406424007  0.4783354916512383  0.6242748742317129
  0.7472296630930236  0.0121336922077385  0.3759331379244986
  0.7434693270095111  0.0104954458095417  0.8730588550794879
  0.2421969419729323  0.2509270953556070  0.1256844693341600
  0.2500790967493454  0.2512468977074646  0.6258126434993301
  0.7362880168590772  0.2686316084158068  0.1258083813214385
  0.2576687690535093  0.7443609022811764  0.3749246895218818
  0.2553787476124289  0.7505213029567818  0.8752734646480625
  0.7553780753426569  0.7375123661714170  0.3741988067176560
  0.7523106980792769  0.7388318202402221  0.8749174012059393
  0.1248272547464371  0.5094034896081536  0.9889558771743443
  0.6261435752002954  0.5113867755538963  0.9938936799330291
  0.1252977262522649  0.0071140771726245  0.2481760364169111
  0.6243905801091613  0.0068005540446686  0.2462950904837482
  0.6250473013701748  0.2483591117669058  0.4901671969969222
  0.6246153828085700  0.7359235740741270  0.9997823973912585
  0.6245768884670269  0.7528349440602101  0.4917379476077992
  0.1245389738225711  0.2431518911943039  0.7529811854837265
  0.1250603497171481  0.7470955179716539  0.2551860658236610
  0.6255862122072600  0.2403314094960377  0.2646830526595668
  0.6255390519701015  0.2457234424478108  0.7534063943153132
  0.6225207515088578  0.7490176690031536  0.2545646044000439
  0.3763527472586871  0.9931348723676445  0.9896267850375556
  0.3752061575558246  0.4983156177755475  0.5090317133132839
  0.8726261880167603  0.9958185685723142  0.9966606037062297
  0.8752120103973646  0.4882925659452414  0.5071344184137647
  0.3761860573538046  0.9889876573939407  0.7610368024964733
  0.3741982481647922  0.4916669386871623  0.2458130516521411
  0.8745653751966415  0.4928243475665192  0.2471123518044099
  0.8752859173677788  0.4907208633600172  0.7390802556748046
  0.3761866780315537  0.2536105374923014  0.0083299959517293
  0.8738558708841244  0.2552706609576058  0.0098903408146633
  0.8747762225219856  0.7513867706528784  0.7447497437098329
  0.5019675359768049  0.1221561652365221  0.4868105580767629
  0.9888291249201483  0.1262477699511789  0.7342011751650054
  0.4904801224711910  0.1250337100300299  0.2691637529996853
  0.4952097771060116  0.1230507944878165  0.7569041823245157
  0.4943345702312633  0.6244012173029404  0.7566413043959049
  0.0051822861942900  0.3759116396559650  0.9934690458847175
  0.0075074474389282  0.8749507343900527  0.9919271153964697
  0.0066954671765143  0.8761694614638931  0.4889197360219262
  0.5088075159908800  0.3739690365672944  0.0133314384296866
  0.5099453259856124  0.8745945902643951  0.0110798913634219
  0.0104167755436360  0.3755090386109803  0.2567635372327234
  0.2615962820043694  0.6248854495356116  0.0041845678425649
  0.7522986442183929  0.1257798254855644  0.5141660956958750
  0.2554201930855641  0.6241977424290474  0.7477029648923637
  0.7579092416092638  0.1248940634528289  0.7341582249553575
  0.2451754745805943  0.3734353837477848  0.4925068426099201
  0.2451815262522152  0.8751655940505360  0.4984091046859286
  0.2385414269025757  0.3744924651244529  0.2580959690356206
  0.9971196319006869  0.9930127443465896  0.1260810367595972
  0.0019053090456885  0.9863877319014770  0.6246785175361195
  0.0062513628408545  0.5005146497683201  0.1241681795293322
  0.4891573492193199  0.0146490241019283  0.1265487575156686
  0.4908584037792805  0.0049208631016946  0.6228106502727163
  0.5058294388733640  0.5125611358313134  0.1280324548800388
  0.5111039457196500  0.5069905654724476  0.6246988742482157
  0.9957930720080167  0.5112712063062708  0.3762145715375138
  0.9882161233566794  0.5099978872398362  0.8720392688781742
  0.5093895728249285  0.9813907226503311  0.3764283560735875
  0.5188261129661037  0.9907434261626178  0.8752663579583082
  0.0125329189159331  0.2559612360487610  0.1262922486629625
  0.0025210944079757  0.2715547590982880  0.6243168735493430
  0.5126045640000317  0.2315460066794251  0.1272025787921551
  0.5026129303348782  0.2378340638308841  0.6231715514033358
  0.4992003675075177  0.7375695177825090  0.1274305787670512
  0.9898222871776180  0.2395975749244705  0.8746426717927591
  0.9904630169702253  0.7411363275653513  0.3755813207812767
  0.9973816938661005  0.7418715654046214  0.8731314330718821
  0.4890927800012329  0.2696114886539959  0.3756178904366689
  0.4955579897660011  0.2608955272412072  0.8751301051352537
  0.4890994078424003  0.7625946779798032  0.3757165905933425
  0.4953429872978488  0.7591329783712530  0.8744586387639706
  0.2393876106464557  0.4926934117182786  0.1247643672745659
  0.7515389428350981  0.9890600981989297  0.1264227869187379
  0.7502746702404953  0.9858521330226131  0.6229425676492383
  0.2477261623165149  0.0027295950026074  0.3754729011240283
  0.2401807739388655  0.9953979719134203  0.8744182208634649
  0.2521490509493101  0.5125261919887570  0.3758350234025918
  0.2640193775557406  0.4997270087545160  0.8735065668516677
  0.7525647891851699  0.5161357188454729  0.3756705981329828
  0.7579490976979675  0.5147104788609869  0.8727147733059779
  0.2484434609172567  0.7555750856580560  0.1251396578778396
  0.2447144567329181  0.7524930182781203  0.6254222419578569
  0.7437937873355659  0.2709293757291790  0.6237876874354379
  0.7483577347009217  0.7600690293665054  0.1257421121056129
  0.7429671050174391  0.7578741982104003  0.6242015979783225
  0.2595919592322193  0.2426119331177150  0.3741408721811560
  0.2562416885131906  0.2498688411030517  0.8754700132326458
  0.7656848524032777  0.2343077310931842  0.3736317001813150
  0.7582554497589902  0.2338382437752095  0.8760977310362013
  0.1261570369683931  0.0072621540247976  0.0047973777682205
  0.1256835250359306  0.0137586631909478  0.5031074041900322
  0.1232401944879028  0.5118397108538231  0.4910664784340453
  0.6248513184024326  0.0079948577285095  0.0108719416983149
  0.6240004430978390  0.9928731498124274  0.5074136497421321
  0.6262668769270602  0.5023641094273558  0.4968807473400311
  0.1272497006778426  0.0089712743899496  0.7437984793177707
  0.1241679462357385  0.5120185910393014  0.2547969452725029
  0.1229600631135233  0.5016702188182036  0.7662253314779065
  0.6236104741027572  0.0020946910939722  0.7367844548669689
  0.6254193421509594  0.5043609644761089  0.2551059840063107
  0.6267825731382345  0.4996829230373052  0.7572740429363128
  0.1249454017149555  0.2445977505675272  0.9902796014178836
  0.1290331969725612  0.2337874696229773  0.4949208618926842
  0.1251820528000169  0.7379467624894390  0.9969758782307331
  0.1239441595614047  0.7404124115069812  0.4916821636352822
  0.6263663547055760  0.2431571423807166  0.9895693653057576
  0.1251434914302686  0.2335535237734328  0.2603672272976697
  0.1233230699171109  0.7442789584413882  0.7556877340078136
  0.6262592108188252  0.7453256015262684  0.7548795882387573
  0.3774094808909464  0.9964294422035009  0.4884416867122378
  0.3737486000542177  0.4899505504450911  0.0112233989283275
  0.8743520769661753  0.9931553993785330  0.5042668774399532
  0.8742775851611491  0.4925928037992798  0.0028146946259456
  0.3772533628618107  0.9913479900477242  0.2603661087498472
  0.3747158488352597  0.4909351951504014  0.7354155062289705
  0.8731392165630595  0.9959930815387391  0.2499705520976353
  0.8741324186895079  0.9874547830558463  0.7468930825562803
  0.3798870346610096  0.2511824302212054  0.5026909017416963
  0.3766087106413201  0.7627092284571443  0.0055577185870573
  0.3768944423065154  0.7496880140106733  0.5066756893401536
  0.8688278097747139  0.2671032595300826  0.5126040586676658
  0.8718940132465974  0.7610231591975327  0.0017562107083195
  0.8725640419232666  0.7531033906952930  0.5073454142310905
  0.3784025653667430  0.2612208686749032  0.2414706782084580
  0.3767305532055364  0.2553859951940233  0.7484511150456699
  0.3767648829369046  0.7528232606283912  0.2444965217219049
  0.3751861549042431  0.7613342540911071  0.7445112004511225
  0.8725251488453460  0.2613096135712040  0.2369934924843348
  0.8736254560873266  0.2641357898478620  0.7414780245834673
  0.8730300144451205  0.7532382366119712  0.2458353990082522
  0.9975199432249137  0.1267972147798642  0.0089923673945833
  0.9871378028931220  0.1202204072247295  0.5204912977307679
  0.9880759483088033  0.6255037264102342  0.0017981967792406
  0.9918043466237165  0.6257372203247715  0.5076542743246464
  0.4986671064329632  0.1241627135952123  0.9900511530439360
  0.4851951892263754  0.6267368373467109  0.9940129883458271
  0.5005944834975650  0.6257677639479053  0.4885234902570022
  0.9882431129371204  0.1271317651721279  0.2346405135077245
  0.9930865439298660  0.6239309998445809  0.2464129595695378
  0.0008257536420299  0.6231228168141448  0.7415273418498849
  0.4955469238232386  0.6257196824677134  0.2637610791523604
  0.0141612080347656  0.3792515662166664  0.4844095370389780
  0.5029011292556919  0.3718928719891236  0.5150791512606814
  0.4960513252805534  0.8773777604521679  0.5077466342959445
  0.0049839586289260  0.3743339972580564  0.7652710607797222
  0.9995705490932694  0.8761936281460067  0.2601522356723328
  0.0072361165753586  0.8761859270221624  0.7583264136154688
  0.5099236982847972  0.3715105442336887  0.2353013768035736
  0.5030594604173050  0.3730052511257508  0.7380931068023894
  0.5012970647720528  0.8759542375970236  0.2379936890959125
  0.5088195194184564  0.8745918678470568  0.7450806918428812
  0.2530098959594868  0.1244143064239149  0.9947607784052150
  0.2614935447687566  0.1233717853104864  0.4988518504647375
  0.2525753266180862  0.6260494292391141  0.5079804884873577
  0.7512310311626422  0.1260200864748766  0.0166136031863658
  0.7652402066276215  0.6247473163331221  0.0154308660467150
  0.7523257288553941  0.6239202026578314  0.5143617763450350
  0.2645362537869491  0.1262148385865158  0.2512437932914329
  0.2596071981074008  0.1240069157404520  0.7563641077121220
  0.2558113690761746  0.6233799936165734  0.2392870332872861
  0.7614730010652437  0.1266537343420820  0.2339511151736933
  0.7515313035415520  0.6246025037486448  0.2338595008358749
  0.7488250578837862  0.6226137679212633  0.7345026606944923
  0.2430090777070293  0.3761410074027939  0.9957664563497901
  0.2387079771020976  0.8733239358067348  0.0016778961522762
  0.7425390734244853  0.3749263688074867  0.9778316471191552
  0.7427790765826993  0.3741264717008142  0.4779093226070172
  0.7372651471573314  0.8743897595824667  0.9920781118276460
  0.7516603308015394  0.8760283697770209  0.4894013313579275
  0.2463516092693845  0.3757667064373946  0.7586870164153560
  0.2494531934112731  0.8753542207153980  0.2532533087099321
  0.2386359428678202  0.8731451358393802  0.7476357195165299
  0.7422290963905989  0.3744485787437333  0.2732496344258342
  0.7461726069440894  0.3735824696535902  0.7691446184706613
  0.7476788645807830  0.8753266591874285  0.2603937840950627
  0.7436038973875295  0.8748544573355606  0.7566972097045338
 
  0.00000000E+00  0.00000000E+00  0.00000000E+00
  0.00000000E+00  0.00000000E+00  0.00000000E+00
  0.00000000E+00  0.00000000E+00  0.00000000E+00
  0.00000000E+00  0.00000000E+00  0.00000000E+00
  0.00000000E+00  0.00000000E+00  0.00000000E+00
  0.00000000E+00  0.00000000E+00  0.00000000E+00
  0.00000000E+00  0.00000000E+00  0.00000000E+00
  0.00000000E+00  0.00000000E+00  0.00000000E+00
  0.00000000E+00  0.00000000E+00  0.00000000E+00
  0.00000000E+00  0.00000000E+00  0.00000000E+00
  0.00000000E+00  0.00000000E+00  0.00000000E+00
  0.00000000E+00  0.00000000E+00  0.00000000E+00
  0.00000000E+00  0.00000000E+00  0.00000000E+00
  0.00000000E+00  0.00000000E+00  0.00000000E+00
  0.00000000E+00  0.00000000E+00  0.00000000E+00
  0.00000000E+00  0.00000000E+00  0.00000000E+00
  0.00000000E+00  0.00000000E+00  0.00000000E+00
  0.00000000E+00  0.00000000E+00  0.00000000E+00
  0.00000000E+00  0.00000000E+00  0.00000000E+00
  0.00000000E+00  0.00000000E+00  0.00000000E+00
  0.00000000E+00  0.00000000E+00  0.00000000E+00
  0.00000000E+00  0.00000000E+00  0.00000000E+00
  0.00000000E+00  0.00000000E+00  0.00000000E+00
  0.00000000E+00  0.00000000E+00  0.00000000E+00
  0.00000000E+00  0.00000000E+00  0.00000000E+00
  0.00000000E+00  0.00000000E+00  0.00000000E+00
  0.00000000E+00  0.00000000E+00  0.00000000E+00
  0.00000000E+00  0.00000000E+00  0.00000000E+00
  0.00000000E+00  0.00000000E+00  0.00000000E+00
  0.00000000E+00  0.00000000E+00  0.00000000E+00
  0.00000000E+00  0.00000000E+00  0.00000000E+00
  0.00000000E+00  0.00000000E+00  0.00000000E+00
  0.00000000E+00  0.00000000E+00  0.00000000E+00
  0.00000000E+00  0.00000000E+00  0.00000000E+00
  0.00000000E+00  0.00000000E+00  0.00000000E+00
  0.00000000E+00  0.00000000E+00  0.00000000E+00
  0.00000000E+00  0.00000000E+00  0.00000000E+00
  0.00000000E+00  0.00000000E+00  0.00000000E+00
  0.00000000E+00  0.00000000E+00  0.00000000E+00
  0.00000000E+00  0.00000000E+00  0.00000000E+00
  0.00000000E+00  0.00000000E+00  0.00000000E+00
  0.00000000E+00  0.00000000E+00  0.00000000E+00
  0.00000000E+00  0.00000000E+00  0.00000000E+00
  0.00000000E+00  0.00000000E+00  0.00000000E+00
  0.00000000E+00  0.00000000E+00  0.00000000E+00
  0.00000000E+00  0.00000000E+00  0.00000000E+00
  0.00000000E+00  0.00000000E+00  0.00000000E+00
  0.00000000E+00  0.00000000E+00  0.00000000E+00
  0.00000000E+00  0.00000000E+00  0.00000000E+00
  0.00000000E+00  0.00000000E+00  0.00000000E+00
  0.00000000E+00  0.00000000E+00  0.00000000E+00
  0.00000000E+00  0.00000000E+00  0.00000000E+00
  0.00000000E+00  0.00000000E+00  0.00000000E+00
  0.00000000E+00  0.00000000E+00  0.00000000E+00
  0.00000000E+00  0.00000000E+00  0.00000000E+00
  0.00000000E+00  0.00000000E+00  0.00000000E+00
  0.00000000E+00  0.00000000E+00  0.00000000E+00
  0.00000000E+00  0.00000000E+00  0.00000000E+00
  0.00000000E+00  0.00000000E+00  0.00000000E+00
  0.00000000E+00  0.00000000E+00  0.00000000E+00
  0.00000000E+00  0.00000000E+00  0.00000000E+00
  0.00000000E+00  0.00000000E+00  0.00000000E+00
  0.00000000E+00  0.00000000E+00  0.00000000E+00
  0.00000000E+00  0.00000000E+00  0.00000000E+00
  0.00000000E+00  0.00000000E+00  0.00000000E+00
  0.00000000E+00  0.00000000E+00  0.00000000E+00
  0.00000000E+00  0.00000000E+00  0.00000000E+00
  0.00000000E+00  0.00000000E+00  0.00000000E+00
  0.00000000E+00  0.00000000E+00  0.00000000E+00
  0.00000000E+00  0.00000000E+00  0.00000000E+00
  0.00000000E+00  0.00000000E+00  0.00000000E+00
  0.00000000E+00  0.00000000E+00  0.00000000E+00
  0.00000000E+00  0.00000000E+00  0.00000000E+00
  0.00000000E+00  0.00000000E+00  0.00000000E+00
  0.00000000E+00  0.00000000E+00  0.00000000E+00
  0.00000000E+00  0.00000000E+00  0.00000000E+00
  0.00000000E+00  0.00000000E+00  0.00000000E+00
  0.00000000E+00  0.00000000E+00  0.00000000E+00
  0.00000000E+00  0.00000000E+00  0.00000000E+00
  0.00000000E+00  0.00000000E+00  0.00000000E+00
  0.00000000E+00  0.00000000E+00  0.00000000E+00
  0.00000000E+00  0.00000000E+00  0.00000000E+00
  0.00000000E+00  0.00000000E+00  0.00000000E+00
  0.00000000E+00  0.00000000E+00  0.00000000E+00
  0.00000000E+00  0.00000000E+00  0.00000000E+00
  0.00000000E+00  0.00000000E+00  0.00000000E+00
  0.00000000E+00  0.00000000E+00  0.00000000E+00
  0.00000000E+00  0.00000000E+00  0.00000000E+00
  0.00000000E+00  0.00000000E+00  0.00000000E+00
  0.00000000E+00  0.00000000E+00  0.00000000E+00
  0.00000000E+00  0.00000000E+00  0.00000000E+00
  0.00000000E+00  0.00000000E+00  0.00000000E+00
  0.00000000E+00  0.00000000E+00  0.00000000E+00
  0.00000000E+00  0.00000000E+00  0.00000000E+00
  0.00000000E+00  0.00000000E+00  0.00000000E+00
  0.00000000E+00  0.00000000E+00  0.00000000E+00
  0.00000000E+00  0.00000000E+00  0.00000000E+00
  0.00000000E+00  0.00000000E+00  0.00000000E+00
  0.00000000E+00  0.00000000E+00  0.00000000E+00
  0.00000000E+00  0.00000000E+00  0.00000000E+00
  0.00000000E+00  0.00000000E+00  0.00000000E+00
  0.00000000E+00  0.00000000E+00  0.00000000E+00
  0.00000000E+00  0.00000000E+00  0.00000000E+00
  0.00000000E+00  0.00000000E+00  0.00000000E+00
  0.00000000E+00  0.00000000E+00  0.00000000E+00
  0.00000000E+00  0.00000000E+00  0.00000000E+00
  0.00000000E+00  0.00000000E+00  0.00000000E+00
  0.00000000E+00  0.00000000E+00  0.00000000E+00
  0.00000000E+00  0.00000000E+00  0.00000000E+00
  0.00000000E+00  0.00000000E+00  0.00000000E+00
  0.00000000E+00  0.00000000E+00  0.00000000E+00
  0.00000000E+00  0.00000000E+00  0.00000000E+00
  0.00000000E+00  0.00000000E+00  0.00000000E+00
  0.00000000E+00  0.00000000E+00  0.00000000E+00
  0.00000000E+00  0.00000000E+00  0.00000000E+00
  0.00000000E+00  0.00000000E+00  0.00000000E+00
  0.00000000E+00  0.00000000E+00  0.00000000E+00
  0.00000000E+00  0.00000000E+00  0.00000000E+00
  0.00000000E+00  0.00000000E+00  0.00000000E+00
  0.00000000E+00  0.00000000E+00  0.00000000E+00
  0.00000000E+00  0.00000000E+00  0.00000000E+00
  0.00000000E+00  0.00000000E+00  0.00000000E+00
  0.00000000E+00  0.00000000E+00  0.00000000E+00
  0.00000000E+00  0.00000000E+00  0.00000000E+00
  0.00000000E+00  0.00000000E+00  0.00000000E+00
  0.00000000E+00  0.00000000E+00  0.00000000E+00
  0.00000000E+00  0.00000000E+00  0.00000000E+00
  0.00000000E+00  0.00000000E+00  0.00000000E+00
  0.00000000E+00  0.00000000E+00  0.00000000E+00
  0.00000000E+00  0.00000000E+00  0.00000000E+00
  0.00000000E+00  0.00000000E+00  0.00000000E+00
  0.00000000E+00  0.00000000E+00  0.00000000E+00
  0.00000000E+00  0.00000000E+00  0.00000000E+00
  0.00000000E+00  0.00000000E+00  0.00000000E+00
  0.00000000E+00  0.00000000E+00  0.00000000E+00
  0.00000000E+00  0.00000000E+00  0.00000000E+00
  0.00000000E+00  0.00000000E+00  0.00000000E+00
  0.00000000E+00  0.00000000E+00  0.00000000E+00
  0.00000000E+00  0.00000000E+00  0.00000000E+00
  0.00000000E+00  0.00000000E+00  0.00000000E+00
  0.00000000E+00  0.00000000E+00  0.00000000E+00
  0.00000000E+00  0.00000000E+00  0.00000000E+00
  0.00000000E+00  0.00000000E+00  0.00000000E+00
  0.00000000E+00  0.00000000E+00  0.00000000E+00
  0.00000000E+00  0.00000000E+00  0.00000000E+00
  0.00000000E+00  0.00000000E+00  0.00000000E+00
  0.00000000E+00  0.00000000E+00  0.00000000E+00
  0.00000000E+00  0.00000000E+00  0.00000000E+00
  0.00000000E+00  0.00000000E+00  0.00000000E+00
  0.00000000E+00  0.00000000E+00  0.00000000E+00
  0.00000000E+00  0.00000000E+00  0.00000000E+00
  0.00000000E+00  0.00000000E+00  0.00000000E+00
  0.00000000E+00  0.00000000E+00  0.00000000E+00
  0.00000000E+00  0.00000000E+00  0.00000000E+00
  0.00000000E+00  0.00000000E+00  0.00000000E+00
  0.00000000E+00  0.00000000E+00  0.00000000E+00
  0.00000000E+00  0.00000000E+00  0.00000000E+00
  0.00000000E+00  0.00000000E+00  0.00000000E+00
  0.00000000E+00  0.00000000E+00  0.00000000E+00
  0.00000000E+00  0.00000000E+00  0.00000000E+00
  0.00000000E+00  0.00000000E+00  0.00000000E+00
  0.00000000E+00  0.00000000E+00  0.00000000E+00
  0.00000000E+00  0.00000000E+00  0.00000000E+00
  0.00000000E+00  0.00000000E+00  0.00000000E+00
  0.00000000E+00  0.00000000E+00  0.00000000E+00
  0.00000000E+00  0.00000000E+00  0.00000000E+00
  0.00000000E+00  0.00000000E+00  0.00000000E+00
  0.00000000E+00  0.00000000E+00  0.00000000E+00
  0.00000000E+00  0.00000000E+00  0.00000000E+00
  0.00000000E+00  0.00000000E+00  0.00000000E+00
  0.00000000E+00  0.00000000E+00  0.00000000E+00
  0.00000000E+00  0.00000000E+00  0.00000000E+00
  0.00000000E+00  0.00000000E+00  0.00000000E+00
  0.00000000E+00  0.00000000E+00  0.00000000E+00
  0.00000000E+00  0.00000000E+00  0.00000000E+00
  0.00000000E+00  0.00000000E+00  0.00000000E+00
  0.00000000E+00  0.00000000E+00  0.00000000E+00
  0.00000000E+00  0.00000000E+00  0.00000000E+00
  0.00000000E+00  0.00000000E+00  0.00000000E+00
  0.00000000E+00  0.00000000E+00  0.00000000E+00
  0.00000000E+00  0.00000000E+00  0.00000000E+00
  0.00000000E+00  0.00000000E+00  0.00000000E+00
  0.00000000E+00  0.00000000E+00  0.00000000E+00
  0.00000000E+00  0.00000000E+00  0.00000000E+00
  0.00000000E+00  0.00000000E+00  0.00000000E+00
  0.00000000E+00  0.00000000E+00  0.00000000E+00
  0.00000000E+00  0.00000000E+00  0.00000000E+00
  0.00000000E+00  0.00000000E+00  0.00000000E+00
  0.00000000E+00  0.00000000E+00  0.00000000E+00
  0.00000000E+00  0.00000000E+00  0.00000000E+00
  0.00000000E+00  0.00000000E+00  0.00000000E+00
  0.00000000E+00  0.00000000E+00  0.00000000E+00
  0.00000000E+00  0.00000000E+00  0.00000000E+00
  0.00000000E+00  0.00000000E+00  0.00000000E+00
  0.00000000E+00  0.00000000E+00  0.00000000E+00
  0.00000000E+00  0.00000000E+00  0.00000000E+00
  0.00000000E+00  0.00000000E+00  0.00000000E+00
  0.00000000E+00  0.00000000E+00  0.00000000E+00
  0.00000000E+00  0.00000000E+00  0.00000000E+00
  0.00000000E+00  0.00000000E+00  0.00000000E+00
  0.00000000E+00  0.00000000E+00  0.00000000E+00
  0.00000000E+00  0.00000000E+00  0.00000000E+00
  0.00000000E+00  0.00000000E+00  0.00000000E+00
  0.00000000E+00  0.00000000E+00  0.00000000E+00
  0.00000000E+00  0.00000000E+00  0.00000000E+00
  0.00000000E+00  0.00000000E+00  0.00000000E+00
  0.00000000E+00  0.00000000E+00  0.00000000E+00
  0.00000000E+00  0.00000000E+00  0.00000000E+00
  0.00000000E+00  0.00000000E+00  0.00000000E+00
  0.00000000E+00  0.00000000E+00  0.00000000E+00
  0.00000000E+00  0.00000000E+00  0.00000000E+00
  0.00000000E+00  0.00000000E+00  0.00000000E+00
  0.00000000E+00  0.00000000E+00  0.00000000E+00
  0.00000000E+00  0.00000000E+00  0.00000000E+00
  0.00000000E+00  0.00000000E+00  0.00000000E+00
  0.00000000E+00  0.00000000E+00  0.00000000E+00
  0.00000000E+00  0.00000000E+00  0.00000000E+00
  0.00000000E+00  0.00000000E+00  0.00000000E+00
  0.00000000E+00  0.00000000E+00  0.00000000E+00
  0.00000000E+00  0.00000000E+00  0.00000000E+00
  0.00000000E+00  0.00000000E+00  0.00000000E+00
  0.00000000E+00  0.00000000E+00  0.00000000E+00
  0.00000000E+00  0.00000000E+00  0.00000000E+00
  0.00000000E+00  0.00000000E+00  0.00000000E+00
  0.00000000E+00  0.00000000E+00  0.00000000E+00
  0.00000000E+00  0.00000000E+00  0.00000000E+00
  0.00000000E+00  0.00000000E+00  0.00000000E+00
  0.00000000E+00  0.00000000E+00  0.00000000E+00
  0.00000000E+00  0.00000000E+00  0.00000000E+00
  0.00000000E+00  0.00000000E+00  0.00000000E+00
  0.00000000E+00  0.00000000E+00  0.00000000E+00
  0.00000000E+00  0.00000000E+00  0.00000000E+00
  0.00000000E+00  0.00000000E+00  0.00000000E+00
  0.00000000E+00  0.00000000E+00  0.00000000E+00
  0.00000000E+00  0.00000000E+00  0.00000000E+00
  0.00000000E+00  0.00000000E+00  0.00000000E+00
  0.00000000E+00  0.00000000E+00  0.00000000E+00
  0.00000000E+00  0.00000000E+00  0.00000000E+00
  0.00000000E+00  0.00000000E+00  0.00000000E+00
  0.00000000E+00  0.00000000E+00  0.00000000E+00
  0.00000000E+00  0.00000000E+00  0.00000000E+00
  0.00000000E+00  0.00000000E+00  0.00000000E+00
  0.00000000E+00  0.00000000E+00  0.00000000E+00
  0.00000000E+00  0.00000000E+00  0.00000000E+00
  0.00000000E+00  0.00000000E+00  0.00000000E+00
  0.00000000E+00  0.00000000E+00  0.00000000E+00
  0.00000000E+00  0.00000000E+00  0.00000000E+00
  0.00000000E+00  0.00000000E+00  0.00000000E+00
  0.00000000E+00  0.00000000E+00  0.00000000E+00
  0.00000000E+00  0.00000000E+00  0.00000000E+00
  0.00000000E+00  0.00000000E+00  0.00000000E+00
  0.00000000E+00  0.00000000E+00  0.00000000E+00
  0.00000000E+00  0.00000000E+00  0.00000000E+00
  0.00000000E+00  0.00000000E+00  0.00000000E+00
  0.00000000E+00  0.00000000E+00  0.00000000E+00
  0.00000000E+00  0.00000000E+00  0.00000000E+00
  0.00000000E+00  0.00000000E+00  0.00000000E+00
