TiOF2 2x2x2 config 1                    
   1.00000000000000     
     7.9141559098496774    0.0000000121948201    0.0000000410034139
     0.0000000138099017    7.8551288283986578   -0.0000374405811754
     0.0000000421692056   -0.0000485999806084    7.4661150076969260
   Ti   O    F 
     8     8    16
Direct
  0.9999999914891583  0.0000386581181633  0.9892943789007406
  0.0000000285728823  0.0002313688364782  0.5096960266657742
  0.9999999940612483  0.5000585640508123  0.0002657021348252
  0.9999999767062678  0.4998708256924773  0.4996575345749977
  0.4999999945474837  0.0010726446821932  0.0003873267805924
  0.5000000252037514  0.9843646748210332  0.4997800617742393
  0.4999999927383159  0.4996039177115730  0.0000392356050983
  0.4999999603508227  0.5123890993565383  0.5000375393971672
  0.5000000031046908  0.7514388839654774  0.5001294072085779
  0.9999999675622353  0.9998994533961557  0.7502959303148904
  0.9999999794386182  0.5001865771820319  0.2496080409093709
  0.9999999924887698  0.5001811896520684  0.7505625678601776
  0.4999999845508046  0.0022327291059927  0.2459837142723235
  0.5000000389295108  0.0022088429749954  0.7542368585951822
  0.4999999787353032  0.4985386868214313  0.2466859375573227
  0.4999999659727810  0.4985251200888881  0.7533769035558688
  0.2411994715722061  0.0000345482396788  0.0047579037639051
  0.2398742184319217  0.0009897638034013  0.4950980327635435
  0.2457428965503408  0.5000771678093819  0.9999455008157360
  0.2445369955933326  0.4987890113677662  0.5001296600205886
  0.7588005222569675  0.0000345111165621  0.0047579415903017
  0.7601258298511208  0.0009897920223032  0.4950979103402157
  0.7542570832951181  0.5000771927604019  0.9999454939799250
  0.7554629573510806  0.4987889906211384  0.5001296983697796
  0.9999999694586128  0.2445580812758790  0.0046170071198886
  0.0000000676392494  0.2447224581167602  0.4956398099374790
  0.0000000038651669  0.7555275881498318  0.0046099805644545
  0.0000000222894954  0.7554394180523002  0.4956677640082328
  0.5000000396430961  0.2493893120799219  0.9999720397722359
  0.4999999913041998  0.2485331420873695  0.5001124967196304
  0.5000000095106726  0.7513233240392486  0.9999641436597102
  0.0000000469347817  0.9998844620017455  0.2495174504672101
 
  0.00000000E+00  0.00000000E+00  0.00000000E+00
  0.00000000E+00  0.00000000E+00  0.00000000E+00
  0.00000000E+00  0.00000000E+00  0.00000000E+00
  0.00000000E+00  0.00000000E+00  0.00000000E+00
  0.00000000E+00  0.00000000E+00  0.00000000E+00
  0.00000000E+00  0.00000000E+00  0.00000000E+00
  0.00000000E+00  0.00000000E+00  0.00000000E+00
  0.00000000E+00  0.00000000E+00  0.00000000E+00
  0.00000000E+00  0.00000000E+00  0.00000000E+00
  0.00000000E+00  0.00000000E+00  0.00000000E+00
  0.00000000E+00  0.00000000E+00  0.00000000E+00
  0.00000000E+00  0.00000000E+00  0.00000000E+00
  0.00000000E+00  0.00000000E+00  0.00000000E+00
  0.00000000E+00  0.00000000E+00  0.00000000E+00
  0.00000000E+00  0.00000000E+00  0.00000000E+00
  0.00000000E+00  0.00000000E+00  0.00000000E+00
  0.00000000E+00  0.00000000E+00  0.00000000E+00
  0.00000000E+00  0.00000000E+00  0.00000000E+00
  0.00000000E+00  0.00000000E+00  0.00000000E+00
  0.00000000E+00  0.00000000E+00  0.00000000E+00
  0.00000000E+00  0.00000000E+00  0.00000000E+00
  0.00000000E+00  0.00000000E+00  0.00000000E+00
  0.00000000E+00  0.00000000E+00  0.00000000E+00
  0.00000000E+00  0.00000000E+00  0.00000000E+00
  0.00000000E+00  0.00000000E+00  0.00000000E+00
  0.00000000E+00  0.00000000E+00  0.00000000E+00
  0.00000000E+00  0.00000000E+00  0.00000000E+00
  0.00000000E+00  0.00000000E+00  0.00000000E+00
  0.00000000E+00  0.00000000E+00  0.00000000E+00
  0.00000000E+00  0.00000000E+00  0.00000000E+00
  0.00000000E+00  0.00000000E+00  0.00000000E+00
  0.00000000E+00  0.00000000E+00  0.00000000E+00
