TiOF2 2x2x2 config 0001
   1.00000000000000     
     7.9126714706306611    0.0000000281496623    0.0000000901245158
     0.0000000297236633    7.8540252380391617   -0.0000487710191779
     0.0000000885328451   -0.0000593567857149    7.4668292845518129
   Ti   O    F 
     8     8    16
Direct
 -0.0000000100045607  0.0000305658294314 -0.0107275018272516
  0.0000000291818666  0.0002271119659390  0.5097408101888302
 -0.0000000094381084  0.5000501207611613  0.0002754575289197
 -0.0000000115009683  0.4998692433279978  0.4996787745380090
  0.4999999923706825  0.0010393758205809  0.0003718980339205
  0.5000000277627438 -0.0155755090704783  0.4997748564892560
  0.4999999927383225  0.4995701834237844  0.0000379170970425
  0.4999999046063718  0.5124295686470424  0.5000346009704159
  0.5000000050693421  0.7514605207620291  0.5001152532610676
 -0.0000000335074846 -0.0000969096530688  0.7503171254012446
 -0.0000000206543084  0.5001695359314002  0.2496024347012459
 -0.0000000102077309  0.5001639589870124  0.7505598375629774
  0.4999999847368030  0.0022269112007128  0.2459711413854186
  0.5000000396496350  0.0022074950087853  0.7542344680508902
  0.4999999797936724  0.4985473653680864  0.2466783358753679
  0.4999999687263507  0.4985371352167596  0.7533648828648957
  0.2412202930808881  0.0000207970068641  0.0046864461024224
  0.2398973933311017  0.0009902204259401  0.4952003786497435
  0.2457567278170786  0.5000581311408564 -0.0000610358175923
  0.2445494742945762  0.4988338876701538  0.5001115199154962
  0.7587796985585979  0.0000207578079248  0.0046864864692382
  0.7601026603539254  0.0009902477990175  0.4952002575906220
  0.7542432524629971  0.5000581555707037 -0.0000610383349870
  0.7554505030771542  0.4988338674173520  0.5001115558587312
 -0.0000000300361541  0.2445650594820060  0.0045475788278496
  0.0000000738717070  0.2447361657603973  0.4957184801236654
  0.0000000052960965  0.7555060884327415  0.0045357773037562
  0.0000000244165334  0.7554294367912124  0.4957482543881997
  0.5000000400208920  0.2493660111081928 -0.0000365425471943
  0.4999999956429682  0.2485454542116722  0.5000946075723465
  0.5000000109816807  0.7513012859737890 -0.0000422041145518
  0.0000000475073280 -0.0001122401259995  0.2495291858900048
 
  0.00000000E+00  0.00000000E+00  0.00000000E+00
  0.00000000E+00  0.00000000E+00  0.00000000E+00
  0.00000000E+00  0.00000000E+00  0.00000000E+00
  0.00000000E+00  0.00000000E+00  0.00000000E+00
  0.00000000E+00  0.00000000E+00  0.00000000E+00
  0.00000000E+00  0.00000000E+00  0.00000000E+00
  0.00000000E+00  0.00000000E+00  0.00000000E+00
  0.00000000E+00  0.00000000E+00  0.00000000E+00
  0.00000000E+00  0.00000000E+00  0.00000000E+00
  0.00000000E+00  0.00000000E+00  0.00000000E+00
  0.00000000E+00  0.00000000E+00  0.00000000E+00
  0.00000000E+00  0.00000000E+00  0.00000000E+00
  0.00000000E+00  0.00000000E+00  0.00000000E+00
  0.00000000E+00  0.00000000E+00  0.00000000E+00
  0.00000000E+00  0.00000000E+00  0.00000000E+00
  0.00000000E+00  0.00000000E+00  0.00000000E+00
  0.00000000E+00  0.00000000E+00  0.00000000E+00
  0.00000000E+00  0.00000000E+00  0.00000000E+00
  0.00000000E+00  0.00000000E+00  0.00000000E+00
  0.00000000E+00  0.00000000E+00  0.00000000E+00
  0.00000000E+00  0.00000000E+00  0.00000000E+00
  0.00000000E+00  0.00000000E+00  0.00000000E+00
  0.00000000E+00  0.00000000E+00  0.00000000E+00
  0.00000000E+00  0.00000000E+00  0.00000000E+00
  0.00000000E+00  0.00000000E+00  0.00000000E+00
  0.00000000E+00  0.00000000E+00  0.00000000E+00
  0.00000000E+00  0.00000000E+00  0.00000000E+00
  0.00000000E+00  0.00000000E+00  0.00000000E+00
  0.00000000E+00  0.00000000E+00  0.00000000E+00
  0.00000000E+00  0.00000000E+00  0.00000000E+00
  0.00000000E+00  0.00000000E+00  0.00000000E+00
  0.00000000E+00  0.00000000E+00  0.00000000E+00
