TiOF2 2x2x2 config 1619                 
   1.00000000000000     
     7.7615053194765613    0.0000069010771284    0.0000013027115064
     0.0000067648865584    7.6592587740117954    0.0044326926793829
     0.0000012987427625    0.0043441536775195    7.7583418711092582
   Ti   O    F 
     8     8    16
Direct
  0.0003596388290725  0.9873912792064682  0.9864656822479740
  0.0003595712476982  0.0126085340601695  0.5135342532023991
  0.9871990679445984  0.5127191857926223  0.0004221340461800
  0.9871991044092554  0.4872806518098292  0.4995778453298880
  0.4996404249999791  0.0126086717516197  0.0135343046414900
  0.4996404695455816  0.9873915124097171  0.4864657361694534
  0.5128009552097165  0.4872807640408162  0.9995778796939571
  0.5128008983533123  0.5127193853932898  0.5004221694880708
  0.7499999983416717  0.4999999776847234  0.0000000142550832
  0.7499999826085926  0.5000000709245618  0.4999999995403611
  0.0012832488829401  0.2500004416377272  0.4980610576652968
  0.0012834955871343  0.7499997339766802  0.0019389523154227
  0.4987166106160583  0.2500002224054318  0.9980610527500303
  0.4987166650898120  0.7499995881868574  0.5019389567769206
  0.9994593095911891  0.0000000392494845  0.7500000672144208
  0.5005407323838910  0.9999999812393734  0.2499999227722424
  0.2500000254220553  0.0000000344870905  0.9999999506840946
  0.2500000198122179  0.0000000841135925  0.5000000349294438
  0.2499999807099573  0.4999998570275854  0.9999999986490943
  0.2499999794516773  0.5000000454237872  0.5000000137404175
  0.7500000269099174  0.9999998823710819  0.0000000156068676
  0.7500000192492168  0.0000000291280040  0.4999999846017673
  0.0040068647210650  0.2498842244718617  0.0046068125301980
  0.0040067793122156  0.7501158875329172  0.4953931433282764
  0.4959932021398411  0.2498841669110916  0.5046068244317792
  0.4959929956151539  0.7501157149388775  0.9953931822667674
  0.9993704174552379  0.0000000628067550  0.2499999379270127
  0.0084560066249624  0.4999999060432059  0.2500000033544425
  0.0081814729643184  0.4999998941344732  0.7499999868730007
  0.5006296983395430 -0.0000000009894386  0.7500000532514270
  0.4918184168330729  0.5000001275250612  0.2500000240646396
  0.4915439207990303  0.5000000443046748  0.7500000056515737
 
  0.00000000E+00  0.00000000E+00  0.00000000E+00
  0.00000000E+00  0.00000000E+00  0.00000000E+00
  0.00000000E+00  0.00000000E+00  0.00000000E+00
  0.00000000E+00  0.00000000E+00  0.00000000E+00
  0.00000000E+00  0.00000000E+00  0.00000000E+00
  0.00000000E+00  0.00000000E+00  0.00000000E+00
  0.00000000E+00  0.00000000E+00  0.00000000E+00
  0.00000000E+00  0.00000000E+00  0.00000000E+00
  0.00000000E+00  0.00000000E+00  0.00000000E+00
  0.00000000E+00  0.00000000E+00  0.00000000E+00
  0.00000000E+00  0.00000000E+00  0.00000000E+00
  0.00000000E+00  0.00000000E+00  0.00000000E+00
  0.00000000E+00  0.00000000E+00  0.00000000E+00
  0.00000000E+00  0.00000000E+00  0.00000000E+00
  0.00000000E+00  0.00000000E+00  0.00000000E+00
  0.00000000E+00  0.00000000E+00  0.00000000E+00
  0.00000000E+00  0.00000000E+00  0.00000000E+00
  0.00000000E+00  0.00000000E+00  0.00000000E+00
  0.00000000E+00  0.00000000E+00  0.00000000E+00
  0.00000000E+00  0.00000000E+00  0.00000000E+00
  0.00000000E+00  0.00000000E+00  0.00000000E+00
  0.00000000E+00  0.00000000E+00  0.00000000E+00
  0.00000000E+00  0.00000000E+00  0.00000000E+00
  0.00000000E+00  0.00000000E+00  0.00000000E+00
  0.00000000E+00  0.00000000E+00  0.00000000E+00
  0.00000000E+00  0.00000000E+00  0.00000000E+00
  0.00000000E+00  0.00000000E+00  0.00000000E+00
  0.00000000E+00  0.00000000E+00  0.00000000E+00
  0.00000000E+00  0.00000000E+00  0.00000000E+00
  0.00000000E+00  0.00000000E+00  0.00000000E+00
  0.00000000E+00  0.00000000E+00  0.00000000E+00
  0.00000000E+00  0.00000000E+00  0.00000000E+00
