TiOF2 2x2x2 config 0472                 
   1.00000000000000     
     7.8877028107500582   -0.0014038983616982    0.0000043827484135
    -0.0014239495959910    7.7659114472132256    0.0000153535720683
     0.0000021436709830    0.0000156286082487    7.7033465243683832
   Ti   O    F 
     8     8    16
Direct
  0.0002723743211988  0.0000242019616081  0.9999999516175677
  0.0011841913137616  0.0001038318458697  0.4999998263718197
  0.0015850623881590  0.5000404790055910  0.9999999588288873
  0.9774175541688734  0.4996199737075671  0.5000001814008357
  0.5003608328279796  0.0000209806384035  0.9999989743614037
  0.5003975975728565  0.9881506672191662  0.5000011064853993
  0.5007901479295072  0.5000602667582541  0.0000003229760068
  0.4990279108524760  0.5096434548088595  0.5000010218574431
  0.7588948882497846  0.4987662971548232  0.5000018636044103
  0.5006646117174256  0.2509282208428800  0.0000010146852745
  0.5005843506960730  0.7492866793379847  0.0000007774246313
  0.4988149929140206  0.7502581900228620  0.4999992801595283
  0.5006413443762057  0.9979654686129820  0.2503204578065308
  0.5006362756517788  0.9979665669731119  0.7496792776338523
  0.4994078339696060  0.5017870058119343  0.2486112795943285
  0.4994047387389742  0.5017874639236979  0.7513886603925499
  0.2419413028235411  0.0002539895819638  0.0000046766632522
  0.2447857600627188  0.0030299224572516  0.4999970803322640
  0.2372697360249774  0.4999944367377864  0.0000028280454814
  0.2383303897291569  0.4980229438893886  0.4999982885116054
  0.7586221017877861  0.0002093978301616  0.9999955383409684
  0.7570072354192732  0.0035699125918711  0.5000027089527066
  0.7653462194526668  0.5000309458803613  0.9999971358464776
  0.0001979447006804  0.2582396665366815  0.0000001617529790
  0.0053921284870029  0.2545945938445726  0.4999997938953769
  0.0002725055041282  0.7418386222065649  0.9999994414567368
  0.0053374545161375  0.7452786817503636  0.4999994600769213
  0.4979632935574116  0.2490179278913658  0.4999993197100139
  0.9996093652404170  0.9995813277680696  0.2501780674204639
  0.9996180574627047  0.9995814362481710  0.7498218400036407
  0.0041079541148434  0.5001730088056178  0.2456266161533165
  0.0041138434278523  0.5001734373541922  0.7543730876373047
 
  0.00000000E+00  0.00000000E+00  0.00000000E+00
  0.00000000E+00  0.00000000E+00  0.00000000E+00
  0.00000000E+00  0.00000000E+00  0.00000000E+00
  0.00000000E+00  0.00000000E+00  0.00000000E+00
  0.00000000E+00  0.00000000E+00  0.00000000E+00
  0.00000000E+00  0.00000000E+00  0.00000000E+00
  0.00000000E+00  0.00000000E+00  0.00000000E+00
  0.00000000E+00  0.00000000E+00  0.00000000E+00
  0.00000000E+00  0.00000000E+00  0.00000000E+00
  0.00000000E+00  0.00000000E+00  0.00000000E+00
  0.00000000E+00  0.00000000E+00  0.00000000E+00
  0.00000000E+00  0.00000000E+00  0.00000000E+00
  0.00000000E+00  0.00000000E+00  0.00000000E+00
  0.00000000E+00  0.00000000E+00  0.00000000E+00
  0.00000000E+00  0.00000000E+00  0.00000000E+00
  0.00000000E+00  0.00000000E+00  0.00000000E+00
  0.00000000E+00  0.00000000E+00  0.00000000E+00
  0.00000000E+00  0.00000000E+00  0.00000000E+00
  0.00000000E+00  0.00000000E+00  0.00000000E+00
  0.00000000E+00  0.00000000E+00  0.00000000E+00
  0.00000000E+00  0.00000000E+00  0.00000000E+00
  0.00000000E+00  0.00000000E+00  0.00000000E+00
  0.00000000E+00  0.00000000E+00  0.00000000E+00
  0.00000000E+00  0.00000000E+00  0.00000000E+00
  0.00000000E+00  0.00000000E+00  0.00000000E+00
  0.00000000E+00  0.00000000E+00  0.00000000E+00
  0.00000000E+00  0.00000000E+00  0.00000000E+00
  0.00000000E+00  0.00000000E+00  0.00000000E+00
  0.00000000E+00  0.00000000E+00  0.00000000E+00
  0.00000000E+00  0.00000000E+00  0.00000000E+00
  0.00000000E+00  0.00000000E+00  0.00000000E+00
  0.00000000E+00  0.00000000E+00  0.00000000E+00
