TiOF2 2x2x2 config 0472                 
   1.00000000000000     
     7.8877028107500582   -0.0014038983616982    0.0000043827484135
    -0.0014239495959910    7.7659114472132256    0.0000153535720683
     0.0000021436709830    0.0000156286082487    7.7033465243683832
   Ti   O    F 
     8     8    16
Direct
  0.0002723743211957  0.0000242019616100 -0.0000000483824333
  0.0011841913137605  0.0001038318458690  0.4999998263718223
  0.0015850623881614  0.5000404790055941 -0.0000000411711097
 -0.0225824458311258  0.4996199737075666  0.5000001814008340
  0.5003608328279799  0.0000209806384065 -0.0000010256385989
  0.5003975975728584 -0.0118493327808361  0.5000011064853985
  0.5007901479295037  0.5000602667582549  0.0000003229760057
  0.4990279108524794  0.5096434548088564  0.5000010218574436
  0.7588948882497857  0.4987662971548228  0.5000018636044097
  0.5006646117174234  0.2509282208428803  0.0000010146852756
  0.5005843506960738  0.7492866793379853  0.0000007774246335
  0.4988149929140221  0.7502581900228651  0.4999992801595293
  0.5006413443762072 -0.0020345313870177  0.2503204578065330
  0.5006362756517823 -0.0020334330268858  0.7496792776338520
  0.4994078339696038  0.5017870058119351  0.2486112795943309
  0.4994047387389731  0.5017874639236971  0.7513886603925518
  0.2419413028235437  0.0002539895819673  0.0000046766632543
  0.2447857600627186  0.0030299224572532  0.4999970803322675
  0.2372697360249799  0.4999944367377890  0.0000028280454799
  0.2383303897291599  0.4980229438893902  0.4999982885116060
  0.7586221017877882  0.0002093978301620 -0.0000044616590283
  0.7570072354192763  0.0035699125918679  0.5000027089527039
  0.7653462194526682  0.5000309458803637 -0.0000028641535195
  0.0001979447006826  0.2582396665366840  0.0000001617529791
  0.0053921284870024  0.2545945938445752  0.4999997938953773
  0.0002725055041267  0.7418386222065620 -0.0000005585432608
  0.0053374545161378  0.7452786817503662  0.4999994600769194
  0.4979632935574109  0.2490179278913684  0.4999993197100130
 -0.0003906347595807 -0.0004186722319300  0.2501780674204651
 -0.0003819425372938 -0.0004185637518296  0.7498218400036442
  0.0041079541148436  0.5001730088056159  0.2456266161533154
  0.0041138434278520  0.5001734373541916  0.7543730876373048
 
  0.00000000E+00  0.00000000E+00  0.00000000E+00
  0.00000000E+00  0.00000000E+00  0.00000000E+00
  0.00000000E+00  0.00000000E+00  0.00000000E+00
  0.00000000E+00  0.00000000E+00  0.00000000E+00
  0.00000000E+00  0.00000000E+00  0.00000000E+00
  0.00000000E+00  0.00000000E+00  0.00000000E+00
  0.00000000E+00  0.00000000E+00  0.00000000E+00
  0.00000000E+00  0.00000000E+00  0.00000000E+00
  0.00000000E+00  0.00000000E+00  0.00000000E+00
  0.00000000E+00  0.00000000E+00  0.00000000E+00
  0.00000000E+00  0.00000000E+00  0.00000000E+00
  0.00000000E+00  0.00000000E+00  0.00000000E+00
  0.00000000E+00  0.00000000E+00  0.00000000E+00
  0.00000000E+00  0.00000000E+00  0.00000000E+00
  0.00000000E+00  0.00000000E+00  0.00000000E+00
  0.00000000E+00  0.00000000E+00  0.00000000E+00
  0.00000000E+00  0.00000000E+00  0.00000000E+00
  0.00000000E+00  0.00000000E+00  0.00000000E+00
  0.00000000E+00  0.00000000E+00  0.00000000E+00
  0.00000000E+00  0.00000000E+00  0.00000000E+00
  0.00000000E+00  0.00000000E+00  0.00000000E+00
  0.00000000E+00  0.00000000E+00  0.00000000E+00
  0.00000000E+00  0.00000000E+00  0.00000000E+00
  0.00000000E+00  0.00000000E+00  0.00000000E+00
  0.00000000E+00  0.00000000E+00  0.00000000E+00
  0.00000000E+00  0.00000000E+00  0.00000000E+00
  0.00000000E+00  0.00000000E+00  0.00000000E+00
  0.00000000E+00  0.00000000E+00  0.00000000E+00
  0.00000000E+00  0.00000000E+00  0.00000000E+00
  0.00000000E+00  0.00000000E+00  0.00000000E+00
  0.00000000E+00  0.00000000E+00  0.00000000E+00
  0.00000000E+00  0.00000000E+00  0.00000000E+00
