config 33                               
   1.00000000000000     
    15.4263309999999993    0.0000000000000000    0.0000000000000000
     0.0000000000000000   15.4263309999999993    0.0000000000000000
     0.0000000000000000    0.0000000000000000   15.4263309999999993
   Li   Ti   O    F 
     1    64    64   128
Direct
  0.6314002280145027  0.1369866864663442  0.1310299163743901
  0.9964502078380856  0.9938007116032319  0.9936041865385778
  0.9989793000651150  0.9915906165304424  0.4928050679872316
  0.0063987293458615  0.4951487724852719  0.9975909948800991
  0.9941038927894941  0.5037854415199151  0.5073384871015232
  0.4937325642025072  0.9924666021595607  0.9992119304301538
  0.5017266624843654  0.0098445170061793  0.4986177787142035
  0.5047132118588369  0.4943574881197341  0.9971306419783894
  0.4919765579872868  0.4997341433288559  0.4960304387947714
  0.0066197158173216  0.0028183359181323  0.2547447260724064
  0.0025138192351586  0.0074729553557827  0.7563164201884713
  0.9934381874669966  0.4920156935185127  0.2512959934836608
  0.9927398155823088  0.4997524040475327  0.7418020133993666
  0.5035134226404446  0.0116384909390906  0.2513949742187694
  0.4932584572205609  0.0059657702190673  0.7528931360040235
  0.4925284588058862  0.4965362608835277  0.2580320900356702
  0.5011358422983890  0.5039679419659301  0.7596777340006058
  0.9965774181405854  0.2571719496457122  0.0021513436312514
  0.9977112017325686  0.2482705772111092  0.4907280204995273
  0.9987277285491802  0.7571719792203564  0.0060462029947442
  0.9967227645352755  0.7568749735643561  0.5055594197826926
  0.4952868806873916  0.2576601627990520  0.0024877310835416
  0.5089276605429561  0.2470500475673993  0.4983297961314919
  0.5079131286878488  0.7557095146946022  0.9993166661392621
  0.5072295487570049  0.7535224842678366  0.5087829885831869
  0.9984991269496662  0.2579341450878165  0.2546750089826684
  0.0071063658181926  0.2430061294131339  0.7481518627635908
  0.0066188480201877  0.7469719073200923  0.2429092038254530
  0.9927362980922180  0.7504469949753312  0.7425547736092566
  0.5030218267864588  0.2445168017081748  0.2523758465133842
  0.5073953719576662  0.2438258124826141  0.7521546447717488
  0.5067532742684121  0.7516637449446155  0.2520995670880166
  0.5021456376070280  0.7417241553913696  0.7439542414575765
  0.2565404160700007  0.9969567812822542  0.0052380993776320
  0.2517666761217964  0.9934054576282667  0.5058883686624173
  0.2442245755118657  0.5076299381706275  0.9977010962610459
  0.2548747932457039  0.4942777803162590  0.5066868206734999
  0.7575132601454290  0.9980231731534381  0.9922983527731922
  0.7484303861958795  0.0076086712627024  0.4933992776887657
  0.7418780101294531  0.5017087218724408  0.0054425608729038
  0.7555399981527273  0.5001309786074849  0.5062009175786316
  0.2444535561412554  0.0019948482814720  0.2427564282519099
  0.2589361412720830  0.9981699280317147  0.7438842072797786
  0.2544789471762904  0.4904065757198698  0.2519187358743734
  0.2466486614779907  0.5059161678542203  0.7410652467932611
  0.7428418307509495  0.0017816932189923  0.2561123969805937
  0.7469430830795373  0.0061750259954869  0.7569104959068030
  0.7553827615240065  0.4994623114768771  0.2428449123847458
  0.7573314069594336  0.4999056807966898  0.7427870301107382
  0.2571994822043370  0.2509738156895815  0.0073493796071022
  0.2533006048341652  0.2567629989570656  0.5057192471279977
  0.2527430556564589  0.7416592866033387  0.9934831214653184
  0.2523708178891555  0.7552865842250783  0.4924951285623908
  0.7585318045747198  0.2486153757787203  0.0093715355058461
  0.7419195951367306  0.2440329958212265  0.4970754839436004
  0.7419448193781649  0.7500837513648556  0.9934373518918036
  0.7415862790679209  0.7546110545732191  0.4935402652031562
  0.2479361830840631  0.2571813654956258  0.2436650088228997
  0.2437388945434834  0.2520821273324166  0.7443440011009472
  0.2437214961144757  0.7464174226057049  0.2556345589572674
  0.2477424833493638  0.7416482930738132  0.7563568241815222
  0.7407552235814694  0.2465528451061161  0.2449602203683575
  0.7442653450992287  0.2430871810360884  0.7537485640900681
  0.7453144212255673  0.7512719937438059  0.2567548131930101
  0.7576434385295168  0.7521660083110590  0.7565852245825234
  0.0095095576388578  0.5034648519899617  0.6247026224237598
  0.0023725039455084  0.0036918899971252  0.3752170488770975
  0.0064575226430245  0.0001356636049633  0.8724633511221762
  0.4980505167457455  0.4882359877770336  0.3760960263615543
  0.4930149617568154  0.4907400551822219  0.8756818463852138
  0.0007300908080556  0.7440384392887203  0.1252813358519787
  0.0031093561490900  0.7448707993151354  0.6237043342230765
  0.5043906028711309  0.7452499011601997  0.6244957766436406
  0.9869344436080641  0.2484817106590971  0.3760974639066911
  0.2595684060343892  0.0004789279349796  0.1245180267672899
  0.2627183082816801  0.0030017303171229  0.6245684025285162
  0.2381946328880481  0.4941758059041476  0.6257852091513060
  0.7490032342697168  0.5065672845653832  0.1258673581669088
  0.7439005516819963  0.5044475159170879  0.6247442780738978
  0.7393618189084893  0.9902297784497502  0.3756494043932742
  0.7380090692125604  0.9878236248557631  0.8734619504673393
  0.2367374585276157  0.2491261140865564  0.1253998127788284
  0.2450040789103000  0.2506391117569682  0.6253193992120969
  0.7325234917979853  0.2266388266810300  0.1246299751703970
  0.2561758749316633  0.7452225401738370  0.3744059440694994
  0.2541458502079690  0.7509755664317083  0.8749562638756638
  0.7537103436150260  0.7618280962487709  0.3738195281588899
  0.7513527186543860  0.7619426404262040  0.8754902417699775
  0.1247444598307030  0.5083228917535498  0.9930440661635075
  0.6257530014703580  0.5110803300760051  0.9966036005184261
  0.1249109768487452  0.0100252370174966  0.2450281887731469
  0.6258058071509482  0.0229421301240961  0.2367927853233461
  0.6248824309447650  0.2637323860531966  0.4881431207459474
  0.6247106609693639  0.7363447647801736  0.9986556806596070
  0.6245571680898535  0.7677320854921601  0.4948134465863498
  0.1247829898818234  0.2556360698446302  0.7567167091031037
  0.1250734650282679  0.7412422441089184  0.2533580966377869
  0.6302902427531875  0.2284334252958657  0.2641105696491220
  0.6258799884711964  0.2563984743316570  0.7578457976719185
  0.6227989922395741  0.7427742330876197  0.2534534666321019
  0.3761391317167324  0.9917500954589359  0.9877814747164858
  0.3755926919289108  0.5102383656629969  0.5057949481730755
  0.8729631256274797  0.9924785782824552  0.9940890270384166
  0.8751428537386722  0.5102242062376611  0.5014037895725602
  0.3766087409321529  0.0003947576255341  0.7632761266756365
  0.3737208450372557  0.4869371938036798  0.2477450553612982
  0.8750391852202726  0.4875260273013614  0.2504253428846289
  0.8752824319714206  0.5113417421544237  0.7454272679425281
  0.3764467157592163  0.2523054741181623  0.0142973481654585
  0.8752615080227220  0.2539843138399829  0.0141282690989496
  0.8746298823607961  0.7416489384531122  0.7468724595715492
  0.5149178042321158  0.1235454074500263  0.4886155964665514
  0.0012878806396486  0.1261075883098494  0.7460548298295044
  0.4811611865952192  0.1221916466056267  0.2673936535226649
  0.5050662712528915  0.1243584889174378  0.7574215276027708
  0.5045120352697753  0.6255058419477135  0.7575171296830440
  0.0061468547292436  0.3747685638322077  0.0048673425515936
  0.0086307974613760  0.8740362740621260  0.0020892140213382
  0.9867118747669326  0.8749631768869254  0.4994785721809668
  0.5091152399581802  0.3729777389240784  0.0149456077481584
  0.5117286027966357  0.8749557398429522  0.0104419633271186
  0.0137956492414090  0.3732252253043163  0.2471147090272026
  0.2613004433349286  0.6245100077082616  0.0030427943940909
  0.7356902721862705  0.1257578956565894  0.4933294306648345
  0.2438776311008708  0.6245109835400281  0.7488547466389228
  0.7475694272499938  0.1249194330030834  0.7563340089933233
  0.2589339562228548  0.3730659038143280  0.4935032335620770
  0.2603187146052567  0.8756627917899368  0.4983415836671977
  0.2331691774638108  0.3738855067368790  0.2572583434425924
  0.9937816497873717  0.0028909652445904  0.1258544516107075
  0.9943954358930230  0.0003762745005845  0.6228648729513000
  0.0021139907184651  0.5084670504196550  0.1252220379439352
  0.4880921251041515  0.0146090187162372  0.1253553988708220
  0.4881009743489643  0.0073783176853481  0.6227057128492081
  0.5028736348662812  0.5125709281158582  0.1280175178108879
  0.5093522302504071  0.5072531119761635  0.6252373923551159
  0.0006505199047092  0.4955522118171167  0.3761955186431147
  0.9936271196575640  0.4964144819508862  0.8729315531696104
  0.5158741377132864  0.9830595702526320  0.3766827885525695
  0.5216477481778047  0.9897807429371784  0.8749881604233170
  0.0152497756636617  0.2431931711723942  0.1272987129538173
  0.0066655166465542  0.2554804860280127  0.6212906646618139
  0.5268788527184552  0.2211327597281277  0.1225815137501913
  0.5084620230820979  0.2398748870695737  0.6239420901268745
  0.4985633637038646  0.7394670163439724  0.1268384076715502
  0.9884161358850961  0.2520875366643638  0.8746405483595132
  0.9923631729551942  0.7506041297281341  0.3747115917823602
  0.9982559649025264  0.7513833622700891  0.8736749948616290
  0.4837177784671005  0.2696303354542786  0.3797467888777111
  0.4902850896336742  0.2613771994464485  0.8755143876212860
  0.4911930540840764  0.7624029108263313  0.3755766108132911
  0.4951341718652871  0.7604532140893476  0.8740972905364607
  0.2422768784237712  0.4932096307630789  0.1248980903553361
  0.7547872942554561  0.0193986474539593  0.1250352736535497
  0.7548793639004200  0.0055077617979209  0.6228441876597186
  0.2456403336297538  0.0020181786765947  0.3749107863172845
  0.2386240590483814  0.9957754840809864  0.8737612930375748
  0.2493289553209259  0.5112804027124843  0.3753054793141811
  0.2607237184514615  0.4986065901371569  0.8737351627186245
  0.7481078344845996  0.4941641666108808  0.3749524490503267
  0.7542882917680761  0.4940123682691597  0.8749589893770476
  0.2495518592053509  0.7545327099720688  0.1247020858442272
  0.2467940146534257  0.7518107735645633  0.6245823537605287
  0.7429379364473813  0.2494411210901975  0.6240440045894141
  0.7498583679076998  0.7406063450691588  0.1256307643964250
  0.7449966628359030  0.7431138820265720  0.6240889482960861
  0.2588247908073391  0.2425112294151879  0.3745181427865963
  0.2598467007699525  0.2495534137258184  0.8757472317134243
  0.7687206979958477  0.2583131363729956  0.3748638094812816
  0.7611598243531780  0.2593206653574984  0.8772289939381998
  0.1263349790751943  0.0073199165729017  0.0066668801733709
  0.1249224513678246  0.9925447849236997  0.5070523215904602
  0.1232543903670532  0.4920731107634478  0.4908813001201455
  0.6249430731032997  0.0161749043721832  0.0184301523578555
  0.6235274658590849  0.9817010947195808  0.5138672271892658
  0.6255715074551417  0.4891119324203158  0.4970108771557649
  0.1272518755327844  0.9958462326248273  0.7390163013758310
  0.1234226303920220  0.5140734373964287  0.2517376978972566
  0.1232350362559831  0.4899496706825290  0.7637731654700801
  0.6234845168666278  0.9933674299525981  0.7329568769375626
  0.6250749372619727  0.5107920713755568  0.2531560545126764
  0.6267287555962561  0.4909801876539361  0.7577032534839586
  0.1251670566694248  0.2436417302894595  0.9880136945567629
  0.1231293723240692  0.2559104163747620  0.4902005437778278
  0.1251744251496338  0.7377750662655395  0.9974135074081496
  0.1239921967009715  0.7597758115914792  0.4938407821883604
  0.6265758886394817  0.2397305323365022  0.9869254156304935
  0.1227852763263730  0.2300552565582560  0.2635558491649063
  0.1232225704379830  0.7580781481503341  0.7532215398367130
  0.6262708428148308  0.7578158439550938  0.7533420727374822
  0.3782597920478646  0.0134254083822039  0.4846410008446698
  0.3737166212183285  0.4899861918743352  0.0093572021585241
  0.8737190318324073  0.0162575249304026  0.4961311380203685
  0.8745270509676302  0.4919158461008404  0.0014648147234424
  0.3765782795149867  0.9843755271748034  0.2604805469854253
  0.3748550975526702  0.5023751224772125  0.7399491214218055
  0.8724277870684854  0.9876394181125319  0.2519540152419842
  0.8739092546142680  0.9979061381822489  0.7515770628600877
  0.3790436080825709  0.2357495029491089  0.5083731030386033
  0.3768186509919789  0.7624622054498952  0.0043487504243621
  0.3774538729067615  0.7382193646394681  0.5038009981367548
  0.8740873299416926  0.2395441353291946  0.5119831976207799
  0.8719809464289899  0.7613201510140732  0.0025068757515292
  0.8720061501373639  0.7359495081861230  0.5040595498644589
  0.3726737704489905  0.2649604325674487  0.2372366997199956
  0.3767155995904350  0.2465064387751472  0.7441438268513466
  0.3769100812877480  0.7582315626726185  0.2451564660720646
  0.3750747637917195  0.7509655152667284  0.7456132802839393
  0.8747262280396257  0.2638900477790300  0.2348652975215622
  0.8743870721827897  0.2501589329180106  0.7408541502714614
  0.8730581906609084  0.7597402557672678  0.2460602519930146
  0.9970304817781953  0.1260042642297383  0.9993485978624378
  0.0086873238405819  0.1254863888239372  0.5055274755623197
  0.9881379439741812  0.6247382861668419  0.9936917038772578
  0.0108202245780816  0.6268668961067536  0.4913926685261658
  0.4978561859405656  0.1231691892810451  0.9876618279958551
  0.4860220129713690  0.6270305805986111  0.9942796003993607
  0.5130094802206721  0.6273667936616619  0.4893053399641429
  0.9832219173323803  0.1267901313332697  0.2475344886046344
  0.9875634448774339  0.6227414632962340  0.2569565165420663
  0.0135780331680632  0.6247725392774957  0.7565659274217281
  0.4894159972919885  0.6265781699837042  0.2620912971662570
  0.9910647541783397  0.3740197379049924  0.5004945254342925
  0.4886954334248257  0.3725979212846060  0.5162003382205378
  0.4839904063898798  0.8792408301360153  0.5068242856223297
  0.9918705265971051  0.3747242617722872  0.7484491358817594
  0.0054821595460765  0.8752205256128560  0.2491400289544510
  0.9962983843546083  0.8757259645725115  0.7451204573982199
  0.5168020347317448  0.3735844691464617  0.2357802704078441
  0.4948147172968781  0.3738038244795674  0.7386579279035774
  0.5096688577700731  0.8763068535724059  0.2393765776683127
  0.4993906757760521  0.8759595631977568  0.7439649268230887
  0.2535001088733735  0.1237601964516011  0.9943042504162199
  0.2417957803035226  0.1240946684557779  0.4976046536967365
  0.2393085248650902  0.6265138047409338  0.5050440354043331
  0.7539833543910299  0.1247949769926554  0.9831116383591931
  0.7659211143989211  0.6259944396307559  0.9916167062510691
  0.7366760402143669  0.6268120685323962  0.4917677285131454
  0.2655212491424697  0.1254955856097072  0.2514474881399946
  0.2471157320251556  0.1244922506037594  0.7557608526299676
  0.2602295985683561  0.6227530987324398  0.2406155497268323
  0.7744880423919774  0.1247514750634797  0.2647702631880088
  0.7599990278051175  0.6259371789652778  0.2593007051330086
  0.7371879211843915  0.6258672574821699  0.7575324984334358
  0.2439495576706870  0.3753302585972012  0.9963926958920560
  0.2384811644261430  0.8730287174299172  0.0011191413997287
  0.7401275019231567  0.3734730072064916  0.0084211870193676
  0.7626812462371960  0.3731381069228410  0.5033079245096618
  0.7356394324706736  0.8753535050811000  0.0175631321850505
  0.7664483623772231  0.8775600406887120  0.5103201930698292
  0.2581892046022809  0.3760311738250019  0.7571193930461918
  0.2433844378676201  0.8747279891817940  0.2518855736228949
  0.2511378682390933  0.8735430228017786  0.7467996208366616
  0.7351632408800088  0.3728880082035118  0.2438112010907501
  0.7580274236758794  0.3744896991934898  0.7462740453707142
  0.7377846179600256  0.8769003005328095  0.2336745003664859
  0.7537678614746204  0.8757794278701507  0.7357671370986135
 
  0.00000000E+00  0.00000000E+00  0.00000000E+00
  0.00000000E+00  0.00000000E+00  0.00000000E+00
  0.00000000E+00  0.00000000E+00  0.00000000E+00
  0.00000000E+00  0.00000000E+00  0.00000000E+00
  0.00000000E+00  0.00000000E+00  0.00000000E+00
  0.00000000E+00  0.00000000E+00  0.00000000E+00
  0.00000000E+00  0.00000000E+00  0.00000000E+00
  0.00000000E+00  0.00000000E+00  0.00000000E+00
  0.00000000E+00  0.00000000E+00  0.00000000E+00
  0.00000000E+00  0.00000000E+00  0.00000000E+00
  0.00000000E+00  0.00000000E+00  0.00000000E+00
  0.00000000E+00  0.00000000E+00  0.00000000E+00
  0.00000000E+00  0.00000000E+00  0.00000000E+00
  0.00000000E+00  0.00000000E+00  0.00000000E+00
  0.00000000E+00  0.00000000E+00  0.00000000E+00
  0.00000000E+00  0.00000000E+00  0.00000000E+00
  0.00000000E+00  0.00000000E+00  0.00000000E+00
  0.00000000E+00  0.00000000E+00  0.00000000E+00
  0.00000000E+00  0.00000000E+00  0.00000000E+00
  0.00000000E+00  0.00000000E+00  0.00000000E+00
  0.00000000E+00  0.00000000E+00  0.00000000E+00
  0.00000000E+00  0.00000000E+00  0.00000000E+00
  0.00000000E+00  0.00000000E+00  0.00000000E+00
  0.00000000E+00  0.00000000E+00  0.00000000E+00
  0.00000000E+00  0.00000000E+00  0.00000000E+00
  0.00000000E+00  0.00000000E+00  0.00000000E+00
  0.00000000E+00  0.00000000E+00  0.00000000E+00
  0.00000000E+00  0.00000000E+00  0.00000000E+00
  0.00000000E+00  0.00000000E+00  0.00000000E+00
  0.00000000E+00  0.00000000E+00  0.00000000E+00
  0.00000000E+00  0.00000000E+00  0.00000000E+00
  0.00000000E+00  0.00000000E+00  0.00000000E+00
  0.00000000E+00  0.00000000E+00  0.00000000E+00
  0.00000000E+00  0.00000000E+00  0.00000000E+00
  0.00000000E+00  0.00000000E+00  0.00000000E+00
  0.00000000E+00  0.00000000E+00  0.00000000E+00
  0.00000000E+00  0.00000000E+00  0.00000000E+00
  0.00000000E+00  0.00000000E+00  0.00000000E+00
  0.00000000E+00  0.00000000E+00  0.00000000E+00
  0.00000000E+00  0.00000000E+00  0.00000000E+00
  0.00000000E+00  0.00000000E+00  0.00000000E+00
  0.00000000E+00  0.00000000E+00  0.00000000E+00
  0.00000000E+00  0.00000000E+00  0.00000000E+00
  0.00000000E+00  0.00000000E+00  0.00000000E+00
  0.00000000E+00  0.00000000E+00  0.00000000E+00
  0.00000000E+00  0.00000000E+00  0.00000000E+00
  0.00000000E+00  0.00000000E+00  0.00000000E+00
  0.00000000E+00  0.00000000E+00  0.00000000E+00
  0.00000000E+00  0.00000000E+00  0.00000000E+00
  0.00000000E+00  0.00000000E+00  0.00000000E+00
  0.00000000E+00  0.00000000E+00  0.00000000E+00
  0.00000000E+00  0.00000000E+00  0.00000000E+00
  0.00000000E+00  0.00000000E+00  0.00000000E+00
  0.00000000E+00  0.00000000E+00  0.00000000E+00
  0.00000000E+00  0.00000000E+00  0.00000000E+00
  0.00000000E+00  0.00000000E+00  0.00000000E+00
  0.00000000E+00  0.00000000E+00  0.00000000E+00
  0.00000000E+00  0.00000000E+00  0.00000000E+00
  0.00000000E+00  0.00000000E+00  0.00000000E+00
  0.00000000E+00  0.00000000E+00  0.00000000E+00
  0.00000000E+00  0.00000000E+00  0.00000000E+00
  0.00000000E+00  0.00000000E+00  0.00000000E+00
  0.00000000E+00  0.00000000E+00  0.00000000E+00
  0.00000000E+00  0.00000000E+00  0.00000000E+00
  0.00000000E+00  0.00000000E+00  0.00000000E+00
  0.00000000E+00  0.00000000E+00  0.00000000E+00
  0.00000000E+00  0.00000000E+00  0.00000000E+00
  0.00000000E+00  0.00000000E+00  0.00000000E+00
  0.00000000E+00  0.00000000E+00  0.00000000E+00
  0.00000000E+00  0.00000000E+00  0.00000000E+00
  0.00000000E+00  0.00000000E+00  0.00000000E+00
  0.00000000E+00  0.00000000E+00  0.00000000E+00
  0.00000000E+00  0.00000000E+00  0.00000000E+00
  0.00000000E+00  0.00000000E+00  0.00000000E+00
  0.00000000E+00  0.00000000E+00  0.00000000E+00
  0.00000000E+00  0.00000000E+00  0.00000000E+00
  0.00000000E+00  0.00000000E+00  0.00000000E+00
  0.00000000E+00  0.00000000E+00  0.00000000E+00
  0.00000000E+00  0.00000000E+00  0.00000000E+00
  0.00000000E+00  0.00000000E+00  0.00000000E+00
  0.00000000E+00  0.00000000E+00  0.00000000E+00
  0.00000000E+00  0.00000000E+00  0.00000000E+00
  0.00000000E+00  0.00000000E+00  0.00000000E+00
  0.00000000E+00  0.00000000E+00  0.00000000E+00
  0.00000000E+00  0.00000000E+00  0.00000000E+00
  0.00000000E+00  0.00000000E+00  0.00000000E+00
  0.00000000E+00  0.00000000E+00  0.00000000E+00
  0.00000000E+00  0.00000000E+00  0.00000000E+00
  0.00000000E+00  0.00000000E+00  0.00000000E+00
  0.00000000E+00  0.00000000E+00  0.00000000E+00
  0.00000000E+00  0.00000000E+00  0.00000000E+00
  0.00000000E+00  0.00000000E+00  0.00000000E+00
  0.00000000E+00  0.00000000E+00  0.00000000E+00
  0.00000000E+00  0.00000000E+00  0.00000000E+00
  0.00000000E+00  0.00000000E+00  0.00000000E+00
  0.00000000E+00  0.00000000E+00  0.00000000E+00
  0.00000000E+00  0.00000000E+00  0.00000000E+00
  0.00000000E+00  0.00000000E+00  0.00000000E+00
  0.00000000E+00  0.00000000E+00  0.00000000E+00
  0.00000000E+00  0.00000000E+00  0.00000000E+00
  0.00000000E+00  0.00000000E+00  0.00000000E+00
  0.00000000E+00  0.00000000E+00  0.00000000E+00
  0.00000000E+00  0.00000000E+00  0.00000000E+00
  0.00000000E+00  0.00000000E+00  0.00000000E+00
  0.00000000E+00  0.00000000E+00  0.00000000E+00
  0.00000000E+00  0.00000000E+00  0.00000000E+00
  0.00000000E+00  0.00000000E+00  0.00000000E+00
  0.00000000E+00  0.00000000E+00  0.00000000E+00
  0.00000000E+00  0.00000000E+00  0.00000000E+00
  0.00000000E+00  0.00000000E+00  0.00000000E+00
  0.00000000E+00  0.00000000E+00  0.00000000E+00
  0.00000000E+00  0.00000000E+00  0.00000000E+00
  0.00000000E+00  0.00000000E+00  0.00000000E+00
  0.00000000E+00  0.00000000E+00  0.00000000E+00
  0.00000000E+00  0.00000000E+00  0.00000000E+00
  0.00000000E+00  0.00000000E+00  0.00000000E+00
  0.00000000E+00  0.00000000E+00  0.00000000E+00
  0.00000000E+00  0.00000000E+00  0.00000000E+00
  0.00000000E+00  0.00000000E+00  0.00000000E+00
  0.00000000E+00  0.00000000E+00  0.00000000E+00
  0.00000000E+00  0.00000000E+00  0.00000000E+00
  0.00000000E+00  0.00000000E+00  0.00000000E+00
  0.00000000E+00  0.00000000E+00  0.00000000E+00
  0.00000000E+00  0.00000000E+00  0.00000000E+00
  0.00000000E+00  0.00000000E+00  0.00000000E+00
  0.00000000E+00  0.00000000E+00  0.00000000E+00
  0.00000000E+00  0.00000000E+00  0.00000000E+00
  0.00000000E+00  0.00000000E+00  0.00000000E+00
  0.00000000E+00  0.00000000E+00  0.00000000E+00
  0.00000000E+00  0.00000000E+00  0.00000000E+00
  0.00000000E+00  0.00000000E+00  0.00000000E+00
  0.00000000E+00  0.00000000E+00  0.00000000E+00
  0.00000000E+00  0.00000000E+00  0.00000000E+00
  0.00000000E+00  0.00000000E+00  0.00000000E+00
  0.00000000E+00  0.00000000E+00  0.00000000E+00
  0.00000000E+00  0.00000000E+00  0.00000000E+00
  0.00000000E+00  0.00000000E+00  0.00000000E+00
  0.00000000E+00  0.00000000E+00  0.00000000E+00
  0.00000000E+00  0.00000000E+00  0.00000000E+00
  0.00000000E+00  0.00000000E+00  0.00000000E+00
  0.00000000E+00  0.00000000E+00  0.00000000E+00
  0.00000000E+00  0.00000000E+00  0.00000000E+00
  0.00000000E+00  0.00000000E+00  0.00000000E+00
  0.00000000E+00  0.00000000E+00  0.00000000E+00
  0.00000000E+00  0.00000000E+00  0.00000000E+00
  0.00000000E+00  0.00000000E+00  0.00000000E+00
  0.00000000E+00  0.00000000E+00  0.00000000E+00
  0.00000000E+00  0.00000000E+00  0.00000000E+00
  0.00000000E+00  0.00000000E+00  0.00000000E+00
  0.00000000E+00  0.00000000E+00  0.00000000E+00
  0.00000000E+00  0.00000000E+00  0.00000000E+00
  0.00000000E+00  0.00000000E+00  0.00000000E+00
  0.00000000E+00  0.00000000E+00  0.00000000E+00
  0.00000000E+00  0.00000000E+00  0.00000000E+00
  0.00000000E+00  0.00000000E+00  0.00000000E+00
  0.00000000E+00  0.00000000E+00  0.00000000E+00
  0.00000000E+00  0.00000000E+00  0.00000000E+00
  0.00000000E+00  0.00000000E+00  0.00000000E+00
  0.00000000E+00  0.00000000E+00  0.00000000E+00
  0.00000000E+00  0.00000000E+00  0.00000000E+00
  0.00000000E+00  0.00000000E+00  0.00000000E+00
  0.00000000E+00  0.00000000E+00  0.00000000E+00
  0.00000000E+00  0.00000000E+00  0.00000000E+00
  0.00000000E+00  0.00000000E+00  0.00000000E+00
  0.00000000E+00  0.00000000E+00  0.00000000E+00
  0.00000000E+00  0.00000000E+00  0.00000000E+00
  0.00000000E+00  0.00000000E+00  0.00000000E+00
  0.00000000E+00  0.00000000E+00  0.00000000E+00
  0.00000000E+00  0.00000000E+00  0.00000000E+00
  0.00000000E+00  0.00000000E+00  0.00000000E+00
  0.00000000E+00  0.00000000E+00  0.00000000E+00
  0.00000000E+00  0.00000000E+00  0.00000000E+00
  0.00000000E+00  0.00000000E+00  0.00000000E+00
  0.00000000E+00  0.00000000E+00  0.00000000E+00
  0.00000000E+00  0.00000000E+00  0.00000000E+00
  0.00000000E+00  0.00000000E+00  0.00000000E+00
  0.00000000E+00  0.00000000E+00  0.00000000E+00
  0.00000000E+00  0.00000000E+00  0.00000000E+00
  0.00000000E+00  0.00000000E+00  0.00000000E+00
  0.00000000E+00  0.00000000E+00  0.00000000E+00
  0.00000000E+00  0.00000000E+00  0.00000000E+00
  0.00000000E+00  0.00000000E+00  0.00000000E+00
  0.00000000E+00  0.00000000E+00  0.00000000E+00
  0.00000000E+00  0.00000000E+00  0.00000000E+00
  0.00000000E+00  0.00000000E+00  0.00000000E+00
  0.00000000E+00  0.00000000E+00  0.00000000E+00
  0.00000000E+00  0.00000000E+00  0.00000000E+00
  0.00000000E+00  0.00000000E+00  0.00000000E+00
  0.00000000E+00  0.00000000E+00  0.00000000E+00
  0.00000000E+00  0.00000000E+00  0.00000000E+00
  0.00000000E+00  0.00000000E+00  0.00000000E+00
  0.00000000E+00  0.00000000E+00  0.00000000E+00
  0.00000000E+00  0.00000000E+00  0.00000000E+00
  0.00000000E+00  0.00000000E+00  0.00000000E+00
  0.00000000E+00  0.00000000E+00  0.00000000E+00
  0.00000000E+00  0.00000000E+00  0.00000000E+00
  0.00000000E+00  0.00000000E+00  0.00000000E+00
  0.00000000E+00  0.00000000E+00  0.00000000E+00
  0.00000000E+00  0.00000000E+00  0.00000000E+00
  0.00000000E+00  0.00000000E+00  0.00000000E+00
  0.00000000E+00  0.00000000E+00  0.00000000E+00
  0.00000000E+00  0.00000000E+00  0.00000000E+00
  0.00000000E+00  0.00000000E+00  0.00000000E+00
  0.00000000E+00  0.00000000E+00  0.00000000E+00
  0.00000000E+00  0.00000000E+00  0.00000000E+00
  0.00000000E+00  0.00000000E+00  0.00000000E+00
  0.00000000E+00  0.00000000E+00  0.00000000E+00
  0.00000000E+00  0.00000000E+00  0.00000000E+00
  0.00000000E+00  0.00000000E+00  0.00000000E+00
  0.00000000E+00  0.00000000E+00  0.00000000E+00
  0.00000000E+00  0.00000000E+00  0.00000000E+00
  0.00000000E+00  0.00000000E+00  0.00000000E+00
  0.00000000E+00  0.00000000E+00  0.00000000E+00
  0.00000000E+00  0.00000000E+00  0.00000000E+00
  0.00000000E+00  0.00000000E+00  0.00000000E+00
  0.00000000E+00  0.00000000E+00  0.00000000E+00
  0.00000000E+00  0.00000000E+00  0.00000000E+00
  0.00000000E+00  0.00000000E+00  0.00000000E+00
  0.00000000E+00  0.00000000E+00  0.00000000E+00
  0.00000000E+00  0.00000000E+00  0.00000000E+00
  0.00000000E+00  0.00000000E+00  0.00000000E+00
  0.00000000E+00  0.00000000E+00  0.00000000E+00
  0.00000000E+00  0.00000000E+00  0.00000000E+00
  0.00000000E+00  0.00000000E+00  0.00000000E+00
  0.00000000E+00  0.00000000E+00  0.00000000E+00
  0.00000000E+00  0.00000000E+00  0.00000000E+00
  0.00000000E+00  0.00000000E+00  0.00000000E+00
  0.00000000E+00  0.00000000E+00  0.00000000E+00
  0.00000000E+00  0.00000000E+00  0.00000000E+00
  0.00000000E+00  0.00000000E+00  0.00000000E+00
  0.00000000E+00  0.00000000E+00  0.00000000E+00
  0.00000000E+00  0.00000000E+00  0.00000000E+00
  0.00000000E+00  0.00000000E+00  0.00000000E+00
  0.00000000E+00  0.00000000E+00  0.00000000E+00
  0.00000000E+00  0.00000000E+00  0.00000000E+00
  0.00000000E+00  0.00000000E+00  0.00000000E+00
  0.00000000E+00  0.00000000E+00  0.00000000E+00
  0.00000000E+00  0.00000000E+00  0.00000000E+00
  0.00000000E+00  0.00000000E+00  0.00000000E+00
  0.00000000E+00  0.00000000E+00  0.00000000E+00
  0.00000000E+00  0.00000000E+00  0.00000000E+00
  0.00000000E+00  0.00000000E+00  0.00000000E+00
  0.00000000E+00  0.00000000E+00  0.00000000E+00
  0.00000000E+00  0.00000000E+00  0.00000000E+00
  0.00000000E+00  0.00000000E+00  0.00000000E+00
  0.00000000E+00  0.00000000E+00  0.00000000E+00
  0.00000000E+00  0.00000000E+00  0.00000000E+00
  0.00000000E+00  0.00000000E+00  0.00000000E+00
  0.00000000E+00  0.00000000E+00  0.00000000E+00
  0.00000000E+00  0.00000000E+00  0.00000000E+00
  0.00000000E+00  0.00000000E+00  0.00000000E+00
  0.00000000E+00  0.00000000E+00  0.00000000E+00
  0.00000000E+00  0.00000000E+00  0.00000000E+00
  0.00000000E+00  0.00000000E+00  0.00000000E+00
  0.00000000E+00  0.00000000E+00  0.00000000E+00
  0.00000000E+00  0.00000000E+00  0.00000000E+00
  0.00000000E+00  0.00000000E+00  0.00000000E+00
