TiOF2 2x2x2 config 0472                 
   1.00000000000000     
     7.8931445442119461   -0.0014641266116316    0.0000042267462863
    -0.0014831079142500    7.7725248419555388   -0.0000051007827450
     0.0000019935078754   -0.0000046200355874    7.6904673516404216
   Ti   O    F 
     8     8    16
Direct
  0.0004008810420784  0.0000009660118525  0.9999999637782276
  0.0012350061634038  0.0001414156526455  0.4999999300457127
  0.0016418129061328  0.5000278918665810  0.9999998083940217
  0.9774055979859483  0.4996645364273890  0.5000001181251125
  0.5004911731445605  0.0023659376739131  0.9999998671921669
  0.5004393433057661  0.9871689352402173  0.4999999002935344
  0.5007838512288623  0.4976735063750077  0.0000003732438570
  0.4983647800817760  0.5105033642778890  0.5000015910573740
  0.7596086824155268  0.4988987085583965  0.5000019324005676
  0.5008699135098098  0.2506249069430058  0.0000011849385108
  0.5007594767491464  0.7493062274995806  0.0000006594267559
  0.4985939825105123  0.7503262982240045  0.4999994863633372
  0.5008473134951124  0.9978160180561594  0.2502609154022438
  0.5008419920500184  0.9978157161514327  0.7497409418214993
  0.4993241451284314  0.5020869358996799  0.2485640619880699
  0.4993207585466641  0.5020862901516429  0.7514333094300353
  0.2409228397108421  0.0004226190114343  0.0000045802733424
  0.2430507191978708  0.0029613280426844  0.4999972614550050
  0.2367580376781235  0.4997975472261846  0.0000026144512834
  0.2371073260179677  0.4980898433665682  0.4999983265162199
  0.7599166083506361  0.0003746779836990  0.9999949896476272
  0.7588692621605116  0.0034773964123760  0.5000025166317889
  0.7659660149297030  0.4998482155989881  0.9999973011735102
  0.0003348260333997  0.2578670372344710 -0.0000000062140960
  0.0050991895296505  0.2533109641063774  0.4999999339748131
  0.0004273497779578  0.7421964370206958  0.9999996537774438
  0.0050545460009584  0.7466581286143950  0.4999997276116722
  0.4977543200669154  0.2489358068325761  0.4999993468286563
  0.9996993371647571  0.9995597420589332  0.2507972098315114
  0.9997102187510086  0.9995603985216008  0.7492026936043411
  0.0041973826987102  0.5002162252830700  0.2456309358768565
  0.0042033116672151  0.5002159776765270  0.7543688706589762
 
  0.00000000E+00  0.00000000E+00  0.00000000E+00
  0.00000000E+00  0.00000000E+00  0.00000000E+00
  0.00000000E+00  0.00000000E+00  0.00000000E+00
  0.00000000E+00  0.00000000E+00  0.00000000E+00
  0.00000000E+00  0.00000000E+00  0.00000000E+00
  0.00000000E+00  0.00000000E+00  0.00000000E+00
  0.00000000E+00  0.00000000E+00  0.00000000E+00
  0.00000000E+00  0.00000000E+00  0.00000000E+00
  0.00000000E+00  0.00000000E+00  0.00000000E+00
  0.00000000E+00  0.00000000E+00  0.00000000E+00
  0.00000000E+00  0.00000000E+00  0.00000000E+00
  0.00000000E+00  0.00000000E+00  0.00000000E+00
  0.00000000E+00  0.00000000E+00  0.00000000E+00
  0.00000000E+00  0.00000000E+00  0.00000000E+00
  0.00000000E+00  0.00000000E+00  0.00000000E+00
  0.00000000E+00  0.00000000E+00  0.00000000E+00
  0.00000000E+00  0.00000000E+00  0.00000000E+00
  0.00000000E+00  0.00000000E+00  0.00000000E+00
  0.00000000E+00  0.00000000E+00  0.00000000E+00
  0.00000000E+00  0.00000000E+00  0.00000000E+00
  0.00000000E+00  0.00000000E+00  0.00000000E+00
  0.00000000E+00  0.00000000E+00  0.00000000E+00
  0.00000000E+00  0.00000000E+00  0.00000000E+00
  0.00000000E+00  0.00000000E+00  0.00000000E+00
  0.00000000E+00  0.00000000E+00  0.00000000E+00
  0.00000000E+00  0.00000000E+00  0.00000000E+00
  0.00000000E+00  0.00000000E+00  0.00000000E+00
  0.00000000E+00  0.00000000E+00  0.00000000E+00
  0.00000000E+00  0.00000000E+00  0.00000000E+00
  0.00000000E+00  0.00000000E+00  0.00000000E+00
  0.00000000E+00  0.00000000E+00  0.00000000E+00
  0.00000000E+00  0.00000000E+00  0.00000000E+00
