config 45                               
   1.00000000000000     
    15.4263309999999993    0.0000000000000000    0.0000000000000000
     0.0000000000000000   15.4263309999999993    0.0000000000000000
     0.0000000000000000    0.0000000000000000   15.4263309999999993
   Li   Ti   O    F 
     1    64    64   128
Direct
  0.6222686203861147  0.8326033502023517  0.1177786042237873
  0.9960004830659535  0.9957459073308937  0.9943405675891204
  0.0006040764915851  0.9921904123664206  0.4933758752342942
  0.0058437539006848  0.4956309349599491  0.9977252668640447
  0.9936288607120651  0.5023071331090938  0.5070643540281703
  0.4940067164910326  0.9944466101918962  0.0014370181054330
  0.5001066513220143  0.0076895256267925  0.4996799407516693
  0.5043897565928630  0.4940084946816388  0.9964550261862504
  0.4917367637883635  0.4976165673439438  0.4953468957766421
  0.0074415090235096  0.0033891412197875  0.2559542382854185
  0.0014191698722401  0.0078720239496377  0.7566615446772063
  0.9936827226705324  0.4948782092654758  0.2516239246243877
  0.9922894072632402  0.4989213758070401  0.7421361925931551
  0.5068772263795375  0.0084676624814644  0.2509237643397194
  0.4926544072575216  0.0045963610776755  0.7533342350922485
  0.4939158589165799  0.4969587810944555  0.2581560037945429
  0.5006058767371543  0.5040029184824251  0.7589166545269003
  0.9957632006383972  0.2575141845220189  0.0010281110894169
  0.9988122373659359  0.2481973448732793  0.4913365277995475
  0.9984701763337137  0.7583578272680371  0.0057506691791673
  0.9974002713176672  0.7570127783366813  0.5054910368187718
  0.4951986445943479  0.2572507581534739  0.0016659391556508
  0.5078832388038576  0.2447225480480965  0.4996759019415058
  0.5061354625288431  0.7559176455131522  0.9986744029541689
  0.5059329421581238  0.7515263218652550  0.5083295884215859
 -0.0001553967100251  0.2588422854875390  0.2552403158560385
  0.0063741433454470  0.2423817424978763  0.7471265295931300
  0.0048665710708873  0.7494578848122317  0.2427383950686509
  0.9926731847255814  0.7511224671125639  0.7429218121424217
  0.5085361940367015  0.2423807221892215  0.2521754109505705
  0.5066263832354057  0.2426630538049175  0.7508503233375021
  0.5028270742423420  0.7515170386596679  0.2523409144098039
  0.5009865765077323  0.7417973381703087  0.7427586054831598
  0.2563825330561439  0.9984413326872822  0.0065738526128574
  0.2493650813511578  0.9937864708859023  0.5070003375760090
  0.2437498785266287  0.5079036066279375  0.9980007952013515
  0.2538367537866729  0.4940478485593815  0.5066143575408270
  0.7580677473132823  0.0010936918139693  0.9936006753469054
  0.7509055827429376  0.0066895761762290  0.4946017885269334
  0.7421111354242346  0.4999550080670985  0.0048113742891373
  0.7554160955581125  0.4977710792583711  0.5049850133342521
  0.2453440957360957  0.0026460716034119  0.2442391773869035
  0.2577413408377469  0.9977695164562314  0.7447680262361558
  0.2561883581133736  0.4932100419433436  0.2521434976002622
  0.2470356093502182  0.5061008911127113  0.7413021266752245
  0.7456590810108016  0.0009332143323818  0.2561183073190913
  0.7482937643148511  0.0063480545272495  0.7560394946814839
  0.7560691839809619  0.5004393890792823  0.2425510540664620
  0.7569076480793635  0.4979123744731253  0.7424345065826751
  0.2578606734601400  0.2513004307910215  0.0059725850000026
  0.2525503044566799  0.2567150473416469  0.5056928063882260
  0.2514957621546922  0.7426484975275813  0.9933932629192115
  0.2502969906942450  0.7553325350207075  0.4929861948451840
  0.7579307085183984  0.2506400253157427  0.0067660053303618
  0.7433569918028723  0.2425187609626703  0.4982019076580310
  0.7436407506757132  0.7493197247102387  0.9903498120575031
  0.7407564082976295  0.7518947361900409  0.4919322125421012
  0.2519144241369395  0.2582138277635302  0.2439495165128457
  0.2441335192023480  0.2513116597781662  0.7437780619581658
  0.2420082208104345  0.7487856159519108  0.2558496533676904
  0.2476860803085186  0.7417584270942252  0.7566722329458272
  0.7429487614463683  0.2521390055497499  0.2420956887319703
  0.7441069247787706  0.2419801770874557  0.7506323677069425
  0.7429575571403386  0.7517528821142235  0.2544219482293985
  0.7568887581590524  0.7511068730905556  0.7534880041146589
  0.0057101208660653  0.5015056510709230  0.6247058145326226
  0.9973565566759550  0.0062485496051118  0.3761375880018141
  1.0010020482417989  0.0027846301369263  0.8728944709673158
  0.5006924505698754  0.4870256042818787  0.3763678451902431
  0.4957123870777461  0.4928263653670680  0.8751675634668066
  0.9968553137838043  0.7471048641924584  0.1250439935084745
 -0.0003036531425715  0.7465709672936941  0.6241543026844195
  0.4984385029760843  0.7483369441779298  0.6252189391945158
  0.9974347634906875  0.2467783606550128  0.3765514311225964
  0.2563295149881421  0.0033240473036081  0.1255156754620232
  0.2556036726517249  0.0034456300353534  0.6257627518857350
  0.2401458171508704  0.4957137061883037  0.6260395966246802
  0.7524929753473200  0.4940290345142078  0.1251308154911762
  0.7472246689911269  0.4952190043518327  0.6239310235357182
  0.7492316123445231  0.9986221772530663  0.3761281777339083
  0.7452374137880952  0.9962678045976398  0.8737474463181159
  0.2486575211196807  0.2498234291058424  0.1256910815746172
  0.2543661360198815  0.2491433188078619  0.6254143069113526
  0.7465952478885093  0.2571417899190239  0.1257746688600046
  0.2526669383023458  0.7473815269156536  0.3748990271681597
  0.2497341279952154  0.7528395793609494  0.8752777419649365
  0.7463192452793092  0.7531272087430079  0.3729224988349074
  0.7442061986404439  0.7543822010495250  0.8737311859842440
  0.1246055229896023  0.5035014222243203  0.9964620434443293
  0.6260399922500670  0.5051780487436153 -0.0004435946116565
  0.1259182255169386  0.0018371620065715  0.2507889456267131
  0.6262135250897937  0.9964388730358873  0.2460758040576065
  0.6245910222453106  0.2506898693628980  0.4987117758031734
  0.6257879434878556  0.7497579613577695  0.0125564183664254
  0.6238450791833814  0.7559368210778432  0.4998492096791332
  0.1245846502737626  0.2498482000043226  0.7475177849785731
  0.1238389528253635  0.7544408594011445  0.2509482602884715
  0.6260922347660856  0.2508233602202337  0.2580801713113945
  0.6254815956500467  0.2508253779558501  0.7447297994576282
  0.6273103900138826  0.7684749153931708  0.2323037241720328
  0.3766862797851733  0.9974099013447090  0.9922518465151000
  0.3746729782391126  0.5002480125485865  0.5030711800790001
  0.8735989491068419  0.0022162294436794 -0.0007260699364586
  0.8751213634769223  0.4968370143750813  0.4976203649147021
  0.3760966463725004  0.9951012298521427  0.7584512305724727
  0.3743164414444727  0.4999300053255670  0.2506804935491196
  0.8757220934405866  0.5024370079469377  0.2535939111780000
  0.8748324889176087  0.5054919166685841  0.7484054147018880
  0.3763037171369106  0.2466268272368556  0.0011650114420745
  0.8748099374654491  0.2467816500948811  0.0020427166100578
  0.8740072977867801  0.7465535738303543  0.7504172138021791
  0.5038044015848301  0.1223218197879993  0.4917189836496977
  0.9946895571752857  0.1260107316153072  0.7436625845823278
  0.5005053259380773  0.1256970696100951  0.2683896691139253
  0.5004111911167720  0.1232396838684506  0.7540298164001984
  0.4994049680852869  0.6250313368593117  0.7548304678055114
  0.9995042046826768  0.3754145915799116  0.0034406353021860
  0.0022128252151209  0.8753158353457847  0.0006485745394103
  0.0031505389100205  0.8750524557208361  0.4980332357071783
  0.5019959479529714  0.3731795693724582  0.0106489332903255
  0.5083927181977419  0.8753155992285064  0.0175547497706864
  0.0036225847828602  0.3746285210727094  0.2480256009442695
  0.2555672115366905  0.6254752322362127  0.0018817177503207
  0.7493438632651857  0.1250079704413601  0.5034570216852684
  0.2494209038942412  0.6246508407527974  0.7504077605905242
  0.7529329852845429  0.1243584249439287  0.7460103645293713
  0.2469241180994387  0.3728349989943573  0.4941042659701894
  0.2461088769579396  0.8758618401614944  0.5003582608375238
  0.2451611097739123  0.3749546484407267  0.2561974478559689
 -0.0005755327291010  0.0023984330170232  0.1266900750662938
  0.0029281510768989  0.9980412377121294  0.6236423564638234
  0.9989185813199509  0.5080263710648926  0.1250510481902974
  0.4933048147274525  0.0188989266182873  0.1265172953104381
  0.4956111563519864  1.0010082569647760  0.6238062295296631
  0.5011856671274487  0.5094038400942034  0.1270940094372301
  0.5057222857270097  0.5021974423273401  0.6254815977773550
  0.0048812601593002  0.4974729120608552  0.3760951821528207
  0.9970516033200997  0.4988145060034025  0.8729821816580954
  0.5060909959922290  0.9848572466977004  0.3770663369233928
  0.5157231967720032  0.9914495195718260  0.8766278510050316
  0.0049494517004745  0.2465739858061901  0.1271557535654391
  0.9968874116319736  0.2581184376578513  0.6214043162368451
  0.5048941265814295  0.2338009988962100  0.1271461992168096
  0.4927050299453539  0.2422072763834087  0.6236391806165162
  0.4931645256120695  0.7387626087269024  0.1218728902212083
  0.9984124769016641  0.2501959760272083  0.8741377056308989
  0.9940793687271445  0.7500871624105211  0.3750928607573414
  1.0015359837617261  0.7505443015874241  0.8735737159349809
  0.4954651261471649  0.2664778887884892  0.3766744815680377
  0.5037795446699025  0.2556249185484445  0.8750920593385279
  0.4936576725289486  0.7594708291080983  0.3810284397182765
  0.5027941345580931  0.7600239953992269  0.8742351509971057
  0.2467607469171514  0.4950887374422412  0.1249050699245807
  0.7512817968598551  0.0042518536440999  0.1262158492118350
  0.7477967997164139  0.9966206783652387  0.6234234763088585
  0.2508798504655559  0.0010850668724887  0.3758894541486274
  0.2430078571142344  0.9951669564606164  0.8750396713532794
  0.2455344455651459  0.5108786627600524  0.3755127114442282
  0.2572477653827759  0.4975224400327612  0.8739761655116608
  0.7452715065981863  0.5060995204908173  0.3744479186643296
  0.7508266128190100  0.5040248669725436  0.8737959635682169
  0.2520796755012785  0.7545152647648716  0.1246464310854430
  0.2472891101674071  0.7511427225458487  0.6255398550319093
  0.7544978833920378  0.2594225889498302  0.6232427541576818
  0.7578292392414276  0.7514747766852126  0.1226920385524656
  0.7488650701395001  0.7475992887911008  0.6237518744038938
  0.2500882445946738  0.2435569981985150  0.3747755224219866
  0.2499645134060961  0.2509290704667788  0.8754474069287397
  0.7589947272635403  0.2452684965605038  0.3742632589333003
  0.7490559086451615  0.2465598393954338  0.8757856212742710
  0.1265580521841470  0.0024259423018399  0.0032177498749684
  0.1247671330015752  0.0116389214026631  0.5004511764694918
  0.1228233091207307  0.5039206743725545  0.4940398500207835
  0.6260148826666460  0.9997057380905154  0.0116280859850226
  0.6239793320562994  0.9905574307848246  0.5046786348417753
  0.6252243954289595  0.4979284247083129  0.4990544073560383
  0.1269422919369754  0.0019462591341488  0.7466620562745492
  0.1240263292635489  0.5052607509410668  0.2479072736891457
  0.1228998185012309  0.4951080490867570  0.7611998362705509
  0.6236645819520092  0.9964154600713883  0.7409103302173008
  0.6261351482998793  0.4926216085029770  0.2490711969945546
  0.6263069944334956  0.4946524957072213  0.7538405963628112
  0.1254369498693643  0.2501295838209543  0.9968715597573317
  0.1233120357067019  0.2408543532951432  0.5016811256685383
  0.1248636925994580  0.7452331865904009  1.0009022911459293
  0.1231551363370676  0.7440435134857333  0.4965042171441758
  0.6264314980712130  0.2492133349269781  0.9978053992381993
  0.1248418505808042  0.2404113298246089  0.2539272481876763
  0.1226941456365450  0.7522842511386799  0.7508099866451342
  0.6259926663324672  0.7523947105385586  0.7476148692008658
  0.3769242864915613  0.0006851556223398  0.4937085596257125
  0.3739587840497293  0.4975167397432444  0.0061963408675028
  0.8749377956403560  0.9994845768031242  0.5070959373098076
  0.8747554479693604  0.4999404891733967  0.9974904785688510
  0.3773804496887086  1.0004876847554920  0.2583877104864534
  0.3742834045208970  0.4962267630600889  0.7431143595748041
  0.8747418052691811  0.0043556582800395  0.2483466411669208
  0.8742454211775457  0.9919230274028100  0.7440221919065433
  0.3786022746022096  0.2476370938028161  0.4955716468661794
  0.3768457562661238  0.7584066144999744  0.9973481819984799
  0.3752522497063112  0.7482128497740542  0.5039006610958625
  0.8743015926879852  0.2554630126917409  0.5022514935293492
  0.8722722242315518  0.7548134163179526  0.9945468595254975
  0.8718437178137804  0.7493293306474355  0.5010494073191561
  0.3783193919895214  0.2535962556451445  0.2503240692587239
  0.3762695564094323  0.2504897986145886  0.7545106819569396
  0.3740140690057777  0.7467624088763959  0.2482802822050769
  0.3745214768482160  0.7565508883507938  0.7508379583443724
  0.8745901878546645  0.2515608340122333  0.2474446794594685
  0.8741177356942051  0.2551190593968266  0.7494739118340101
  0.8734232858169871  0.7452920558256850  0.2503204413195322
  0.0045204387257456  0.1269584445302186  0.0016348018708974
  0.9920817794408520  0.1257214652778864  0.5090067476301559
  0.9941883475531185  0.6258415363048004  0.9948842739286590
  0.9963841030011843  0.6264903457417773  0.4935426672395117
  0.5057727464840260  0.1234362927868689  0.9915599304179755
  0.4939221278075606  0.6277904002841521  0.9920731173481185
  0.5026314042719395  0.6252873891365961  0.4947822609833560
  0.9955108694872706  0.1281565601574297  0.2462542279174367
  0.0015676995617789  0.6241714890132812  0.2560277833812345
  0.0077707522308793  0.6247788120749598  0.7547163289691718
  0.5096897043522771  0.6214463686310706  0.2622109195696407
  0.0063807644022141  0.3736955229338388  0.4979600381468920
  0.4984934208319454  0.3710634086181931  0.5127617603039141
  0.4933418820588578  0.8783997779409101  0.5055975569811882
  0.9970036197494732  0.3743191248047948  0.7513341011061718
  0.9928747572833329  0.8768145306182757  0.2514256911875968
  0.0015255722935773  0.8759129264285312  0.7475262086276973
  0.4999146167063079  0.3712964900451233  0.2369638240894149
  0.4977630583011104  0.3725486591121452  0.7426135422579203
  0.4945446977069726  0.8822650499138364  0.2339653867559359
  0.5035822912499635  0.8752689134380877  0.7483600428671913
  0.2471232352332605  0.1244474056570957  0.9938272282393507
  0.2543633582398485  0.1243069272437617  0.4970457821978375
  0.2487757959303765  0.6263273148032404  0.5047114946477519
  0.7428597098267656  0.1259175212310461  1.0004823784425370
  0.7580992437477742  0.6258440183783633  0.9999786942389097
  0.7486871383712290  0.6255144172927972  0.5001247219651800
  0.2574154988726468  0.1267949422104567  0.2537937628281825
  0.2526400370433508  0.1243840890574010  0.7578515125238633
  0.2478851094640345  0.6242757622614873  0.2419200851572482
  0.7545292547627774  0.1267171493442466  0.2497677125885563
  0.7407220704183357  0.6260932946164560  0.2462178401481087
  0.7411616016777687  0.6250066917492904  0.7482905275761597
  0.2502792835863735  0.3762240145526402  0.9978335227019691
  0.2445429197328518  0.8740267476912216  0.0033210456270780
  0.7499976928848440  0.3747347408737480  0.9888823344840698
  0.7492961899267011  0.3724310884619163  0.4904810592365806
  0.7439932200548369  0.8753616914825155  0.0119028670177737
  0.7552939843898248  0.8764126590240925  0.5038924827325987
  0.2520390734214241  0.3757378175327460  0.7562545961082163
  0.2558664632557608  0.8761269897708800  0.2510387069734946
  0.2449023348895744  0.8736335777097408  0.7467642761907827
  0.7540103699892783  0.3750192902186554  0.2625146213967713
  0.7525845429937066  0.3735131663085078  0.7561850072372203
  0.7628126590259464  0.8771460228174236  0.2409202281220715
  0.7487918833889889  0.8752329702151608  0.7422070247071295
 
  0.00000000E+00  0.00000000E+00  0.00000000E+00
  0.00000000E+00  0.00000000E+00  0.00000000E+00
  0.00000000E+00  0.00000000E+00  0.00000000E+00
  0.00000000E+00  0.00000000E+00  0.00000000E+00
  0.00000000E+00  0.00000000E+00  0.00000000E+00
  0.00000000E+00  0.00000000E+00  0.00000000E+00
  0.00000000E+00  0.00000000E+00  0.00000000E+00
  0.00000000E+00  0.00000000E+00  0.00000000E+00
  0.00000000E+00  0.00000000E+00  0.00000000E+00
  0.00000000E+00  0.00000000E+00  0.00000000E+00
  0.00000000E+00  0.00000000E+00  0.00000000E+00
  0.00000000E+00  0.00000000E+00  0.00000000E+00
  0.00000000E+00  0.00000000E+00  0.00000000E+00
  0.00000000E+00  0.00000000E+00  0.00000000E+00
  0.00000000E+00  0.00000000E+00  0.00000000E+00
  0.00000000E+00  0.00000000E+00  0.00000000E+00
  0.00000000E+00  0.00000000E+00  0.00000000E+00
  0.00000000E+00  0.00000000E+00  0.00000000E+00
  0.00000000E+00  0.00000000E+00  0.00000000E+00
  0.00000000E+00  0.00000000E+00  0.00000000E+00
  0.00000000E+00  0.00000000E+00  0.00000000E+00
  0.00000000E+00  0.00000000E+00  0.00000000E+00
  0.00000000E+00  0.00000000E+00  0.00000000E+00
  0.00000000E+00  0.00000000E+00  0.00000000E+00
  0.00000000E+00  0.00000000E+00  0.00000000E+00
  0.00000000E+00  0.00000000E+00  0.00000000E+00
  0.00000000E+00  0.00000000E+00  0.00000000E+00
  0.00000000E+00  0.00000000E+00  0.00000000E+00
  0.00000000E+00  0.00000000E+00  0.00000000E+00
  0.00000000E+00  0.00000000E+00  0.00000000E+00
  0.00000000E+00  0.00000000E+00  0.00000000E+00
  0.00000000E+00  0.00000000E+00  0.00000000E+00
  0.00000000E+00  0.00000000E+00  0.00000000E+00
  0.00000000E+00  0.00000000E+00  0.00000000E+00
  0.00000000E+00  0.00000000E+00  0.00000000E+00
  0.00000000E+00  0.00000000E+00  0.00000000E+00
  0.00000000E+00  0.00000000E+00  0.00000000E+00
  0.00000000E+00  0.00000000E+00  0.00000000E+00
  0.00000000E+00  0.00000000E+00  0.00000000E+00
  0.00000000E+00  0.00000000E+00  0.00000000E+00
  0.00000000E+00  0.00000000E+00  0.00000000E+00
  0.00000000E+00  0.00000000E+00  0.00000000E+00
  0.00000000E+00  0.00000000E+00  0.00000000E+00
  0.00000000E+00  0.00000000E+00  0.00000000E+00
  0.00000000E+00  0.00000000E+00  0.00000000E+00
  0.00000000E+00  0.00000000E+00  0.00000000E+00
  0.00000000E+00  0.00000000E+00  0.00000000E+00
  0.00000000E+00  0.00000000E+00  0.00000000E+00
  0.00000000E+00  0.00000000E+00  0.00000000E+00
  0.00000000E+00  0.00000000E+00  0.00000000E+00
  0.00000000E+00  0.00000000E+00  0.00000000E+00
  0.00000000E+00  0.00000000E+00  0.00000000E+00
  0.00000000E+00  0.00000000E+00  0.00000000E+00
  0.00000000E+00  0.00000000E+00  0.00000000E+00
  0.00000000E+00  0.00000000E+00  0.00000000E+00
  0.00000000E+00  0.00000000E+00  0.00000000E+00
  0.00000000E+00  0.00000000E+00  0.00000000E+00
  0.00000000E+00  0.00000000E+00  0.00000000E+00
  0.00000000E+00  0.00000000E+00  0.00000000E+00
  0.00000000E+00  0.00000000E+00  0.00000000E+00
  0.00000000E+00  0.00000000E+00  0.00000000E+00
  0.00000000E+00  0.00000000E+00  0.00000000E+00
  0.00000000E+00  0.00000000E+00  0.00000000E+00
  0.00000000E+00  0.00000000E+00  0.00000000E+00
  0.00000000E+00  0.00000000E+00  0.00000000E+00
  0.00000000E+00  0.00000000E+00  0.00000000E+00
  0.00000000E+00  0.00000000E+00  0.00000000E+00
  0.00000000E+00  0.00000000E+00  0.00000000E+00
  0.00000000E+00  0.00000000E+00  0.00000000E+00
  0.00000000E+00  0.00000000E+00  0.00000000E+00
  0.00000000E+00  0.00000000E+00  0.00000000E+00
  0.00000000E+00  0.00000000E+00  0.00000000E+00
  0.00000000E+00  0.00000000E+00  0.00000000E+00
  0.00000000E+00  0.00000000E+00  0.00000000E+00
  0.00000000E+00  0.00000000E+00  0.00000000E+00
  0.00000000E+00  0.00000000E+00  0.00000000E+00
  0.00000000E+00  0.00000000E+00  0.00000000E+00
  0.00000000E+00  0.00000000E+00  0.00000000E+00
  0.00000000E+00  0.00000000E+00  0.00000000E+00
  0.00000000E+00  0.00000000E+00  0.00000000E+00
  0.00000000E+00  0.00000000E+00  0.00000000E+00
  0.00000000E+00  0.00000000E+00  0.00000000E+00
  0.00000000E+00  0.00000000E+00  0.00000000E+00
  0.00000000E+00  0.00000000E+00  0.00000000E+00
  0.00000000E+00  0.00000000E+00  0.00000000E+00
  0.00000000E+00  0.00000000E+00  0.00000000E+00
  0.00000000E+00  0.00000000E+00  0.00000000E+00
  0.00000000E+00  0.00000000E+00  0.00000000E+00
  0.00000000E+00  0.00000000E+00  0.00000000E+00
  0.00000000E+00  0.00000000E+00  0.00000000E+00
  0.00000000E+00  0.00000000E+00  0.00000000E+00
  0.00000000E+00  0.00000000E+00  0.00000000E+00
  0.00000000E+00  0.00000000E+00  0.00000000E+00
  0.00000000E+00  0.00000000E+00  0.00000000E+00
  0.00000000E+00  0.00000000E+00  0.00000000E+00
  0.00000000E+00  0.00000000E+00  0.00000000E+00
  0.00000000E+00  0.00000000E+00  0.00000000E+00
  0.00000000E+00  0.00000000E+00  0.00000000E+00
  0.00000000E+00  0.00000000E+00  0.00000000E+00
  0.00000000E+00  0.00000000E+00  0.00000000E+00
  0.00000000E+00  0.00000000E+00  0.00000000E+00
  0.00000000E+00  0.00000000E+00  0.00000000E+00
  0.00000000E+00  0.00000000E+00  0.00000000E+00
  0.00000000E+00  0.00000000E+00  0.00000000E+00
  0.00000000E+00  0.00000000E+00  0.00000000E+00
  0.00000000E+00  0.00000000E+00  0.00000000E+00
  0.00000000E+00  0.00000000E+00  0.00000000E+00
  0.00000000E+00  0.00000000E+00  0.00000000E+00
  0.00000000E+00  0.00000000E+00  0.00000000E+00
  0.00000000E+00  0.00000000E+00  0.00000000E+00
  0.00000000E+00  0.00000000E+00  0.00000000E+00
  0.00000000E+00  0.00000000E+00  0.00000000E+00
  0.00000000E+00  0.00000000E+00  0.00000000E+00
  0.00000000E+00  0.00000000E+00  0.00000000E+00
  0.00000000E+00  0.00000000E+00  0.00000000E+00
  0.00000000E+00  0.00000000E+00  0.00000000E+00
  0.00000000E+00  0.00000000E+00  0.00000000E+00
  0.00000000E+00  0.00000000E+00  0.00000000E+00
  0.00000000E+00  0.00000000E+00  0.00000000E+00
  0.00000000E+00  0.00000000E+00  0.00000000E+00
  0.00000000E+00  0.00000000E+00  0.00000000E+00
  0.00000000E+00  0.00000000E+00  0.00000000E+00
  0.00000000E+00  0.00000000E+00  0.00000000E+00
  0.00000000E+00  0.00000000E+00  0.00000000E+00
  0.00000000E+00  0.00000000E+00  0.00000000E+00
  0.00000000E+00  0.00000000E+00  0.00000000E+00
  0.00000000E+00  0.00000000E+00  0.00000000E+00
  0.00000000E+00  0.00000000E+00  0.00000000E+00
  0.00000000E+00  0.00000000E+00  0.00000000E+00
  0.00000000E+00  0.00000000E+00  0.00000000E+00
  0.00000000E+00  0.00000000E+00  0.00000000E+00
  0.00000000E+00  0.00000000E+00  0.00000000E+00
  0.00000000E+00  0.00000000E+00  0.00000000E+00
  0.00000000E+00  0.00000000E+00  0.00000000E+00
  0.00000000E+00  0.00000000E+00  0.00000000E+00
  0.00000000E+00  0.00000000E+00  0.00000000E+00
  0.00000000E+00  0.00000000E+00  0.00000000E+00
  0.00000000E+00  0.00000000E+00  0.00000000E+00
  0.00000000E+00  0.00000000E+00  0.00000000E+00
  0.00000000E+00  0.00000000E+00  0.00000000E+00
  0.00000000E+00  0.00000000E+00  0.00000000E+00
  0.00000000E+00  0.00000000E+00  0.00000000E+00
  0.00000000E+00  0.00000000E+00  0.00000000E+00
  0.00000000E+00  0.00000000E+00  0.00000000E+00
  0.00000000E+00  0.00000000E+00  0.00000000E+00
  0.00000000E+00  0.00000000E+00  0.00000000E+00
  0.00000000E+00  0.00000000E+00  0.00000000E+00
  0.00000000E+00  0.00000000E+00  0.00000000E+00
  0.00000000E+00  0.00000000E+00  0.00000000E+00
  0.00000000E+00  0.00000000E+00  0.00000000E+00
  0.00000000E+00  0.00000000E+00  0.00000000E+00
  0.00000000E+00  0.00000000E+00  0.00000000E+00
  0.00000000E+00  0.00000000E+00  0.00000000E+00
  0.00000000E+00  0.00000000E+00  0.00000000E+00
  0.00000000E+00  0.00000000E+00  0.00000000E+00
  0.00000000E+00  0.00000000E+00  0.00000000E+00
  0.00000000E+00  0.00000000E+00  0.00000000E+00
  0.00000000E+00  0.00000000E+00  0.00000000E+00
  0.00000000E+00  0.00000000E+00  0.00000000E+00
  0.00000000E+00  0.00000000E+00  0.00000000E+00
  0.00000000E+00  0.00000000E+00  0.00000000E+00
  0.00000000E+00  0.00000000E+00  0.00000000E+00
  0.00000000E+00  0.00000000E+00  0.00000000E+00
  0.00000000E+00  0.00000000E+00  0.00000000E+00
  0.00000000E+00  0.00000000E+00  0.00000000E+00
  0.00000000E+00  0.00000000E+00  0.00000000E+00
  0.00000000E+00  0.00000000E+00  0.00000000E+00
  0.00000000E+00  0.00000000E+00  0.00000000E+00
  0.00000000E+00  0.00000000E+00  0.00000000E+00
  0.00000000E+00  0.00000000E+00  0.00000000E+00
  0.00000000E+00  0.00000000E+00  0.00000000E+00
  0.00000000E+00  0.00000000E+00  0.00000000E+00
  0.00000000E+00  0.00000000E+00  0.00000000E+00
  0.00000000E+00  0.00000000E+00  0.00000000E+00
  0.00000000E+00  0.00000000E+00  0.00000000E+00
  0.00000000E+00  0.00000000E+00  0.00000000E+00
  0.00000000E+00  0.00000000E+00  0.00000000E+00
  0.00000000E+00  0.00000000E+00  0.00000000E+00
  0.00000000E+00  0.00000000E+00  0.00000000E+00
  0.00000000E+00  0.00000000E+00  0.00000000E+00
  0.00000000E+00  0.00000000E+00  0.00000000E+00
  0.00000000E+00  0.00000000E+00  0.00000000E+00
  0.00000000E+00  0.00000000E+00  0.00000000E+00
  0.00000000E+00  0.00000000E+00  0.00000000E+00
  0.00000000E+00  0.00000000E+00  0.00000000E+00
  0.00000000E+00  0.00000000E+00  0.00000000E+00
  0.00000000E+00  0.00000000E+00  0.00000000E+00
  0.00000000E+00  0.00000000E+00  0.00000000E+00
  0.00000000E+00  0.00000000E+00  0.00000000E+00
  0.00000000E+00  0.00000000E+00  0.00000000E+00
  0.00000000E+00  0.00000000E+00  0.00000000E+00
  0.00000000E+00  0.00000000E+00  0.00000000E+00
  0.00000000E+00  0.00000000E+00  0.00000000E+00
  0.00000000E+00  0.00000000E+00  0.00000000E+00
  0.00000000E+00  0.00000000E+00  0.00000000E+00
  0.00000000E+00  0.00000000E+00  0.00000000E+00
  0.00000000E+00  0.00000000E+00  0.00000000E+00
  0.00000000E+00  0.00000000E+00  0.00000000E+00
  0.00000000E+00  0.00000000E+00  0.00000000E+00
  0.00000000E+00  0.00000000E+00  0.00000000E+00
  0.00000000E+00  0.00000000E+00  0.00000000E+00
  0.00000000E+00  0.00000000E+00  0.00000000E+00
  0.00000000E+00  0.00000000E+00  0.00000000E+00
  0.00000000E+00  0.00000000E+00  0.00000000E+00
  0.00000000E+00  0.00000000E+00  0.00000000E+00
  0.00000000E+00  0.00000000E+00  0.00000000E+00
  0.00000000E+00  0.00000000E+00  0.00000000E+00
  0.00000000E+00  0.00000000E+00  0.00000000E+00
  0.00000000E+00  0.00000000E+00  0.00000000E+00
  0.00000000E+00  0.00000000E+00  0.00000000E+00
  0.00000000E+00  0.00000000E+00  0.00000000E+00
  0.00000000E+00  0.00000000E+00  0.00000000E+00
  0.00000000E+00  0.00000000E+00  0.00000000E+00
  0.00000000E+00  0.00000000E+00  0.00000000E+00
  0.00000000E+00  0.00000000E+00  0.00000000E+00
  0.00000000E+00  0.00000000E+00  0.00000000E+00
  0.00000000E+00  0.00000000E+00  0.00000000E+00
  0.00000000E+00  0.00000000E+00  0.00000000E+00
  0.00000000E+00  0.00000000E+00  0.00000000E+00
  0.00000000E+00  0.00000000E+00  0.00000000E+00
  0.00000000E+00  0.00000000E+00  0.00000000E+00
  0.00000000E+00  0.00000000E+00  0.00000000E+00
  0.00000000E+00  0.00000000E+00  0.00000000E+00
  0.00000000E+00  0.00000000E+00  0.00000000E+00
  0.00000000E+00  0.00000000E+00  0.00000000E+00
  0.00000000E+00  0.00000000E+00  0.00000000E+00
  0.00000000E+00  0.00000000E+00  0.00000000E+00
  0.00000000E+00  0.00000000E+00  0.00000000E+00
  0.00000000E+00  0.00000000E+00  0.00000000E+00
  0.00000000E+00  0.00000000E+00  0.00000000E+00
  0.00000000E+00  0.00000000E+00  0.00000000E+00
  0.00000000E+00  0.00000000E+00  0.00000000E+00
  0.00000000E+00  0.00000000E+00  0.00000000E+00
  0.00000000E+00  0.00000000E+00  0.00000000E+00
  0.00000000E+00  0.00000000E+00  0.00000000E+00
  0.00000000E+00  0.00000000E+00  0.00000000E+00
  0.00000000E+00  0.00000000E+00  0.00000000E+00
  0.00000000E+00  0.00000000E+00  0.00000000E+00
  0.00000000E+00  0.00000000E+00  0.00000000E+00
  0.00000000E+00  0.00000000E+00  0.00000000E+00
  0.00000000E+00  0.00000000E+00  0.00000000E+00
  0.00000000E+00  0.00000000E+00  0.00000000E+00
  0.00000000E+00  0.00000000E+00  0.00000000E+00
  0.00000000E+00  0.00000000E+00  0.00000000E+00
  0.00000000E+00  0.00000000E+00  0.00000000E+00
  0.00000000E+00  0.00000000E+00  0.00000000E+00
  0.00000000E+00  0.00000000E+00  0.00000000E+00
  0.00000000E+00  0.00000000E+00  0.00000000E+00
  0.00000000E+00  0.00000000E+00  0.00000000E+00
  0.00000000E+00  0.00000000E+00  0.00000000E+00
  0.00000000E+00  0.00000000E+00  0.00000000E+00
  0.00000000E+00  0.00000000E+00  0.00000000E+00
  0.00000000E+00  0.00000000E+00  0.00000000E+00
  0.00000000E+00  0.00000000E+00  0.00000000E+00
  0.00000000E+00  0.00000000E+00  0.00000000E+00
  0.00000000E+00  0.00000000E+00  0.00000000E+00
  0.00000000E+00  0.00000000E+00  0.00000000E+00
