TiOF2 2x2x2 config 1122                 
   1.00000000000000     
     7.7810460843614706    0.0000108393204906   -0.0032837116170217
     0.0000107858867031    7.7375024995603523    0.0000253616451068
    -0.0032942510124507    0.0000251777005411    7.6824966919169144
   Ti   O    F 
     8     8    16
Direct
  0.0009039110457607  0.9999999827690900  0.9853220808462808
  0.0014072757205810  0.9999973939695437  0.5100729928660286
  0.9843233225818295  0.4999998777480101  0.0157448973973473
  0.9817207952076217  0.4999967050253531  0.4902695086859055
  0.5002334804305661  0.9999961638845889  0.9827039642483157
  0.5008399522088851  0.0000854516183963  0.5014710225833241
  0.5096331733067885  0.4999959421531415  0.9836854345977954
  0.5047969629265054  0.5001402021408765  0.5062458941388712
  0.7524364214301755  0.5000000140209764  0.9988736677120826
  0.7551715018306950  0.4999941467812974  0.5017751368635999
  0.5005643852653421  0.2432675520481027  0.4988675220934056
  0.5005649793684697  0.7566136800656054  0.4988687977789894
  0.0000413582619530  0.9999999298530184  0.7511282712570662
  0.0040714516428721  0.4999998266630357  0.2495040927483885
  0.5013769294611663  0.9999918867239330  0.7580645964518453
  0.4956614360021163  0.4999905250633248  0.7550952362027488
  0.2465850118027220  0.9999998265609094  0.0078229450782814
  0.2420631091209486  0.9999899118038869  0.4911573893550596
  0.2472244245077206  0.4999998732923103  0.9989532440060671
  0.2433429336912027  0.4999901906957049  0.5026837548734235
  0.7547146295061751  0.9999998989984675  0.0078231583822728
  0.7605121835342814  0.9999916347978370  0.4909626995516945
  0.0040480191876924  0.2438822890039489  0.0012553400790694
  0.0042545498276283  0.2438174990514526  0.4999318865370554
  0.0040480562582346  0.7561174907866501  0.0012555732543618
  0.0042536347531268  0.7561772133495381  0.4999327913975478
  0.4967379482233198  0.2463465269469509  0.0118279038725930
  0.4967377434834859  0.7536456844512358  0.0118283977449991
  0.0001254093564000  0.9999998579226457  0.2481530924120605
  0.0090215477271443  0.4999999539620390  0.7523234313665199
  0.5015157742326153  0.9999867689667425  0.2414087729015577
  0.4910676880959670  0.4999860988813936  0.2449865027154203
 
  0.00000000E+00  0.00000000E+00  0.00000000E+00
  0.00000000E+00  0.00000000E+00  0.00000000E+00
  0.00000000E+00  0.00000000E+00  0.00000000E+00
  0.00000000E+00  0.00000000E+00  0.00000000E+00
  0.00000000E+00  0.00000000E+00  0.00000000E+00
  0.00000000E+00  0.00000000E+00  0.00000000E+00
  0.00000000E+00  0.00000000E+00  0.00000000E+00
  0.00000000E+00  0.00000000E+00  0.00000000E+00
  0.00000000E+00  0.00000000E+00  0.00000000E+00
  0.00000000E+00  0.00000000E+00  0.00000000E+00
  0.00000000E+00  0.00000000E+00  0.00000000E+00
  0.00000000E+00  0.00000000E+00  0.00000000E+00
  0.00000000E+00  0.00000000E+00  0.00000000E+00
  0.00000000E+00  0.00000000E+00  0.00000000E+00
  0.00000000E+00  0.00000000E+00  0.00000000E+00
  0.00000000E+00  0.00000000E+00  0.00000000E+00
  0.00000000E+00  0.00000000E+00  0.00000000E+00
  0.00000000E+00  0.00000000E+00  0.00000000E+00
  0.00000000E+00  0.00000000E+00  0.00000000E+00
  0.00000000E+00  0.00000000E+00  0.00000000E+00
  0.00000000E+00  0.00000000E+00  0.00000000E+00
  0.00000000E+00  0.00000000E+00  0.00000000E+00
  0.00000000E+00  0.00000000E+00  0.00000000E+00
  0.00000000E+00  0.00000000E+00  0.00000000E+00
  0.00000000E+00  0.00000000E+00  0.00000000E+00
  0.00000000E+00  0.00000000E+00  0.00000000E+00
  0.00000000E+00  0.00000000E+00  0.00000000E+00
  0.00000000E+00  0.00000000E+00  0.00000000E+00
  0.00000000E+00  0.00000000E+00  0.00000000E+00
  0.00000000E+00  0.00000000E+00  0.00000000E+00
  0.00000000E+00  0.00000000E+00  0.00000000E+00
  0.00000000E+00  0.00000000E+00  0.00000000E+00
