TiOF2 2x2x2 config 1122                 
   1.00000000000000     
     7.7810460843614706    0.0000108393204906   -0.0032837116170217
     0.0000107858867031    7.7375024995603523    0.0000253616451068
    -0.0032942510124507    0.0000251777005411    7.6824966919169144
   Ti   O    F 
     8     8    16
Direct
  0.0009039110457591 -0.0000000172309099 -0.0146779191537183
  0.0014072757205834 -0.0000026060304595  0.5100729928660320
 -0.0156766774181736  0.4999998777480082  0.0157448973973481
 -0.0182792047923809  0.4999967050253499  0.4902695086859041
  0.5002334804305648 -0.0000038361154081 -0.0172960357516817
  0.5008399522088858  0.0000854516183951  0.5014710225833229
  0.5096331733067873  0.4999959421531397 -0.0163145654022044
  0.5047969629265060  0.5001402021408760  0.5062458941388741
  0.7524364214301761  0.5000000140209770 -0.0011263322879195
  0.7551715018306965  0.4999941467812976  0.5017751368635964
  0.5005643852653437  0.2432675520481045  0.4988675220934068
  0.5005649793684693  0.7566136800656054  0.4988687977789861
  0.0000413582619502 -0.0000000701469845  0.7511282712570670
  0.0040714516428750  0.4999998266630391  0.2495040927483861
  0.5013769294611651 -0.0000081132760688  0.7580645964518429
  0.4956614360021160  0.4999905250633253  0.7550952362027493
  0.2465850118027241 -0.0000001734390874  0.0078229450782820
  0.2420631091209478 -0.0000100881961114  0.4911573893550578
  0.2472244245077212  0.4999998732923070 -0.0010467559939295
  0.2433429336912010  0.4999901906957047  0.5026837548734268
  0.7547146295061727 -0.0000001010015296  0.0078231583822720
  0.7605121835342840 -0.0000083652021619  0.4909626995516955
  0.0040480191876956  0.2438822890039491  0.0012553400790717
  0.0042545498276271  0.2438174990514536  0.4999318865370583
  0.0040480562582334  0.7561174907866486  0.0012555732543646
  0.0042536347531273  0.7561772133495389  0.4999327913975505
  0.4967379482233220  0.2463465269469486  0.0118279038725929
  0.4967377434834855  0.7536456844512344  0.0118283977450012
  0.0001254093563997 -0.0000001420773564  0.2481530924120634
  0.0090215477271472  0.4999999539620369  0.7523234313665234
  0.5015157742326184 -0.0000132310332541  0.2414087729015572
  0.4910676880959668  0.4999860988813921  0.2449865027154201
 
  0.00000000E+00  0.00000000E+00  0.00000000E+00
  0.00000000E+00  0.00000000E+00  0.00000000E+00
  0.00000000E+00  0.00000000E+00  0.00000000E+00
  0.00000000E+00  0.00000000E+00  0.00000000E+00
  0.00000000E+00  0.00000000E+00  0.00000000E+00
  0.00000000E+00  0.00000000E+00  0.00000000E+00
  0.00000000E+00  0.00000000E+00  0.00000000E+00
  0.00000000E+00  0.00000000E+00  0.00000000E+00
  0.00000000E+00  0.00000000E+00  0.00000000E+00
  0.00000000E+00  0.00000000E+00  0.00000000E+00
  0.00000000E+00  0.00000000E+00  0.00000000E+00
  0.00000000E+00  0.00000000E+00  0.00000000E+00
  0.00000000E+00  0.00000000E+00  0.00000000E+00
  0.00000000E+00  0.00000000E+00  0.00000000E+00
  0.00000000E+00  0.00000000E+00  0.00000000E+00
  0.00000000E+00  0.00000000E+00  0.00000000E+00
  0.00000000E+00  0.00000000E+00  0.00000000E+00
  0.00000000E+00  0.00000000E+00  0.00000000E+00
  0.00000000E+00  0.00000000E+00  0.00000000E+00
  0.00000000E+00  0.00000000E+00  0.00000000E+00
  0.00000000E+00  0.00000000E+00  0.00000000E+00
  0.00000000E+00  0.00000000E+00  0.00000000E+00
  0.00000000E+00  0.00000000E+00  0.00000000E+00
  0.00000000E+00  0.00000000E+00  0.00000000E+00
  0.00000000E+00  0.00000000E+00  0.00000000E+00
  0.00000000E+00  0.00000000E+00  0.00000000E+00
  0.00000000E+00  0.00000000E+00  0.00000000E+00
  0.00000000E+00  0.00000000E+00  0.00000000E+00
  0.00000000E+00  0.00000000E+00  0.00000000E+00
  0.00000000E+00  0.00000000E+00  0.00000000E+00
  0.00000000E+00  0.00000000E+00  0.00000000E+00
  0.00000000E+00  0.00000000E+00  0.00000000E+00
