Ti27 O27 F54                            
   1.00000000000000     
    11.6083552895472746   -0.0005004998081429    0.0014872983211423
    -0.0005103410158910   11.6042769881187038   -0.0089142042849118
     0.0014911343235186   -0.0089139413769133   11.5855226035741499
   Ti   O    F 
    27    27    54
Direct
  0.0096410483312227 -0.0116017519616217  0.0006720117491948
  0.0106504148773219 -0.0085438905685280  0.3428230218558737
  0.0083804104350738 -0.0106277378637920  0.6571663913863859
 -0.0009895906770596  0.3333857576620434  0.0120683343580515
 -0.0124446468297288  0.3337118309895836  0.3258446790876146
  0.0136866057776735  0.3326289928972688  0.6674994855735722
 -0.0074996375380376  0.6755459552037373 -0.0104434061401773
  0.0112825077603824  0.6780283402308487  0.3329423938764222
  0.0084693755094751  0.6770623204020192  0.6752045126428288
  0.3239948590184554  0.0117508839197942  0.0000503559063007
  0.3216963697749829 -0.0090974934428927  0.3415462500269763
  0.3218783957192164  0.0003203559590363  0.6561850037523375
  0.3417420899309228  0.3250554262312923 -0.0108068461067925
  0.3333756609914288  0.3336853742869476  0.3333372616367591
  0.3274778518164513  0.3439893860804368  0.6777042934209385
  0.3345494448233204  0.6662186868260315 -0.0118825107955123
  0.3224415451165076  0.6799960461778862  0.3325747108718932
  0.3221432880630120  0.6567727571774796  0.6711466898577367
  0.6663453360379102  0.0100727624782164 -0.0094184497657387
  0.6661015733421207  0.0143601109204048  0.3324640017231916
  0.6671329151391912 -0.0107953792371957  0.6770641877067447
  0.6538280690790713  0.3246503623093849 -0.0008491833897233
  0.6760677840030184  0.3261513918862361  0.3391237731860245
  0.6674953135436374  0.3334733327620142  0.6538403565241367
  0.6793538797306841  0.6673949067488111 -0.0093709232071315
  0.6661782628105187  0.6668260781731229  0.3338148456734920
  0.6667638003118944  0.6774090334066993  0.6783735686731447
  0.0013769817546932  0.8338981268236570  0.0052564100391948
 -0.0047180710927452  0.8310641316215547  0.3280469635696678
 -0.0086071675815851  0.8331479933692023  0.6665705404905732
  0.3362799104781679  0.1672470479683527  0.0019885033957335
  0.3372545940387232  0.4985986970875649  0.6573941687763399
  0.3371996136054256  0.8322582649782586  0.3292987859061383
  0.6661287567603720  0.1670778194802318  0.0047482482071856
  0.6629095149247249  0.1671137968782524  0.3263822549589316
  0.6714810681096711  0.8332054222533070  0.6580750003986896
  0.1671217815920332  0.0022419010024669 -0.0004809477548095
  0.1670671794459332  0.0044739077717096  0.3242748962405252
  0.1678098173702973  0.0005594487256116  0.6747775297447938
  0.1647045048269779  0.3301102786610611  0.6620801785809250
  0.1676380242824098  0.6627235353272346  0.3376774270161577
  0.1673111567414477  0.6674361324971767  0.6584873881466919
  0.5006311739771068  0.3392841160710979  0.0040004954892330
  0.8323734607048908  0.3372843403493079  0.3334165059396418
  0.8318503410221925  0.6652409031158992  0.0055288344035005
 -0.0000281309198550  0.0039210285967326  0.4989182294700915
  0.0030306108613226  0.3332079728190515  0.1667785429514202
  0.0013664611741523  0.6619902433882874  0.8340256102160932
  0.3335910461386431  0.0045639481934049  0.4992300131510783
  0.3319928133581833  0.3390533206911772  0.8339330515204767
  0.3347611318807421  0.6645918266596913  0.8363181977665610
  0.6668958682153415 -0.0025280121779423  0.8340549178445679
  0.6621453335015967  0.3352765009455584  0.4994949482560903
  0.6645919596852288  0.6700926762391324  0.8335876016757874
 -0.0063172108095833  0.1695864653853378 -0.0048557793931582
 -0.0026672249660008  0.1690067740961861  0.3330306064260190
 -0.0074418900553436  0.1690459476437603  0.6724539915186700
  0.0048026119603487  0.4977148358589594  0.0004443074558486
  0.0019102831114627  0.4978837707963829  0.3386936075163933
 -0.0047094161079639  0.4966538941039068  0.6616863948743416
  0.3412963045770248  0.1711938368021843  0.3245987575280216
  0.3395705377646697  0.1681125653413703  0.6696604277901651
  0.3272299971334544  0.5000604607326865  0.0086105287677976
  0.3368472065384493  0.4963448299903147  0.3401651870641535
  0.3354971463486314  0.8317714011580766  0.0068515235580865
  0.3422788308085180  0.8325702764573502  0.6654911184465420
  0.6674514149914519  0.1680705169528241  0.6660719804662493
  0.6679662656393909  0.4998830668313241  0.0020496478596870
  0.6608884592973668  0.5022379821304820  0.3297046685844989
  0.6628241679848852  0.4990658680073398  0.6670124869232522
  0.6643134454276595  0.8337989254561597  0.0081204800399849
  0.6678733256359315  0.8301657834326367  0.3398045257960214
  0.1643749074008793  0.3315786873133040 -0.0010725855692876
  0.1695125535241194  0.3318238452531241  0.3424574440701929
  0.1687699014056406  0.6661111997149353  0.0097562042071864
  0.5006613228918617 -0.0065496589815630  0.0036902465320675
  0.5027927030293394 -0.0024177450419171  0.3320607150518882
  0.5023071451179226  0.0035830741767871  0.6644840448160698
  0.4977828697513149  0.3383672268669743  0.3237888082149606
  0.5024965610024756  0.3286648626120594  0.6690838726488879
  0.5009134157641504  0.6630690356144818  0.0070873632236769
  0.5034524429823455  0.6630817146860989  0.3340688465571477
  0.5022199044680367  0.6665403970394499  0.6604262153298021
  0.8322405625019430 -0.0009729195818336  0.0047110625229693
  0.8298358432705502  0.0005462193606667  0.3311152582488328
  0.8312814144169017  0.0100155789570935  0.6643495278375523
  0.8334144456095355  0.3390853702652372 -0.0006862506780550
  0.8324439246642844  0.3347977118791995  0.6661834308756085
  0.8284079462459305  0.6588512581564374  0.3286034634889241
  0.8308744817492077  0.6551495781786901  0.6615116985857206
 -0.0083450334290082  0.0121915404785312  0.1662697279929980
 -0.0102647356630672  0.0049221160010043  0.8348644773609570
 -0.0025297097558848  0.3286634574802551  0.4994819935492263
 -0.0018035032250105  0.3373445478975341  0.8347270343096025
 -0.0000823075306054  0.6532792360457127  0.1678596611520685
 -0.0115949611711194  0.6609585380799158  0.4979645173815306
  0.3429874015469490  0.0017975698048423  0.1669537447283532
  0.3444027242301803 -0.0047374710997576  0.8338722940208185
  0.3227079092174629  0.3395926610684373  0.1707805787794270
  0.3425100842277032  0.3233322058369145  0.4956699765509832
  0.3391504882486058  0.6583370668595794  0.1678342360967211
  0.3451813771444817  0.6688516873840593  0.4979522578145486
  0.6661838479471645 -0.0098938434425484  0.1684730175461321
  0.6666399991268446  0.0049935349141894  0.4980977785705306
  0.6690910762705778  0.3426231636914038  0.1676308152804915
  0.6691346183026515  0.3350054443691199  0.8306642165946879
  0.6612971481435830  0.6688428886387383  0.1708946037078554
  0.6680343135369508  0.6584438093532627  0.4962561348905143
 
  0.00000000E+00  0.00000000E+00  0.00000000E+00
  0.00000000E+00  0.00000000E+00  0.00000000E+00
  0.00000000E+00  0.00000000E+00  0.00000000E+00
  0.00000000E+00  0.00000000E+00  0.00000000E+00
  0.00000000E+00  0.00000000E+00  0.00000000E+00
  0.00000000E+00  0.00000000E+00  0.00000000E+00
  0.00000000E+00  0.00000000E+00  0.00000000E+00
  0.00000000E+00  0.00000000E+00  0.00000000E+00
  0.00000000E+00  0.00000000E+00  0.00000000E+00
  0.00000000E+00  0.00000000E+00  0.00000000E+00
  0.00000000E+00  0.00000000E+00  0.00000000E+00
  0.00000000E+00  0.00000000E+00  0.00000000E+00
  0.00000000E+00  0.00000000E+00  0.00000000E+00
  0.00000000E+00  0.00000000E+00  0.00000000E+00
  0.00000000E+00  0.00000000E+00  0.00000000E+00
  0.00000000E+00  0.00000000E+00  0.00000000E+00
  0.00000000E+00  0.00000000E+00  0.00000000E+00
  0.00000000E+00  0.00000000E+00  0.00000000E+00
  0.00000000E+00  0.00000000E+00  0.00000000E+00
  0.00000000E+00  0.00000000E+00  0.00000000E+00
  0.00000000E+00  0.00000000E+00  0.00000000E+00
  0.00000000E+00  0.00000000E+00  0.00000000E+00
  0.00000000E+00  0.00000000E+00  0.00000000E+00
  0.00000000E+00  0.00000000E+00  0.00000000E+00
  0.00000000E+00  0.00000000E+00  0.00000000E+00
  0.00000000E+00  0.00000000E+00  0.00000000E+00
  0.00000000E+00  0.00000000E+00  0.00000000E+00
  0.00000000E+00  0.00000000E+00  0.00000000E+00
  0.00000000E+00  0.00000000E+00  0.00000000E+00
  0.00000000E+00  0.00000000E+00  0.00000000E+00
  0.00000000E+00  0.00000000E+00  0.00000000E+00
  0.00000000E+00  0.00000000E+00  0.00000000E+00
  0.00000000E+00  0.00000000E+00  0.00000000E+00
  0.00000000E+00  0.00000000E+00  0.00000000E+00
  0.00000000E+00  0.00000000E+00  0.00000000E+00
  0.00000000E+00  0.00000000E+00  0.00000000E+00
  0.00000000E+00  0.00000000E+00  0.00000000E+00
  0.00000000E+00  0.00000000E+00  0.00000000E+00
  0.00000000E+00  0.00000000E+00  0.00000000E+00
  0.00000000E+00  0.00000000E+00  0.00000000E+00
  0.00000000E+00  0.00000000E+00  0.00000000E+00
  0.00000000E+00  0.00000000E+00  0.00000000E+00
  0.00000000E+00  0.00000000E+00  0.00000000E+00
  0.00000000E+00  0.00000000E+00  0.00000000E+00
  0.00000000E+00  0.00000000E+00  0.00000000E+00
  0.00000000E+00  0.00000000E+00  0.00000000E+00
  0.00000000E+00  0.00000000E+00  0.00000000E+00
  0.00000000E+00  0.00000000E+00  0.00000000E+00
  0.00000000E+00  0.00000000E+00  0.00000000E+00
  0.00000000E+00  0.00000000E+00  0.00000000E+00
  0.00000000E+00  0.00000000E+00  0.00000000E+00
  0.00000000E+00  0.00000000E+00  0.00000000E+00
  0.00000000E+00  0.00000000E+00  0.00000000E+00
  0.00000000E+00  0.00000000E+00  0.00000000E+00
  0.00000000E+00  0.00000000E+00  0.00000000E+00
  0.00000000E+00  0.00000000E+00  0.00000000E+00
  0.00000000E+00  0.00000000E+00  0.00000000E+00
  0.00000000E+00  0.00000000E+00  0.00000000E+00
  0.00000000E+00  0.00000000E+00  0.00000000E+00
  0.00000000E+00  0.00000000E+00  0.00000000E+00
  0.00000000E+00  0.00000000E+00  0.00000000E+00
  0.00000000E+00  0.00000000E+00  0.00000000E+00
  0.00000000E+00  0.00000000E+00  0.00000000E+00
  0.00000000E+00  0.00000000E+00  0.00000000E+00
  0.00000000E+00  0.00000000E+00  0.00000000E+00
  0.00000000E+00  0.00000000E+00  0.00000000E+00
  0.00000000E+00  0.00000000E+00  0.00000000E+00
  0.00000000E+00  0.00000000E+00  0.00000000E+00
  0.00000000E+00  0.00000000E+00  0.00000000E+00
  0.00000000E+00  0.00000000E+00  0.00000000E+00
  0.00000000E+00  0.00000000E+00  0.00000000E+00
  0.00000000E+00  0.00000000E+00  0.00000000E+00
  0.00000000E+00  0.00000000E+00  0.00000000E+00
  0.00000000E+00  0.00000000E+00  0.00000000E+00
  0.00000000E+00  0.00000000E+00  0.00000000E+00
  0.00000000E+00  0.00000000E+00  0.00000000E+00
  0.00000000E+00  0.00000000E+00  0.00000000E+00
  0.00000000E+00  0.00000000E+00  0.00000000E+00
  0.00000000E+00  0.00000000E+00  0.00000000E+00
  0.00000000E+00  0.00000000E+00  0.00000000E+00
  0.00000000E+00  0.00000000E+00  0.00000000E+00
  0.00000000E+00  0.00000000E+00  0.00000000E+00
  0.00000000E+00  0.00000000E+00  0.00000000E+00
  0.00000000E+00  0.00000000E+00  0.00000000E+00
  0.00000000E+00  0.00000000E+00  0.00000000E+00
  0.00000000E+00  0.00000000E+00  0.00000000E+00
  0.00000000E+00  0.00000000E+00  0.00000000E+00
  0.00000000E+00  0.00000000E+00  0.00000000E+00
  0.00000000E+00  0.00000000E+00  0.00000000E+00
  0.00000000E+00  0.00000000E+00  0.00000000E+00
  0.00000000E+00  0.00000000E+00  0.00000000E+00
  0.00000000E+00  0.00000000E+00  0.00000000E+00
  0.00000000E+00  0.00000000E+00  0.00000000E+00
  0.00000000E+00  0.00000000E+00  0.00000000E+00
  0.00000000E+00  0.00000000E+00  0.00000000E+00
  0.00000000E+00  0.00000000E+00  0.00000000E+00
  0.00000000E+00  0.00000000E+00  0.00000000E+00
  0.00000000E+00  0.00000000E+00  0.00000000E+00
  0.00000000E+00  0.00000000E+00  0.00000000E+00
  0.00000000E+00  0.00000000E+00  0.00000000E+00
  0.00000000E+00  0.00000000E+00  0.00000000E+00
  0.00000000E+00  0.00000000E+00  0.00000000E+00
  0.00000000E+00  0.00000000E+00  0.00000000E+00
  0.00000000E+00  0.00000000E+00  0.00000000E+00
  0.00000000E+00  0.00000000E+00  0.00000000E+00
  0.00000000E+00  0.00000000E+00  0.00000000E+00
  0.00000000E+00  0.00000000E+00  0.00000000E+00
  0.00000000E+00  0.00000000E+00  0.00000000E+00
