TiOF2 2x2x2 config 0254                 
   1.00000000000000     
     7.8591698570835771    0.0000033317044205    0.0000007314592500
     0.0000032475440524    7.6497586242954627    0.0000003149179813
     0.0000007151191896    0.0000003138703143    7.6520735789698433
   Ti   O    F 
     8     8    16
Direct
  0.0000000234668884  0.9886070115716893  0.9886851012715649
  1.0000000276755976  0.9886071063771450  0.5113146212947228
  0.9999999452480417  0.5112948424904584  0.9880605873788684
 -0.0000000160516077  0.5112949342803520  0.5119396881928411
  0.5000000312805341  0.9887378814186816  0.9879129058466998
  0.5000000192094430  0.9887377252939926  0.5120873291452545
  0.4999999684653813  0.5112194210061821  0.0126150068446265
  0.4999999416338543  0.5112190219733965  0.4873852940699154
  0.0000000041408682  0.7499981455056395  0.0066664550040124
  0.9999999876344615  0.7499977872383425  0.4933336672618632
  0.4999999914223280  0.7500057950219580  0.9995055710648396
  0.4999999781520105  0.7500066622051604  0.5004944967946028
  1.0000000117344754  0.0060278508767994  0.7500002227395035
 -0.0000000104849043  0.4939200088608606  0.7499999043686887
  0.4999999909897598  0.0050345965806281  0.7499992833319122
  0.4999999736309606  0.4952081285911302  0.2499997717290283
  0.2500023434954096  0.0062346031813358  0.0066639554978748
  0.2500025204099653  0.0062347055255760  0.4933359003257262
  0.2500217160993426  0.4936433884595702  0.9993748476980275
  0.2500217518999082  0.4936433105638042  0.5006252928024101
  0.7499976576255002  0.0062344742781327  0.0066639582920234
  0.7499974693860715  0.0062347436736403  0.4933358895281880
  0.7499782775780218  0.4936434826770389  0.9993748404853015
  0.7499782445567685  0.4936432911373245  0.5006252510182410
  0.9999999540107203  0.2500619912005448  0.0088699060079745
  0.0000000420839125  0.2500621082511039  0.4911301708269209
  0.5000000716342267  0.2500776779686489  0.9996703022603054
  0.4999999299985191  0.2500775191423038  0.5003296944337440
  0.0000000242902263  0.0086313767451315  0.2499998890801318
  0.0000001509365239  0.4915746185209021  0.2500000654437913
  0.4999999932461898  0.0094607654343976  0.2500000866644250
  0.4999999846006087  0.4906250239481213  0.7500000432959845
 
  0.00000000E+00  0.00000000E+00  0.00000000E+00
  0.00000000E+00  0.00000000E+00  0.00000000E+00
  0.00000000E+00  0.00000000E+00  0.00000000E+00
  0.00000000E+00  0.00000000E+00  0.00000000E+00
  0.00000000E+00  0.00000000E+00  0.00000000E+00
  0.00000000E+00  0.00000000E+00  0.00000000E+00
  0.00000000E+00  0.00000000E+00  0.00000000E+00
  0.00000000E+00  0.00000000E+00  0.00000000E+00
  0.00000000E+00  0.00000000E+00  0.00000000E+00
  0.00000000E+00  0.00000000E+00  0.00000000E+00
  0.00000000E+00  0.00000000E+00  0.00000000E+00
  0.00000000E+00  0.00000000E+00  0.00000000E+00
  0.00000000E+00  0.00000000E+00  0.00000000E+00
  0.00000000E+00  0.00000000E+00  0.00000000E+00
  0.00000000E+00  0.00000000E+00  0.00000000E+00
  0.00000000E+00  0.00000000E+00  0.00000000E+00
  0.00000000E+00  0.00000000E+00  0.00000000E+00
  0.00000000E+00  0.00000000E+00  0.00000000E+00
  0.00000000E+00  0.00000000E+00  0.00000000E+00
  0.00000000E+00  0.00000000E+00  0.00000000E+00
  0.00000000E+00  0.00000000E+00  0.00000000E+00
  0.00000000E+00  0.00000000E+00  0.00000000E+00
  0.00000000E+00  0.00000000E+00  0.00000000E+00
  0.00000000E+00  0.00000000E+00  0.00000000E+00
  0.00000000E+00  0.00000000E+00  0.00000000E+00
  0.00000000E+00  0.00000000E+00  0.00000000E+00
  0.00000000E+00  0.00000000E+00  0.00000000E+00
  0.00000000E+00  0.00000000E+00  0.00000000E+00
  0.00000000E+00  0.00000000E+00  0.00000000E+00
  0.00000000E+00  0.00000000E+00  0.00000000E+00
  0.00000000E+00  0.00000000E+00  0.00000000E+00
  0.00000000E+00  0.00000000E+00  0.00000000E+00
