config 39                               
   1.00000000000000     
    15.4263309999999993    0.0000000000000000    0.0000000000000000
     0.0000000000000000   15.4263309999999993    0.0000000000000000
     0.0000000000000000    0.0000000000000000   15.4263309999999993
   Li   Ti   O    F 
     1    64    64   128
Direct
  0.6323920588430977  0.3677583913487961  0.6222002630379190
  0.9952942353598494  0.9955766079039424  0.9944961383688236
  0.9996247822218425  0.9922844270185623  0.4933960699092609
  0.0053613511595077  0.4954201093626158  0.9972211549496465
  0.9954710118653665  0.5030617287807536  0.5078222582468835
  0.4942436985337772  0.9946429635388342  0.9996743763994014
  0.5030545836876826  0.0077223019478770  0.5001456883885296
  0.5037141878560514  0.4957886095559795  0.9961091824517079
  0.4910264424282287  0.5002562219625004  0.4945721466915592
  0.0066209868647706  0.0029499712153068  0.2560415050711843
  0.0013302415494238  0.0078479987435670  0.7565532697963826
  0.9931584297992585  0.4941288345851968  0.2513333894540213
  0.9933681526850842  0.4992375444900994  0.7415904607683591
  0.5062222512362309  0.0085509367376409  0.2509355538870975
  0.4932810055601942  0.0042731951970688  0.7514670611582472
  0.4924735245667481  0.4972251835738621  0.2565046884754911
  0.4996339103418937  0.5054741853419383  0.7587888696480672
  0.9950697942346185  0.2572779344873038  0.0009932384900044
  0.9983235666490438  0.2480659483025522  0.4914612679923022
  0.9978972734147951  0.7580042578596797  0.0062142418726793
  0.9976405488306014  0.7569127054479898  0.5059014274018641
  0.4947359801547011  0.2581225667186232  0.9999818482414718
  0.5070057067040460  0.2461304178282402  0.4998637425942066
  0.5070263375686743  0.7566193601945962  0.9991693532848203
  0.5068101152534096  0.7535935168094051  0.5091152530062293
  0.9994583041165023  0.2583143391852453  0.2552640770856716
  0.0067201781184416  0.2424878758820506  0.7472376014755896
  0.0067016975877399  0.7487278116259356  0.2431925513227935
  0.9927300669950705  0.7508682912421997  0.7432691432537840
  0.5075523453343677  0.2427344584652995  0.2509623039715379
  0.5065785409641622  0.2420294027903958  0.7483995361099718
  0.5067216363492238  0.7517044945418675  0.2519336556347455
  0.5014276022987841  0.7430046321245138  0.7433000729964618
  0.2562949831625945  0.9989048421505926  0.0059439323585777
  0.2511730192682361  0.9943169750022915  0.5062995976129718
  0.2432969389907677  0.5078839490748149  0.9972645377609505
  0.2540326108283696  0.4949116632555167  0.5068285885733677
  0.7572477577285911  0.0002539222625344  0.9945403160547110
  0.7497663469280560  0.0064258186198165  0.4947066341216561
  0.7417011493322366  0.5003510623261604  0.0045255761914384
  0.7567932144404921  0.4968770818091602  0.5054678358368513
  0.2448574757481395  0.0025430982621150  0.2437688673129528
  0.2576534679458473  0.9984288225133936  0.7441225478616423
  0.2549222497365361  0.4926797003792043  0.2515352169984877
  0.2465455779818531  0.5064968919087033  0.7410292090859362
  0.7447339008309802  0.9999096254178074  0.2560465354932105
  0.7478849479691778  0.0052767182439450  0.7561223854983505
  0.7552645237072193  0.4988656068625962  0.2423493061431634
  0.7575485314961972  0.4972594171494713  0.7422172563992496
  0.2569543062287364  0.2513973844331823  0.0053152460907124
  0.2530427131125261  0.2570430176546202  0.5052412415759242
  0.2517187004271116  0.7427760762715409  0.9937758812563404
  0.2520108146653848  0.7556056971330137  0.4930022927096005
  0.7569155990573884  0.2505429300151629  0.0070466027239991
  0.7410656780221641  0.2426752705838498  0.4998632027460204
  0.7417067686024341  0.7492858587915162  0.9941871390462736
  0.7418572834102493  0.7519994574984498  0.4944699923526651
  0.2509900801959621  0.2578104849152731  0.2433082824073635
  0.2445272845075393  0.2518381085547006  0.7437304175604705
  0.2438830342120308  0.7484691869350345  0.2558999700228164
  0.2479168449501503  0.7423193287119345  0.7567759738477076
  0.7421492736500136  0.2505728041617458  0.2424817546744057
  0.7439283644436576  0.2415347264229611  0.7503540710040016
  0.7455266972005343  0.7498966391713309  0.2568709930887111
  0.7572523534549425  0.7500287594026347  0.7565998762787586
  0.0123986013924012  0.5019012777831686  0.6248884489602965
  0.9949902241224436  0.0060893478570187  0.3761328847565182
  0.9987852517711477  0.0025448245514226  0.8726540682342834
  0.4978403750509582  0.4957885517035389  0.3749199974439575
  0.4921469998780014  0.4996557995425991  0.8747095546848245
  0.9982491373376544  0.7458331015812806  0.1257468613704398
  0.0010388148412923  0.7460883178422804  0.6243390858160582
  0.5007540208097564  0.7573084968233709  0.6252201062089670
  0.9961697939823378  0.2472297858595398  0.3765207400135032
  0.2537421227233198  0.0036178445492790  0.1252569507179630
  0.2534041684904740  0.0038399270819065  0.6254482768349148
  0.2359818175095894  0.4957835577838163  0.6258395659356726
  0.7489259705084790  0.4923069242580372  0.1252646653260417
  0.7361650204656643  0.4783220129816434  0.6244162044397357
  0.7516401817882445  0.9983555880373952  0.3761202076349894
  0.7471376222833956  0.9973214871091945  0.8733080402663042
  0.2463710912513496  0.2498212791533793  0.1251244107630715
  0.2548873720741643  0.2499905867688572  0.6254068366348141
  0.7460730960988363  0.2573117817188729  0.1259249715329712
  0.2545550253204898  0.7468965104211970  0.3747211569472559
  0.2505740305559739  0.7529109484953180  0.8752487771620071
  0.7517944722753500  0.7501085196768907  0.3745599363523206
  0.7473942718380961  0.7512305040753586  0.8750682075711607
  0.1239349497437527  0.5033582229504056  0.9924724397584852
  0.6257670273785466  0.5067484406033101  0.9961359673856454
  0.1253227609043865  0.0025856164850116  0.2526300762064465
  0.6253824792057481  0.9999487839111560  0.2499428574036422
  0.6289963031680915  0.2699730353087430  0.5192088861698457
  0.6246529184192582  0.7424557762310450  0.0039381123287393
  0.6248283735433884  0.7622651574147460  0.4968507005605998
  0.1248109779415244  0.2511971084833945  0.7479613959011179
  0.1253177383503519  0.7525207157095313  0.2516619775474741
  0.6255964814903743  0.2465901421388677  0.2568535666025523
  0.6261386769653393  0.2622477384301833  0.7307790422369930
  0.6230022547047767  0.7551096720497594  0.2505658235070051
  0.3759551253381835  0.0005147514839395  0.9932005293924951
  0.3747924181781113  0.5073135219374512  0.5069508423470362
  0.8730170397130774  0.0026668210716789  0.0007737613634648
  0.8754334261727037  0.5041930862043019  0.5065288535070966
  0.3765964336723733  0.9980289202912113  0.7558225950020943
  0.3736956096275799  0.4974874349214673  0.2471679792044736
  0.8751120326206260  0.4991339553189731  0.2508558941909252
  0.8747004217958757  0.5077335360743117  0.7393108165732173
  0.3756854310856536  0.2479020371982012  0.0001222512366390
  0.8739987538928627  0.2473334079008057  0.0018305200778719
  0.8746669275197553  0.7432603823777296  0.7499315237870545
  0.5180881780478394  0.1185185020363894  0.4973684113976422
  0.9961574824847579  0.1262002986860606  0.7431997985369371
  0.4960079676636549  0.1252490966341411  0.2607320586723442
  0.5063331026617746  0.1234577101836559  0.7479260192627322
  0.5009954449606308  0.6256148445760296  0.7468520793876089
  0.9993405079637829  0.3753192968523471  0.0039027681544722
  0.0012978189238834  0.8750846490324108  0.0012588687597969
  0.9961184506464633  0.8749981080569912  0.4983300437852035
  0.5017628423078903  0.3746514324136193  0.0054880329764744
  0.5039388791888224  0.8753136173041478  0.0018603673808584
  0.0055756742850293  0.3742688033165869  0.2473636057104172
  0.2546479563245843  0.6252781659827635  0.0016706033435503
  0.7376023294576649  0.1242107574813850  0.5048327251858277
  0.2489580630195443  0.6248553076489030  0.7499623753648491
  0.7463377756502743  0.1246679476720067  0.7441313529716752
  0.2514775614363481  0.3738033801808139  0.4940527710951008
  0.2531940696953182  0.8758863214711112  0.4999145815153898
  0.2424644576017447  0.3749153323100698  0.2558413603053769
  0.0007185693439592  0.0026075536749748  0.1266326950514692
  0.0048633345901494  0.9974889301949822  0.6236461520753976
  0.0013300652442837  0.5086535398383500  0.1249782703580470
  0.4952638050231404  0.0053467096823489  0.1262770412048195
  0.4983429546770448  0.9897586485334749  0.6247004861221978
  0.5038882882333338  0.5074171683462990  0.1268931046089529
  0.5149347873188467  0.4964789918212156  0.6251394986295022
  0.9993400003544739  0.4959414502283679  0.3767455662404569
  0.9912940375857541  0.4978653944734007  0.8721374228443824
  0.5023587509390735  0.9894817733611619  0.3757171366031007
  0.5142639050530458  0.0018108943743948  0.8751364551236526
  0.0056596909083994  0.2458575369573957  0.1271303494278949
  0.9973343864720070  0.2588070304233331  0.6215989611371959
  0.5054203742701123  0.2401149482862926  0.1255196316493913
  0.4830305263649826  0.2485729677888490  0.6272777115232610
  0.4954875513509510  0.7477511683927301  0.1268932759087926
  0.9972166412732224  0.2505778235555094  0.8739668576623136
  0.9943549836378899  0.7503226925324813  0.3752312380632203
  0.0019670875535344  0.7509454221908990  0.8738805229585169
  0.4960019147464472  0.2648998095831490  0.3722145725005372
  0.5084242678958169  0.2517399541109889  0.8734930935205411
  0.4935254455510223  0.7498149776101427  0.3757150015114903
  0.4989189410326359  0.7488914112861650  0.8742021009062727
  0.2427147030756992  0.4950375333553498  0.1245342516623623
  0.7492172537541600  0.0044612080863244  0.1262876544501349
  0.7468096173985205  0.9948671208669310  0.6235812838504536
  0.2535771169297190  0.0014416378228281  0.3754927797732148
  0.2442368868306875  0.9949744508962747  0.8743825110492544
  0.2491811034451795  0.5112224921375432  0.3752632293484444
  0.2606064008383676  0.4979539026318625  0.8733545298128459
  0.7486882070153158  0.5070107125763899  0.3762286471575441
  0.7543783387046262  0.5061189336112057  0.8725642980578937
  0.2524625594580150  0.7543436253324363  0.1250632315678071
  0.2490855396861193  0.7514760566791832  0.6252536586032674
  0.7624087988764706  0.2668820494088447  0.6247154382855147
  0.7530094506662306  0.7467715898197202  0.1258832930795893
  0.7480251204533148  0.7490769945318004  0.6245636227756852
  0.2506353638740079  0.2444024928734699  0.3740733626302407
  0.2493626594527931  0.2515152151490603  0.8752370433884249
  0.7542489894388760  0.2427864922378407  0.3751648166243858
  0.7445412486159444  0.2445587157306069  0.8752242436241147
  0.1259442906732301  0.0019177163644648  0.0010004868684399
  0.1251976083246204  0.0042623332841750  0.4973746443132052
  0.1231640562775048  0.5005533571741697  0.4895078732264906
  0.6253775280311524  0.0011862675367744  0.0070493516662967
  0.6256332092082969  0.9768306453611887  0.5020369118163599
  0.6259070315464383  0.4874416488130944  0.4966232891444073
  0.1269485154639769  0.0015866073112004  0.7484429304725212
  0.1234928852296643  0.5069329239314901  0.2511898256112812
  0.1228745059264561  0.4942388478384078  0.7652046506242332
  0.6239941008527105  0.9913704665727460  0.7422005366417158
  0.6252958061460310  0.4979099266584360  0.2521189900775885
  0.6259784080984727  0.4902030731316390  0.7568802231847774
  0.1246217746500846  0.2504098255159765  0.9951716596461223
  0.1233440577520317  0.2465289500064322  0.5003755056162551
  0.1249409358064461  0.7456144680395884  0.0014590901442377
  0.1242028606859214  0.7502050763934852  0.4961716141687468
  0.6260315554072416  0.2499872519595767  0.9980097877041493
  0.1242653008139842  0.2378889856498576  0.2553081782795645
  0.1231932569386719  0.7532424078702797  0.7504219593645082
  0.6262288076046485  0.7536528418809427  0.7496970421062222
  0.3778173402552572  0.0091180424388923  0.4976029186365392
  0.3730558377929328  0.4963879327654322  0.0085407291423719
  0.8745884002015524  0.0082486364839240  0.5092414383075223
  0.8742515157817445  0.4985586989449798  0.0001839756048321
  0.3769985805291250  0.9969558041220931  0.2545810590213234
  0.3744260248225785  0.4976228400001102  0.7375537615005228
  0.8741131930585495  0.9992893656198010  0.2461418313753448
  0.8739097423581076  0.9953466706916624  0.7418281249930134
  0.3773509033519077  0.2419599721071610  0.4930917319794441
  0.3764202767050385  0.7563298125843099  0.0012683559656363
  0.3771105633182611  0.7404861929270463  0.5026171283684091
  0.8743388773680890  0.2467275912902044  0.5026955111039636
  0.8721494570835910  0.7538499002670881  0.9981985518023210
  0.8726194750658696  0.7408151449541488  0.5029565963421972
  0.3774536622302751  0.2567130995625001  0.2464591918923209
  0.3767601491122278  0.2496026919477436  0.7588502670567899
  0.3770081165534758  0.7476968502234488  0.2478268406056455
  0.3748564030189578  0.7556538658788221  0.7494796751671496
  0.8739702663478310  0.2542932274065287  0.2475015290502644
  0.8735173261848271  0.2524107092730172  0.7512271025137014
  0.8735771232294434  0.7463944142881329  0.2495566303568852
  0.0040321662018706  0.1269892040560019  0.0012529585863749
  0.9992572767983879  0.1256215062260073  0.5095010443676703
  0.9938701438194634  0.6254132747966052  0.9940306509302512
  0.0030333568500637  0.6263947586962003  0.4925728701124308
  0.5047620749600186  0.1247873858694492  0.9973428723514135
  0.4901839466130998  0.6274011863936685  0.0011452872004497
  0.5110988876760765  0.6264992664029463  0.5011278994777324
  0.9923327712841207  0.1277502712525036  0.2464024995340371
  0.9996503936868958  0.6235284948493011  0.2576353112943964
  0.0096247252186289  0.6243661141705956  0.7556158689708918
  0.5025537042110282  0.6260122335937121  0.2528154880573741
  0.0008500306954945  0.3742491550307106  0.4986215714977319
  0.4930653467252447  0.3766917374651201  0.5103297012255216
  0.4854009425207668  0.8755829622102175  0.4946762295871193
  0.9950410967993385  0.3747336823049428  0.7506924920968219
  0.9947337512159855  0.8759509841740863  0.2512354448432129
  0.9998503053684211  0.8758980740908822  0.7475032850581337
  0.5029513418548645  0.3728633237149896  0.2380998344271072
  0.4978739328996581  0.3745916126046107  0.7442744745135829
  0.4951928801066637  0.8757883824533951  0.2472646435749563
  0.5020699276583910  0.8746710161758195  0.7580961500058419
  0.2456565586386699  0.1249844845099331  0.9931295313308077
  0.2483947812995282  0.1248802241357573  0.4968431766000896
  0.2443002680674814  0.6266501752842660  0.5049206310878748
  0.7428433093124864  0.1258425470127998  0.0005362153410628
  0.7606105034429249  0.6251864422810985  0.0022392864351832
  0.7413148999934345  0.6238637933453377  0.5065773059128894
  0.2590751852941487  0.1267753236143559  0.2535478242194800
  0.2520228839838636  0.1249551335063961  0.7575821831982479
  0.2501886091443012  0.6239430165469242  0.2414257458259228
  0.7581952787698140  0.1257466459859119  0.2493379477894493
  0.7448807470546283  0.6246962470945050  0.2475932949352910
  0.7387881550192144  0.6233305233362580  0.7427645867186246
  0.2489027144386434  0.3763525513349011  0.9975499206624786
  0.2454766217662191  0.8740914565449022  0.0032819888061166
  0.7488392923369336  0.3749175775829478  0.9875135075270159
  0.7614624166345163  0.3725905286403370  0.4851723902836325
  0.7463388629759145  0.8745891350531603  0.0087290852072691
  0.7645205777924592  0.8752116848736745  0.5033616682791119
  0.2534969937574897  0.3763175586882872  0.7559890903162049
  0.2549891234168929  0.8757709168571222  0.2510365575032465
  0.2461544029053161  0.8739988372413784  0.7464011914583121
  0.7494218470060150  0.3741764650984328  0.2642816067074953
  0.7556291024214556  0.3736380495540478  0.7624384004319968
  0.7555400260793100  0.8747393034034328  0.2428851622915706
  0.7519097900524593  0.8743886831780600  0.7441677167506129
 
  0.00000000E+00  0.00000000E+00  0.00000000E+00
  0.00000000E+00  0.00000000E+00  0.00000000E+00
  0.00000000E+00  0.00000000E+00  0.00000000E+00
  0.00000000E+00  0.00000000E+00  0.00000000E+00
  0.00000000E+00  0.00000000E+00  0.00000000E+00
  0.00000000E+00  0.00000000E+00  0.00000000E+00
  0.00000000E+00  0.00000000E+00  0.00000000E+00
  0.00000000E+00  0.00000000E+00  0.00000000E+00
  0.00000000E+00  0.00000000E+00  0.00000000E+00
  0.00000000E+00  0.00000000E+00  0.00000000E+00
  0.00000000E+00  0.00000000E+00  0.00000000E+00
  0.00000000E+00  0.00000000E+00  0.00000000E+00
  0.00000000E+00  0.00000000E+00  0.00000000E+00
  0.00000000E+00  0.00000000E+00  0.00000000E+00
  0.00000000E+00  0.00000000E+00  0.00000000E+00
  0.00000000E+00  0.00000000E+00  0.00000000E+00
  0.00000000E+00  0.00000000E+00  0.00000000E+00
  0.00000000E+00  0.00000000E+00  0.00000000E+00
  0.00000000E+00  0.00000000E+00  0.00000000E+00
  0.00000000E+00  0.00000000E+00  0.00000000E+00
  0.00000000E+00  0.00000000E+00  0.00000000E+00
  0.00000000E+00  0.00000000E+00  0.00000000E+00
  0.00000000E+00  0.00000000E+00  0.00000000E+00
  0.00000000E+00  0.00000000E+00  0.00000000E+00
  0.00000000E+00  0.00000000E+00  0.00000000E+00
  0.00000000E+00  0.00000000E+00  0.00000000E+00
  0.00000000E+00  0.00000000E+00  0.00000000E+00
  0.00000000E+00  0.00000000E+00  0.00000000E+00
  0.00000000E+00  0.00000000E+00  0.00000000E+00
  0.00000000E+00  0.00000000E+00  0.00000000E+00
  0.00000000E+00  0.00000000E+00  0.00000000E+00
  0.00000000E+00  0.00000000E+00  0.00000000E+00
  0.00000000E+00  0.00000000E+00  0.00000000E+00
  0.00000000E+00  0.00000000E+00  0.00000000E+00
  0.00000000E+00  0.00000000E+00  0.00000000E+00
  0.00000000E+00  0.00000000E+00  0.00000000E+00
  0.00000000E+00  0.00000000E+00  0.00000000E+00
  0.00000000E+00  0.00000000E+00  0.00000000E+00
  0.00000000E+00  0.00000000E+00  0.00000000E+00
  0.00000000E+00  0.00000000E+00  0.00000000E+00
  0.00000000E+00  0.00000000E+00  0.00000000E+00
  0.00000000E+00  0.00000000E+00  0.00000000E+00
  0.00000000E+00  0.00000000E+00  0.00000000E+00
  0.00000000E+00  0.00000000E+00  0.00000000E+00
  0.00000000E+00  0.00000000E+00  0.00000000E+00
  0.00000000E+00  0.00000000E+00  0.00000000E+00
  0.00000000E+00  0.00000000E+00  0.00000000E+00
  0.00000000E+00  0.00000000E+00  0.00000000E+00
  0.00000000E+00  0.00000000E+00  0.00000000E+00
  0.00000000E+00  0.00000000E+00  0.00000000E+00
  0.00000000E+00  0.00000000E+00  0.00000000E+00
  0.00000000E+00  0.00000000E+00  0.00000000E+00
  0.00000000E+00  0.00000000E+00  0.00000000E+00
  0.00000000E+00  0.00000000E+00  0.00000000E+00
  0.00000000E+00  0.00000000E+00  0.00000000E+00
  0.00000000E+00  0.00000000E+00  0.00000000E+00
  0.00000000E+00  0.00000000E+00  0.00000000E+00
  0.00000000E+00  0.00000000E+00  0.00000000E+00
  0.00000000E+00  0.00000000E+00  0.00000000E+00
  0.00000000E+00  0.00000000E+00  0.00000000E+00
  0.00000000E+00  0.00000000E+00  0.00000000E+00
  0.00000000E+00  0.00000000E+00  0.00000000E+00
  0.00000000E+00  0.00000000E+00  0.00000000E+00
  0.00000000E+00  0.00000000E+00  0.00000000E+00
  0.00000000E+00  0.00000000E+00  0.00000000E+00
  0.00000000E+00  0.00000000E+00  0.00000000E+00
  0.00000000E+00  0.00000000E+00  0.00000000E+00
  0.00000000E+00  0.00000000E+00  0.00000000E+00
  0.00000000E+00  0.00000000E+00  0.00000000E+00
  0.00000000E+00  0.00000000E+00  0.00000000E+00
  0.00000000E+00  0.00000000E+00  0.00000000E+00
  0.00000000E+00  0.00000000E+00  0.00000000E+00
  0.00000000E+00  0.00000000E+00  0.00000000E+00
  0.00000000E+00  0.00000000E+00  0.00000000E+00
  0.00000000E+00  0.00000000E+00  0.00000000E+00
  0.00000000E+00  0.00000000E+00  0.00000000E+00
  0.00000000E+00  0.00000000E+00  0.00000000E+00
  0.00000000E+00  0.00000000E+00  0.00000000E+00
  0.00000000E+00  0.00000000E+00  0.00000000E+00
  0.00000000E+00  0.00000000E+00  0.00000000E+00
  0.00000000E+00  0.00000000E+00  0.00000000E+00
  0.00000000E+00  0.00000000E+00  0.00000000E+00
  0.00000000E+00  0.00000000E+00  0.00000000E+00
  0.00000000E+00  0.00000000E+00  0.00000000E+00
  0.00000000E+00  0.00000000E+00  0.00000000E+00
  0.00000000E+00  0.00000000E+00  0.00000000E+00
  0.00000000E+00  0.00000000E+00  0.00000000E+00
  0.00000000E+00  0.00000000E+00  0.00000000E+00
  0.00000000E+00  0.00000000E+00  0.00000000E+00
  0.00000000E+00  0.00000000E+00  0.00000000E+00
  0.00000000E+00  0.00000000E+00  0.00000000E+00
  0.00000000E+00  0.00000000E+00  0.00000000E+00
  0.00000000E+00  0.00000000E+00  0.00000000E+00
  0.00000000E+00  0.00000000E+00  0.00000000E+00
  0.00000000E+00  0.00000000E+00  0.00000000E+00
  0.00000000E+00  0.00000000E+00  0.00000000E+00
  0.00000000E+00  0.00000000E+00  0.00000000E+00
  0.00000000E+00  0.00000000E+00  0.00000000E+00
  0.00000000E+00  0.00000000E+00  0.00000000E+00
  0.00000000E+00  0.00000000E+00  0.00000000E+00
  0.00000000E+00  0.00000000E+00  0.00000000E+00
  0.00000000E+00  0.00000000E+00  0.00000000E+00
  0.00000000E+00  0.00000000E+00  0.00000000E+00
  0.00000000E+00  0.00000000E+00  0.00000000E+00
  0.00000000E+00  0.00000000E+00  0.00000000E+00
  0.00000000E+00  0.00000000E+00  0.00000000E+00
  0.00000000E+00  0.00000000E+00  0.00000000E+00
  0.00000000E+00  0.00000000E+00  0.00000000E+00
  0.00000000E+00  0.00000000E+00  0.00000000E+00
  0.00000000E+00  0.00000000E+00  0.00000000E+00
  0.00000000E+00  0.00000000E+00  0.00000000E+00
  0.00000000E+00  0.00000000E+00  0.00000000E+00
  0.00000000E+00  0.00000000E+00  0.00000000E+00
  0.00000000E+00  0.00000000E+00  0.00000000E+00
  0.00000000E+00  0.00000000E+00  0.00000000E+00
  0.00000000E+00  0.00000000E+00  0.00000000E+00
  0.00000000E+00  0.00000000E+00  0.00000000E+00
  0.00000000E+00  0.00000000E+00  0.00000000E+00
  0.00000000E+00  0.00000000E+00  0.00000000E+00
  0.00000000E+00  0.00000000E+00  0.00000000E+00
  0.00000000E+00  0.00000000E+00  0.00000000E+00
  0.00000000E+00  0.00000000E+00  0.00000000E+00
  0.00000000E+00  0.00000000E+00  0.00000000E+00
  0.00000000E+00  0.00000000E+00  0.00000000E+00
  0.00000000E+00  0.00000000E+00  0.00000000E+00
  0.00000000E+00  0.00000000E+00  0.00000000E+00
  0.00000000E+00  0.00000000E+00  0.00000000E+00
  0.00000000E+00  0.00000000E+00  0.00000000E+00
  0.00000000E+00  0.00000000E+00  0.00000000E+00
  0.00000000E+00  0.00000000E+00  0.00000000E+00
  0.00000000E+00  0.00000000E+00  0.00000000E+00
  0.00000000E+00  0.00000000E+00  0.00000000E+00
  0.00000000E+00  0.00000000E+00  0.00000000E+00
  0.00000000E+00  0.00000000E+00  0.00000000E+00
  0.00000000E+00  0.00000000E+00  0.00000000E+00
  0.00000000E+00  0.00000000E+00  0.00000000E+00
  0.00000000E+00  0.00000000E+00  0.00000000E+00
  0.00000000E+00  0.00000000E+00  0.00000000E+00
  0.00000000E+00  0.00000000E+00  0.00000000E+00
  0.00000000E+00  0.00000000E+00  0.00000000E+00
  0.00000000E+00  0.00000000E+00  0.00000000E+00
  0.00000000E+00  0.00000000E+00  0.00000000E+00
  0.00000000E+00  0.00000000E+00  0.00000000E+00
  0.00000000E+00  0.00000000E+00  0.00000000E+00
  0.00000000E+00  0.00000000E+00  0.00000000E+00
  0.00000000E+00  0.00000000E+00  0.00000000E+00
  0.00000000E+00  0.00000000E+00  0.00000000E+00
  0.00000000E+00  0.00000000E+00  0.00000000E+00
  0.00000000E+00  0.00000000E+00  0.00000000E+00
  0.00000000E+00  0.00000000E+00  0.00000000E+00
  0.00000000E+00  0.00000000E+00  0.00000000E+00
  0.00000000E+00  0.00000000E+00  0.00000000E+00
  0.00000000E+00  0.00000000E+00  0.00000000E+00
  0.00000000E+00  0.00000000E+00  0.00000000E+00
  0.00000000E+00  0.00000000E+00  0.00000000E+00
  0.00000000E+00  0.00000000E+00  0.00000000E+00
  0.00000000E+00  0.00000000E+00  0.00000000E+00
  0.00000000E+00  0.00000000E+00  0.00000000E+00
  0.00000000E+00  0.00000000E+00  0.00000000E+00
  0.00000000E+00  0.00000000E+00  0.00000000E+00
  0.00000000E+00  0.00000000E+00  0.00000000E+00
  0.00000000E+00  0.00000000E+00  0.00000000E+00
  0.00000000E+00  0.00000000E+00  0.00000000E+00
  0.00000000E+00  0.00000000E+00  0.00000000E+00
  0.00000000E+00  0.00000000E+00  0.00000000E+00
  0.00000000E+00  0.00000000E+00  0.00000000E+00
  0.00000000E+00  0.00000000E+00  0.00000000E+00
  0.00000000E+00  0.00000000E+00  0.00000000E+00
  0.00000000E+00  0.00000000E+00  0.00000000E+00
  0.00000000E+00  0.00000000E+00  0.00000000E+00
  0.00000000E+00  0.00000000E+00  0.00000000E+00
  0.00000000E+00  0.00000000E+00  0.00000000E+00
  0.00000000E+00  0.00000000E+00  0.00000000E+00
  0.00000000E+00  0.00000000E+00  0.00000000E+00
  0.00000000E+00  0.00000000E+00  0.00000000E+00
  0.00000000E+00  0.00000000E+00  0.00000000E+00
  0.00000000E+00  0.00000000E+00  0.00000000E+00
  0.00000000E+00  0.00000000E+00  0.00000000E+00
  0.00000000E+00  0.00000000E+00  0.00000000E+00
  0.00000000E+00  0.00000000E+00  0.00000000E+00
  0.00000000E+00  0.00000000E+00  0.00000000E+00
  0.00000000E+00  0.00000000E+00  0.00000000E+00
  0.00000000E+00  0.00000000E+00  0.00000000E+00
  0.00000000E+00  0.00000000E+00  0.00000000E+00
  0.00000000E+00  0.00000000E+00  0.00000000E+00
  0.00000000E+00  0.00000000E+00  0.00000000E+00
  0.00000000E+00  0.00000000E+00  0.00000000E+00
  0.00000000E+00  0.00000000E+00  0.00000000E+00
  0.00000000E+00  0.00000000E+00  0.00000000E+00
  0.00000000E+00  0.00000000E+00  0.00000000E+00
  0.00000000E+00  0.00000000E+00  0.00000000E+00
  0.00000000E+00  0.00000000E+00  0.00000000E+00
  0.00000000E+00  0.00000000E+00  0.00000000E+00
  0.00000000E+00  0.00000000E+00  0.00000000E+00
  0.00000000E+00  0.00000000E+00  0.00000000E+00
  0.00000000E+00  0.00000000E+00  0.00000000E+00
  0.00000000E+00  0.00000000E+00  0.00000000E+00
  0.00000000E+00  0.00000000E+00  0.00000000E+00
  0.00000000E+00  0.00000000E+00  0.00000000E+00
  0.00000000E+00  0.00000000E+00  0.00000000E+00
  0.00000000E+00  0.00000000E+00  0.00000000E+00
  0.00000000E+00  0.00000000E+00  0.00000000E+00
  0.00000000E+00  0.00000000E+00  0.00000000E+00
  0.00000000E+00  0.00000000E+00  0.00000000E+00
  0.00000000E+00  0.00000000E+00  0.00000000E+00
  0.00000000E+00  0.00000000E+00  0.00000000E+00
  0.00000000E+00  0.00000000E+00  0.00000000E+00
  0.00000000E+00  0.00000000E+00  0.00000000E+00
  0.00000000E+00  0.00000000E+00  0.00000000E+00
  0.00000000E+00  0.00000000E+00  0.00000000E+00
  0.00000000E+00  0.00000000E+00  0.00000000E+00
  0.00000000E+00  0.00000000E+00  0.00000000E+00
  0.00000000E+00  0.00000000E+00  0.00000000E+00
  0.00000000E+00  0.00000000E+00  0.00000000E+00
  0.00000000E+00  0.00000000E+00  0.00000000E+00
  0.00000000E+00  0.00000000E+00  0.00000000E+00
  0.00000000E+00  0.00000000E+00  0.00000000E+00
  0.00000000E+00  0.00000000E+00  0.00000000E+00
  0.00000000E+00  0.00000000E+00  0.00000000E+00
  0.00000000E+00  0.00000000E+00  0.00000000E+00
  0.00000000E+00  0.00000000E+00  0.00000000E+00
  0.00000000E+00  0.00000000E+00  0.00000000E+00
  0.00000000E+00  0.00000000E+00  0.00000000E+00
  0.00000000E+00  0.00000000E+00  0.00000000E+00
  0.00000000E+00  0.00000000E+00  0.00000000E+00
  0.00000000E+00  0.00000000E+00  0.00000000E+00
  0.00000000E+00  0.00000000E+00  0.00000000E+00
  0.00000000E+00  0.00000000E+00  0.00000000E+00
  0.00000000E+00  0.00000000E+00  0.00000000E+00
  0.00000000E+00  0.00000000E+00  0.00000000E+00
  0.00000000E+00  0.00000000E+00  0.00000000E+00
  0.00000000E+00  0.00000000E+00  0.00000000E+00
  0.00000000E+00  0.00000000E+00  0.00000000E+00
  0.00000000E+00  0.00000000E+00  0.00000000E+00
  0.00000000E+00  0.00000000E+00  0.00000000E+00
  0.00000000E+00  0.00000000E+00  0.00000000E+00
  0.00000000E+00  0.00000000E+00  0.00000000E+00
  0.00000000E+00  0.00000000E+00  0.00000000E+00
  0.00000000E+00  0.00000000E+00  0.00000000E+00
  0.00000000E+00  0.00000000E+00  0.00000000E+00
  0.00000000E+00  0.00000000E+00  0.00000000E+00
  0.00000000E+00  0.00000000E+00  0.00000000E+00
  0.00000000E+00  0.00000000E+00  0.00000000E+00
  0.00000000E+00  0.00000000E+00  0.00000000E+00
  0.00000000E+00  0.00000000E+00  0.00000000E+00
  0.00000000E+00  0.00000000E+00  0.00000000E+00
  0.00000000E+00  0.00000000E+00  0.00000000E+00
  0.00000000E+00  0.00000000E+00  0.00000000E+00
  0.00000000E+00  0.00000000E+00  0.00000000E+00
  0.00000000E+00  0.00000000E+00  0.00000000E+00
  0.00000000E+00  0.00000000E+00  0.00000000E+00
  0.00000000E+00  0.00000000E+00  0.00000000E+00
  0.00000000E+00  0.00000000E+00  0.00000000E+00
  0.00000000E+00  0.00000000E+00  0.00000000E+00
  0.00000000E+00  0.00000000E+00  0.00000000E+00
  0.00000000E+00  0.00000000E+00  0.00000000E+00
  0.00000000E+00  0.00000000E+00  0.00000000E+00
