config 34                               
   1.00000000000000     
    15.4263309999999993    0.0000000000000000    0.0000000000000000
     0.0000000000000000   15.4263309999999993    0.0000000000000000
     0.0000000000000000    0.0000000000000000   15.4263309999999993
   Li   Ti   O    F 
     1    64    64   128
Direct
  0.6062363918776804  0.1233774462605636  0.3560390050644895
  0.9951326679113790  0.9951900397842538  0.9950101566509911
  0.9982907350420097  0.9919849841228815  0.4937886643348315
  0.0059539917930005  0.4957051053773690  0.9976377737200215
  0.9948698718653428  0.5043404549712076  0.5072987548799350
  0.4945510957723009  0.9932018546954954  0.0000278320194043
  0.5012048009792004  0.0064845465651419  0.4975506399276561
  0.5041293220985754  0.4941029757297077  0.9966284846568814
  0.4928306209770412  0.4969923847601060  0.4958170779259937
  0.0060335620661493  0.0037574159384081  0.2563154885952230
  0.0012658067501253  0.0077849610467460  0.7570378297691078
  0.9938720992897975  0.4926469170294585  0.2515342571142100
  0.9932559695104565  0.4996065815372183  0.7418370450034647
  0.5041561149575183  0.0080005599978061  0.2508940942092177
  0.4925350961048723  0.0048257296135125  0.7521442944140401
  0.4935029022891615  0.4953294823353484  0.2577972562039558
  0.5012345635102531  0.5023549690637668  0.7590380696877191
  0.9954498379450850  0.2575485536310297  0.0024954102586240
  0.9981258456302761  0.2484556275534692  0.4914024628434564
  0.9980845530427517  0.7578678580502269  0.0063238335317773
  0.9964026408094593  0.7575501580823482  0.5058192289877725
  0.4952966558279382  0.2574411354383891  0.0016490040664148
  0.5102838657802888  0.2418169435880705  0.4949917857877577
  0.5071152649762679  0.7557651749918035  0.0002347401854364
  0.5073777008920747  0.7520500785184421  0.5088315339237084
  0.9988112243558964  0.2582438227345891  0.2555928761859114
  0.0063846667358214  0.2428172571418539  0.7480402179606690
  0.0065668930787751  0.7478549440928102  0.2433367025539325
  0.9929872768999697  0.7506164373437104  0.7431627542807425
  0.5067192654141313  0.2415232835305722  0.2519247178433378
  0.5070201705175272  0.2421348697776534  0.7506165258760977
  0.5066150583710213  0.7507882676696648  0.2514892597993134
  0.5020134001077632  0.7405640052671815  0.7440596260359856
  0.2560298591952256  0.9980265720890561  0.0055059758103404
  0.2520720785327341  0.9948899199379700  0.5060388489137188
  0.2441508089777063  0.5076495015742913  0.9975934673378019
  0.2557661369869827  0.4947131484547583  0.5064369639595355
  0.7565696123999168  0.9998645223909030  0.9951295798550696
  0.7501449044548500  0.0084077400810131  0.4956610576798636
  0.7417330922486440  0.5008025106012265  0.0051281131770431
  0.7564783639834106  0.4998152655878966  0.5057898781251084
  0.2435811531252594  0.0028914526224504  0.2433115775438891
  0.2577367250659762  0.9978386042598990  0.7441259921908958
  0.2554583480147510  0.4910955497794570  0.2517211391773848
  0.2472005837270927  0.5057293618502235  0.7408151486926193
  0.7456004456462677  0.0014989346731317  0.2567288266134877
  0.7481400163363360  0.0066267940922596  0.7571458101878494
  0.7556119620692245  0.4981724065626787  0.2430704405477818
  0.7576529551138137  0.4986846018032152  0.7427294631288620
  0.2571906942065096  0.2510311777133031  0.0062026948554214
  0.2541869055468958  0.2566391896648262  0.5048010902124312
  0.2521125685137203  0.7421865790968004  0.9939945468041377
  0.2529665971897239  0.7565327293658127  0.4932136406503606
  0.7566052101791914  0.2510039655641800  0.0086020908291064
  0.7416159444843149  0.2451942857865994  0.4971937783876980
  0.7415160803794321  0.7492237117741554  0.9945890008843374
  0.7416841857315001  0.7544448705412237  0.4946622850129149
  0.2496409498614597  0.2571899870201375  0.2433365101794751
  0.2437352216706357  0.2513456689017448  0.7435937689243899
  0.2439377529783893  0.7472912501398439  0.2561146477405176
  0.2480989681853693  0.7416664051839038  0.7567409659293219
  0.7409712108307314  0.2507391849988086  0.2433452956109415
  0.7444206145848270  0.2425278058750208  0.7522535532304427
  0.7454341112605812  0.7499570183282062  0.2572261315164506
  0.7573858871098791  0.7509161540834773  0.7571097310864330
  0.0103819065952802  0.5027154994981051  0.6247138074620346
  0.9937674903333081  0.0064490250517025  0.3760186495008571
  0.9991413429242910  0.0023097844269009  0.8733114867253928
  0.4990689281484509  0.4853682275087517  0.3752348744067949
  0.4929856403631066  0.4880782957717803  0.8750549667297606
  0.9983960909756483  0.7445645193491770  0.1258597421071656
  0.0017689483070357  0.7460266891456433  0.6240855624638845
  0.5031983226993003  0.7425050939165467  0.6244663281197503
  0.9870450118976047  0.2473813895621637  0.3763059033989677
  0.2535807083781838  0.0033481059772588  0.1248741010770826
  0.2544295817074885  0.0044400577951282  0.6253545611925138
  0.2381451037863813  0.4943259870015290  0.6254620239975990
  0.7490401521154194  0.4909218295572776  0.1260111227649704
  0.7453798459408745  0.4945029080895869  0.6244956002558401
  0.7543615767852837  0.0004784202469208  0.3756029624946715
  0.7461895372007339  0.9975608739780923  0.8747385183710982
  0.2391984388199634  0.2495299320453632  0.1255929741522819
  0.2467160111450183  0.2497400373566178  0.6245029847146935
  0.7320057908916493  0.2576581382360333  0.1281251789247256
  0.2549351730789370  0.7457171715017252  0.3746272326251320
  0.2519762551117639  0.7518552994339684  0.8754389288947099
  0.7523251694178742  0.7534471637824400  0.3743552845005382
  0.7482084082727957  0.7533263328238318  0.8759406664905804
  0.1244801980620742  0.5058894924329983  0.9932777492979785
  0.6256397199262300  0.5094561748577661  0.9972167035071620
  0.1244432892159660  0.0098261435695782  0.2520332689830934
  0.6245332122160500  0.0202510098029723  0.2602569627497477
  0.6265850208923349  0.2689573479269915  0.4842481853238486
  0.6243299106992429  0.7383626643180122  0.0034273984108547
  0.6248888794039227  0.7702961088653424  0.4963064804916915
  0.1245948737125131  0.2517899583538639  0.7555226044855315
  0.1251513368906253  0.7450162058747718  0.2521422693325774
  0.6251572972574982  0.2286463892383330  0.2750501293899691
  0.6261432516764107  0.2535851613806209  0.7553948749801739
  0.6225327495431827  0.7449488932661014  0.2514656957274882
  0.3761116515506540  0.9970426377760768  0.9931198572683103
  0.3765562018635278  0.5113100311514730  0.5051854047441631
  0.8723654633088912  0.9994485074587118  0.0023042753472922
  0.8759594813270422  0.5135843740835203  0.5014383027163769
  0.3756751235222282  0.9964066217908966  0.7597140851979270
  0.3744791866490108  0.4880153256445400  0.2476029458196617
  0.8752675173456732  0.4882490083704541  0.2517635691427259
  0.8756750721393842  0.5100260445847494  0.7445462797391016
  0.3760524354121181  0.2489984296941027  0.0113372256671064
  0.8731598856604482  0.2506674937981954  0.0145470084512647
  0.8748097957650878  0.7429247676766253  0.7493680721121161
  0.5273017683813934  0.1268723944104597  0.4676859086148058
  0.9963038157543879  0.1262950957539089  0.7440196584277252
  0.4892797216366940  0.1254238154048401  0.2752529171224395
  0.5020160414846870  0.1240989016201893  0.7613789064525914
  0.5026121007007744  0.6241159514635531  0.7581539493958283
  0.0020327341501504  0.3750359341055798  0.0054262863042954
  0.0042824257232548  0.8748005777868286  0.0023520283369666
  0.9821612161016394  0.8755104210647305  0.4988095280876213
  0.5056934910710450  0.3730293085949528  0.0154134540743106
  0.5064515826572684  0.8745366818975191  0.0137404523879863
  0.0130199934100296  0.3734979343890667  0.2475420786039701
  0.2587919970203538  0.6246777221612066  0.0030437851983956
  0.7289553764771846  0.1261603124936620  0.4971602464084086
  0.2469704462910514  0.6243164451706471  0.7494721522794283
  0.7512588274020817  0.1248513550420803  0.7464704342556882
  0.2620400949551757  0.3730290842453876  0.4933209329131982
  0.2641476832152923  0.8762188085283321  0.4994667999517220
  0.2370829421335675  0.3737045987301033  0.2576925609523630
  0.0000581831026579  0.0032786971202920  0.1270347186384476
  0.0035486186987381  0.9978182377094593  0.6235177479375180
  0.0010629771206931  0.5096728771365315  0.1254791043896670
  0.4971089769221294  0.0191723288920973  0.1265932870673765
  0.4961568600036858  0.0107162315812151  0.6267483766244477
  0.5028973636822847  0.5129026221066876  0.1279404051021015
  0.5106157839236277  0.5068687865520020  0.6243467840249876
  0.0022949646761327  0.4956735755191335  0.3762088372766483
  0.9932651856717556  0.4964011670935133  0.8731145555955485
  0.4998747309666099  0.9741132377995622  0.3705293083756543
  0.5160334307030330  0.9873190232343949  0.8756481570923860
  0.0139455704665387  0.2446711824788733  0.1278873045655173
  0.0065330592596471  0.2584650946065030  0.6213697293129878
  0.5169462597286479  0.2290947242427022  0.1279143238460803
  0.5092947573054833  0.2314887394890015  0.6205646616305831
  0.4955222794682132  0.7347385479121862  0.1270796252115008
  0.9877351433776548  0.2507935201036132  0.8750286684963241
  0.9935594193561084  0.7508674269155333  0.3752225518981734
  0.0011209026966167  0.7516235265537924  0.8741448254686482
  0.4846648234055159  0.2735094076860665  0.3733157119766008
  0.4918823365971287  0.2636968802571253  0.8744496959113859
  0.4932551701981392  0.7648957868500957  0.3747495065008885
  0.4985857080825373  0.7602449892747336  0.8746710745552535
  0.2426905777402661  0.4925505726585020  0.1248653548039910
  0.7450743856523202  0.0048327479616655  0.1280839819217760
  0.7488675154337269  0.9987814645338872  0.6232755873618578
  0.2520778221869714  0.0015803572073234  0.3740967592161078
  0.2413952215987400  0.9933191755584068  0.8748205244728714
  0.2495340403884772  0.5124453629264442  0.3749667763371213
  0.2618231914590858  0.4984406521379116  0.8737797254348888
  0.7477147406885924  0.5055906602206091  0.3751117204606714
  0.7544206417022936  0.5059994094362943  0.8745904751449208
  0.2515751541299086  0.7546152522145159  0.1252105665562104
  0.2488545707489871  0.7510532093827420  0.6248258029412459
  0.7437897697175015  0.2587564836619436  0.6231032178663475
  0.7524126426543137  0.7480928767469863  0.1264375061143595
  0.7472169695313494  0.7490252457496624  0.6244657222597145
  0.2613448519094884  0.2428300223507757  0.3735692874878341
  0.2589266385298518  0.2513624532104549  0.8752787997247647
  0.7697577544084213  0.2453953069634234  0.3740034422134098
  0.7606039158401497  0.2448751429349313  0.8774086822581971
  0.1254480766960453  0.0042679847685371  0.0027458388779533
  0.1245492336006605  0.9879407868983454  0.4971355881329578
  0.1238572469369815  0.4894725738569607  0.4908281403151920
  0.6247305854494037  0.0042135858333514  0.0081496753112209
  0.6293655480108132  0.9755943735504562  0.4997761858367372
  0.6267079693520841  0.4852399513450955  0.4967421831190612
  0.1265051569101686  0.0006128866920909  0.7471311264032969
  0.1240373094149461  0.5123945173763568  0.2505656700236232
  0.1237442335055629  0.4918900954422997  0.7646539025801686
  0.6242661771261470  0.9949645964046960  0.7413081496553844
  0.6249942942096970  0.5089601098456110  0.2512298931591336
  0.6269492871327503  0.4906475836496078  0.7576379421933083
  0.1244302731412863  0.2482985490968451  0.9889198236994571
  0.1233238478739829  0.2609234953918707  0.4895983629358160
  0.1249328757030378  0.7410025286839704  0.0007372008726924
  0.1240828515647369  0.7640333109460629  0.4954004603576871
  0.6259315107342410  0.2468081725243267  0.9877539667554976
  0.1237738840526319  0.2319411750320442  0.2634652263441424
  0.1234854272429991  0.7546634248446146  0.7514955186781751
  0.6262491725392870  0.7551212087900577  0.7510193995399442
  0.3732139844159531  0.0245546886849750  0.4944471271266328
  0.3735820331168153  0.4920259263474681  0.0098248280798195
  0.8750881766481191  0.0227912448573000  0.5092058411049186
  0.8745283031059151  0.4950786198401111  0.0011098685937805
  0.3771930155647479  0.9910684360915225  0.2512584810915767
  0.3751935357073874  0.4989999957436747  0.7383560947106956
  0.8728960502276233  0.9909334298267963  0.2443913160513151
  0.8742225340541475  0.9935280824886131  0.7437442374885681
  0.3802287179641607  0.2308954348914490  0.5039300759050097
  0.3764205097540756  0.7598662131735459  0.0024447480697689
  0.3779039054271961  0.7343463834240413  0.5017772547777634
  0.8746676067722103  0.2352841843204010  0.5122637881174976
  0.8719742677933121  0.7579792603557290  0.9990958477838918
  0.8723861477440513  0.7322143593783262  0.5034717809091345
  0.3787928582128786  0.2616897046274533  0.2368160238484610
  0.3769233699766091  0.2485493130421928  0.7433473756848770
  0.3772432463133660  0.7568682432839545  0.2469591619569704
  0.3753286823422086  0.7535724636056228  0.7480815356247492
  0.8724628809698203  0.2650840084494936  0.2371843046641904
  0.8743124609703163  0.2537577946007143  0.7403834403005451
  0.8731015112515014  0.7574021924771549  0.2488219431299336
  0.0009442925744472  0.1271776717485130  0.0011822968182371
  0.0136655822815693  0.1263564099055998  0.5079050248552216
  0.9905366950904763  0.6251091166722368  0.9932994649675229
  0.0143107163299391  0.6273080341685685  0.4921349846101195
  0.5021928213967571  0.1242820269264363  0.9879549399914792
  0.4869973928668060  0.6263671403494572  0.9920899976514029
  0.5162524121514835  0.6259711410857151  0.4877315118882065
  0.9831734787089892  0.1279924991368532  0.2461870550752055
  0.9903057525278509  0.6230666505321315  0.2583091972050716
  0.0124530736122027  0.6246928888353545  0.7566239045036034
  0.4920697897916264  0.6258486474891032  0.2646241907117032
  0.9875661445702478  0.3743321265771062  0.4991126134633897
  0.4865742692456644  0.3704374610183063  0.5145993546399210
  0.4801694987119957  0.8770856435366042  0.5098087386487098
  0.9944018137685765  0.3747655905757564  0.7503904490652287
  0.0025975061977229  0.8761878742708195  0.2510394437678440
  0.9996072739131823  0.8756739799971391  0.7473306781207750
  0.5157950527870047  0.3701923276338307  0.2338978156913072
  0.4966177387244761  0.3724813068846214  0.7348731848288337
  0.5077443420927124  0.8766551164611491  0.2311715026478821
  0.5017130861092698  0.8746002978370345  0.7440989264045280
  0.2480753032126705  0.1246016969130215  0.9922019693768640
  0.2339498182593798  0.1254359460463541  0.4961270916452929
  0.2376211666303055  0.6267615529131367  0.5052965028375749
  0.7455863403482765  0.1260899005677772  0.0038536158234236
  0.7642011480371383  0.6254745710274591  0.0041619190631422
  0.7334610539033969  0.6266785954926264  0.5010354556838530
  0.2653869568802055  0.1265097761501598  0.2520494084539966
  0.2513421571448335  0.1246269857291873  0.7585250961026001
  0.2587404205731570  0.6232031746330348  0.2399716880380289
  0.7689007317994175  0.1271880017887543  0.2490612022064156
  0.7573480641347249  0.6249564791157505  0.2477047593702337
  0.7375376610694739  0.6251309475235056  0.7479715328849894
  0.2466613201825628  0.3755693041640711  0.9967741143091230
  0.2419615838293558  0.8734631440540718  0.0035471454167915
  0.7449684249904084  0.3746963760703939  0.9884581021358012
  0.7688806939533303  0.3733172200000751  0.4920214261457653
  0.7411817098453707  0.8747459648936325  0.0103775899514216
  0.7725279117232313  0.8770976931769411  0.5036340826170360
  0.2552893905096391  0.3756055093710339  0.7563617172225285
  0.2473171068444345  0.8757904443395275  0.2514768748720341
  0.2467517136790073  0.8731850413234087  0.7452919220791367
  0.7334470840187064  0.3737941838875439  0.2650345725557240
  0.7573097197268095  0.3741480096022704  0.7583057208218518
  0.7394668224175391  0.8765367855547980  0.2433095106479855
  0.7513431642956903  0.8753002330881166  0.7433071711768912
 
  0.00000000E+00  0.00000000E+00  0.00000000E+00
  0.00000000E+00  0.00000000E+00  0.00000000E+00
  0.00000000E+00  0.00000000E+00  0.00000000E+00
  0.00000000E+00  0.00000000E+00  0.00000000E+00
  0.00000000E+00  0.00000000E+00  0.00000000E+00
  0.00000000E+00  0.00000000E+00  0.00000000E+00
  0.00000000E+00  0.00000000E+00  0.00000000E+00
  0.00000000E+00  0.00000000E+00  0.00000000E+00
  0.00000000E+00  0.00000000E+00  0.00000000E+00
  0.00000000E+00  0.00000000E+00  0.00000000E+00
  0.00000000E+00  0.00000000E+00  0.00000000E+00
  0.00000000E+00  0.00000000E+00  0.00000000E+00
  0.00000000E+00  0.00000000E+00  0.00000000E+00
  0.00000000E+00  0.00000000E+00  0.00000000E+00
  0.00000000E+00  0.00000000E+00  0.00000000E+00
  0.00000000E+00  0.00000000E+00  0.00000000E+00
  0.00000000E+00  0.00000000E+00  0.00000000E+00
  0.00000000E+00  0.00000000E+00  0.00000000E+00
  0.00000000E+00  0.00000000E+00  0.00000000E+00
  0.00000000E+00  0.00000000E+00  0.00000000E+00
  0.00000000E+00  0.00000000E+00  0.00000000E+00
  0.00000000E+00  0.00000000E+00  0.00000000E+00
  0.00000000E+00  0.00000000E+00  0.00000000E+00
  0.00000000E+00  0.00000000E+00  0.00000000E+00
  0.00000000E+00  0.00000000E+00  0.00000000E+00
  0.00000000E+00  0.00000000E+00  0.00000000E+00
  0.00000000E+00  0.00000000E+00  0.00000000E+00
  0.00000000E+00  0.00000000E+00  0.00000000E+00
  0.00000000E+00  0.00000000E+00  0.00000000E+00
  0.00000000E+00  0.00000000E+00  0.00000000E+00
  0.00000000E+00  0.00000000E+00  0.00000000E+00
  0.00000000E+00  0.00000000E+00  0.00000000E+00
  0.00000000E+00  0.00000000E+00  0.00000000E+00
  0.00000000E+00  0.00000000E+00  0.00000000E+00
  0.00000000E+00  0.00000000E+00  0.00000000E+00
  0.00000000E+00  0.00000000E+00  0.00000000E+00
  0.00000000E+00  0.00000000E+00  0.00000000E+00
  0.00000000E+00  0.00000000E+00  0.00000000E+00
  0.00000000E+00  0.00000000E+00  0.00000000E+00
  0.00000000E+00  0.00000000E+00  0.00000000E+00
  0.00000000E+00  0.00000000E+00  0.00000000E+00
  0.00000000E+00  0.00000000E+00  0.00000000E+00
  0.00000000E+00  0.00000000E+00  0.00000000E+00
  0.00000000E+00  0.00000000E+00  0.00000000E+00
  0.00000000E+00  0.00000000E+00  0.00000000E+00
  0.00000000E+00  0.00000000E+00  0.00000000E+00
  0.00000000E+00  0.00000000E+00  0.00000000E+00
  0.00000000E+00  0.00000000E+00  0.00000000E+00
  0.00000000E+00  0.00000000E+00  0.00000000E+00
  0.00000000E+00  0.00000000E+00  0.00000000E+00
  0.00000000E+00  0.00000000E+00  0.00000000E+00
  0.00000000E+00  0.00000000E+00  0.00000000E+00
  0.00000000E+00  0.00000000E+00  0.00000000E+00
  0.00000000E+00  0.00000000E+00  0.00000000E+00
  0.00000000E+00  0.00000000E+00  0.00000000E+00
  0.00000000E+00  0.00000000E+00  0.00000000E+00
  0.00000000E+00  0.00000000E+00  0.00000000E+00
  0.00000000E+00  0.00000000E+00  0.00000000E+00
  0.00000000E+00  0.00000000E+00  0.00000000E+00
  0.00000000E+00  0.00000000E+00  0.00000000E+00
  0.00000000E+00  0.00000000E+00  0.00000000E+00
  0.00000000E+00  0.00000000E+00  0.00000000E+00
  0.00000000E+00  0.00000000E+00  0.00000000E+00
  0.00000000E+00  0.00000000E+00  0.00000000E+00
  0.00000000E+00  0.00000000E+00  0.00000000E+00
  0.00000000E+00  0.00000000E+00  0.00000000E+00
  0.00000000E+00  0.00000000E+00  0.00000000E+00
  0.00000000E+00  0.00000000E+00  0.00000000E+00
  0.00000000E+00  0.00000000E+00  0.00000000E+00
  0.00000000E+00  0.00000000E+00  0.00000000E+00
  0.00000000E+00  0.00000000E+00  0.00000000E+00
  0.00000000E+00  0.00000000E+00  0.00000000E+00
  0.00000000E+00  0.00000000E+00  0.00000000E+00
  0.00000000E+00  0.00000000E+00  0.00000000E+00
  0.00000000E+00  0.00000000E+00  0.00000000E+00
  0.00000000E+00  0.00000000E+00  0.00000000E+00
  0.00000000E+00  0.00000000E+00  0.00000000E+00
  0.00000000E+00  0.00000000E+00  0.00000000E+00
  0.00000000E+00  0.00000000E+00  0.00000000E+00
  0.00000000E+00  0.00000000E+00  0.00000000E+00
  0.00000000E+00  0.00000000E+00  0.00000000E+00
  0.00000000E+00  0.00000000E+00  0.00000000E+00
  0.00000000E+00  0.00000000E+00  0.00000000E+00
  0.00000000E+00  0.00000000E+00  0.00000000E+00
  0.00000000E+00  0.00000000E+00  0.00000000E+00
  0.00000000E+00  0.00000000E+00  0.00000000E+00
  0.00000000E+00  0.00000000E+00  0.00000000E+00
  0.00000000E+00  0.00000000E+00  0.00000000E+00
  0.00000000E+00  0.00000000E+00  0.00000000E+00
  0.00000000E+00  0.00000000E+00  0.00000000E+00
  0.00000000E+00  0.00000000E+00  0.00000000E+00
  0.00000000E+00  0.00000000E+00  0.00000000E+00
  0.00000000E+00  0.00000000E+00  0.00000000E+00
  0.00000000E+00  0.00000000E+00  0.00000000E+00
  0.00000000E+00  0.00000000E+00  0.00000000E+00
  0.00000000E+00  0.00000000E+00  0.00000000E+00
  0.00000000E+00  0.00000000E+00  0.00000000E+00
  0.00000000E+00  0.00000000E+00  0.00000000E+00
  0.00000000E+00  0.00000000E+00  0.00000000E+00
  0.00000000E+00  0.00000000E+00  0.00000000E+00
  0.00000000E+00  0.00000000E+00  0.00000000E+00
  0.00000000E+00  0.00000000E+00  0.00000000E+00
  0.00000000E+00  0.00000000E+00  0.00000000E+00
  0.00000000E+00  0.00000000E+00  0.00000000E+00
  0.00000000E+00  0.00000000E+00  0.00000000E+00
  0.00000000E+00  0.00000000E+00  0.00000000E+00
  0.00000000E+00  0.00000000E+00  0.00000000E+00
  0.00000000E+00  0.00000000E+00  0.00000000E+00
  0.00000000E+00  0.00000000E+00  0.00000000E+00
  0.00000000E+00  0.00000000E+00  0.00000000E+00
  0.00000000E+00  0.00000000E+00  0.00000000E+00
  0.00000000E+00  0.00000000E+00  0.00000000E+00
  0.00000000E+00  0.00000000E+00  0.00000000E+00
  0.00000000E+00  0.00000000E+00  0.00000000E+00
  0.00000000E+00  0.00000000E+00  0.00000000E+00
  0.00000000E+00  0.00000000E+00  0.00000000E+00
  0.00000000E+00  0.00000000E+00  0.00000000E+00
  0.00000000E+00  0.00000000E+00  0.00000000E+00
  0.00000000E+00  0.00000000E+00  0.00000000E+00
  0.00000000E+00  0.00000000E+00  0.00000000E+00
  0.00000000E+00  0.00000000E+00  0.00000000E+00
  0.00000000E+00  0.00000000E+00  0.00000000E+00
  0.00000000E+00  0.00000000E+00  0.00000000E+00
  0.00000000E+00  0.00000000E+00  0.00000000E+00
  0.00000000E+00  0.00000000E+00  0.00000000E+00
  0.00000000E+00  0.00000000E+00  0.00000000E+00
  0.00000000E+00  0.00000000E+00  0.00000000E+00
  0.00000000E+00  0.00000000E+00  0.00000000E+00
  0.00000000E+00  0.00000000E+00  0.00000000E+00
  0.00000000E+00  0.00000000E+00  0.00000000E+00
  0.00000000E+00  0.00000000E+00  0.00000000E+00
  0.00000000E+00  0.00000000E+00  0.00000000E+00
  0.00000000E+00  0.00000000E+00  0.00000000E+00
  0.00000000E+00  0.00000000E+00  0.00000000E+00
  0.00000000E+00  0.00000000E+00  0.00000000E+00
  0.00000000E+00  0.00000000E+00  0.00000000E+00
  0.00000000E+00  0.00000000E+00  0.00000000E+00
  0.00000000E+00  0.00000000E+00  0.00000000E+00
  0.00000000E+00  0.00000000E+00  0.00000000E+00
  0.00000000E+00  0.00000000E+00  0.00000000E+00
  0.00000000E+00  0.00000000E+00  0.00000000E+00
  0.00000000E+00  0.00000000E+00  0.00000000E+00
  0.00000000E+00  0.00000000E+00  0.00000000E+00
  0.00000000E+00  0.00000000E+00  0.00000000E+00
  0.00000000E+00  0.00000000E+00  0.00000000E+00
  0.00000000E+00  0.00000000E+00  0.00000000E+00
  0.00000000E+00  0.00000000E+00  0.00000000E+00
  0.00000000E+00  0.00000000E+00  0.00000000E+00
  0.00000000E+00  0.00000000E+00  0.00000000E+00
  0.00000000E+00  0.00000000E+00  0.00000000E+00
  0.00000000E+00  0.00000000E+00  0.00000000E+00
  0.00000000E+00  0.00000000E+00  0.00000000E+00
  0.00000000E+00  0.00000000E+00  0.00000000E+00
  0.00000000E+00  0.00000000E+00  0.00000000E+00
  0.00000000E+00  0.00000000E+00  0.00000000E+00
  0.00000000E+00  0.00000000E+00  0.00000000E+00
  0.00000000E+00  0.00000000E+00  0.00000000E+00
  0.00000000E+00  0.00000000E+00  0.00000000E+00
  0.00000000E+00  0.00000000E+00  0.00000000E+00
  0.00000000E+00  0.00000000E+00  0.00000000E+00
  0.00000000E+00  0.00000000E+00  0.00000000E+00
  0.00000000E+00  0.00000000E+00  0.00000000E+00
  0.00000000E+00  0.00000000E+00  0.00000000E+00
  0.00000000E+00  0.00000000E+00  0.00000000E+00
  0.00000000E+00  0.00000000E+00  0.00000000E+00
  0.00000000E+00  0.00000000E+00  0.00000000E+00
  0.00000000E+00  0.00000000E+00  0.00000000E+00
  0.00000000E+00  0.00000000E+00  0.00000000E+00
  0.00000000E+00  0.00000000E+00  0.00000000E+00
  0.00000000E+00  0.00000000E+00  0.00000000E+00
  0.00000000E+00  0.00000000E+00  0.00000000E+00
  0.00000000E+00  0.00000000E+00  0.00000000E+00
  0.00000000E+00  0.00000000E+00  0.00000000E+00
  0.00000000E+00  0.00000000E+00  0.00000000E+00
  0.00000000E+00  0.00000000E+00  0.00000000E+00
  0.00000000E+00  0.00000000E+00  0.00000000E+00
  0.00000000E+00  0.00000000E+00  0.00000000E+00
  0.00000000E+00  0.00000000E+00  0.00000000E+00
  0.00000000E+00  0.00000000E+00  0.00000000E+00
  0.00000000E+00  0.00000000E+00  0.00000000E+00
  0.00000000E+00  0.00000000E+00  0.00000000E+00
  0.00000000E+00  0.00000000E+00  0.00000000E+00
  0.00000000E+00  0.00000000E+00  0.00000000E+00
  0.00000000E+00  0.00000000E+00  0.00000000E+00
  0.00000000E+00  0.00000000E+00  0.00000000E+00
  0.00000000E+00  0.00000000E+00  0.00000000E+00
  0.00000000E+00  0.00000000E+00  0.00000000E+00
  0.00000000E+00  0.00000000E+00  0.00000000E+00
  0.00000000E+00  0.00000000E+00  0.00000000E+00
  0.00000000E+00  0.00000000E+00  0.00000000E+00
  0.00000000E+00  0.00000000E+00  0.00000000E+00
  0.00000000E+00  0.00000000E+00  0.00000000E+00
  0.00000000E+00  0.00000000E+00  0.00000000E+00
  0.00000000E+00  0.00000000E+00  0.00000000E+00
  0.00000000E+00  0.00000000E+00  0.00000000E+00
  0.00000000E+00  0.00000000E+00  0.00000000E+00
  0.00000000E+00  0.00000000E+00  0.00000000E+00
  0.00000000E+00  0.00000000E+00  0.00000000E+00
  0.00000000E+00  0.00000000E+00  0.00000000E+00
  0.00000000E+00  0.00000000E+00  0.00000000E+00
  0.00000000E+00  0.00000000E+00  0.00000000E+00
  0.00000000E+00  0.00000000E+00  0.00000000E+00
  0.00000000E+00  0.00000000E+00  0.00000000E+00
  0.00000000E+00  0.00000000E+00  0.00000000E+00
  0.00000000E+00  0.00000000E+00  0.00000000E+00
  0.00000000E+00  0.00000000E+00  0.00000000E+00
  0.00000000E+00  0.00000000E+00  0.00000000E+00
  0.00000000E+00  0.00000000E+00  0.00000000E+00
  0.00000000E+00  0.00000000E+00  0.00000000E+00
  0.00000000E+00  0.00000000E+00  0.00000000E+00
  0.00000000E+00  0.00000000E+00  0.00000000E+00
  0.00000000E+00  0.00000000E+00  0.00000000E+00
  0.00000000E+00  0.00000000E+00  0.00000000E+00
  0.00000000E+00  0.00000000E+00  0.00000000E+00
  0.00000000E+00  0.00000000E+00  0.00000000E+00
  0.00000000E+00  0.00000000E+00  0.00000000E+00
  0.00000000E+00  0.00000000E+00  0.00000000E+00
  0.00000000E+00  0.00000000E+00  0.00000000E+00
  0.00000000E+00  0.00000000E+00  0.00000000E+00
  0.00000000E+00  0.00000000E+00  0.00000000E+00
  0.00000000E+00  0.00000000E+00  0.00000000E+00
  0.00000000E+00  0.00000000E+00  0.00000000E+00
  0.00000000E+00  0.00000000E+00  0.00000000E+00
  0.00000000E+00  0.00000000E+00  0.00000000E+00
  0.00000000E+00  0.00000000E+00  0.00000000E+00
  0.00000000E+00  0.00000000E+00  0.00000000E+00
  0.00000000E+00  0.00000000E+00  0.00000000E+00
  0.00000000E+00  0.00000000E+00  0.00000000E+00
  0.00000000E+00  0.00000000E+00  0.00000000E+00
  0.00000000E+00  0.00000000E+00  0.00000000E+00
  0.00000000E+00  0.00000000E+00  0.00000000E+00
  0.00000000E+00  0.00000000E+00  0.00000000E+00
  0.00000000E+00  0.00000000E+00  0.00000000E+00
  0.00000000E+00  0.00000000E+00  0.00000000E+00
  0.00000000E+00  0.00000000E+00  0.00000000E+00
  0.00000000E+00  0.00000000E+00  0.00000000E+00
  0.00000000E+00  0.00000000E+00  0.00000000E+00
  0.00000000E+00  0.00000000E+00  0.00000000E+00
  0.00000000E+00  0.00000000E+00  0.00000000E+00
  0.00000000E+00  0.00000000E+00  0.00000000E+00
  0.00000000E+00  0.00000000E+00  0.00000000E+00
  0.00000000E+00  0.00000000E+00  0.00000000E+00
  0.00000000E+00  0.00000000E+00  0.00000000E+00
  0.00000000E+00  0.00000000E+00  0.00000000E+00
  0.00000000E+00  0.00000000E+00  0.00000000E+00
  0.00000000E+00  0.00000000E+00  0.00000000E+00
  0.00000000E+00  0.00000000E+00  0.00000000E+00
  0.00000000E+00  0.00000000E+00  0.00000000E+00
  0.00000000E+00  0.00000000E+00  0.00000000E+00
  0.00000000E+00  0.00000000E+00  0.00000000E+00
  0.00000000E+00  0.00000000E+00  0.00000000E+00
  0.00000000E+00  0.00000000E+00  0.00000000E+00
  0.00000000E+00  0.00000000E+00  0.00000000E+00
  0.00000000E+00  0.00000000E+00  0.00000000E+00
  0.00000000E+00  0.00000000E+00  0.00000000E+00
  0.00000000E+00  0.00000000E+00  0.00000000E+00
  0.00000000E+00  0.00000000E+00  0.00000000E+00
