config 56                               
   1.00000000000000     
    15.4263309999999993    0.0000000000000000    0.0000000000000000
     0.0000000000000000   15.4263309999999993    0.0000000000000000
     0.0000000000000000    0.0000000000000000   15.4263309999999993
   Li   Ti   O    F 
     1    64    64   128
Direct
  0.8787869586799577  0.3772157458138008  0.9468433328219140
  0.9963047740836206  0.9933252639456359  0.9931728173176028
  0.9984182517113559  0.9922669123440241  0.4927321849373149
  0.0101827580916713  0.4968342721635099  0.9960741538858218
  0.9939998601276203  0.5022908363702639  0.5068406896826582
  0.4953633622139288  0.9933503261068667  0.9999838236782875
  0.5020454774996638  0.0089216801326209  0.4984224654093715
  0.5026441642123726  0.4952415272666921  0.9964365435927039
  0.4916965152744759  0.4992267302252978  0.4953381543570877
  0.0067981586002333  0.0038421825277686  0.2556754993919250
  0.0018603472430052  0.0086059299736839  0.7554015753912342
  0.9937208481449353  0.4926703837232482  0.2517932819724495
  0.9929090276536010  0.4986799933473527  0.7410735160256554
  0.5053510943690888  0.0094000610830843  0.2506138940535068
  0.4932347830819033  0.0053349596228440  0.7528590206690825
  0.4924409661635302  0.4955213586876916  0.2572875049760973
  0.5003987021237565  0.5036138094816284  0.7586373960359388
  0.0007255189949615  0.2527396174154186  0.0004150287145882
  0.9985730525878622  0.2467895824500430  0.4914769633650227
  0.9986161071243158  0.7574693613316532  0.0051849250686691
  0.9963500655905817  0.7578983898496603  0.5047388463965683
  0.4959699590435197  0.2585216012313228  0.0017418230780473
  0.5088247774299870  0.2460248584123447  0.4980182697239677
  0.5077055602993322  0.7557635463071347  0.9996345286912374
  0.5072392530882712  0.7534133900880753  0.5083404139549125
  0.0003900289835181  0.2576954239536563  0.2562331640422825
  0.0065153899790439  0.2419079353759480  0.7453650760582213
  0.0064357185341658  0.7486163468544623  0.2429013808308626
  0.9929461405970986  0.7513260517311940  0.7423203834488525
  0.5081990805944642  0.2412164908763866  0.2521335286531217
  0.5066097648405395  0.2434170331898697  0.7502153039074964
  0.5061670208187470  0.7511896734988299  0.2519218508570469
  0.5020539150251108  0.7416550573449913  0.7436467089526606
  0.2572880579082085  0.9975976369749013  0.0053781522839023
  0.2516212883839061  0.9935848059849678  0.5060403966790192
  0.2465863668587018  0.5087877326093435  0.9975129355984192
  0.2546474423788845  0.4944062525566817  0.5062434668988229
  0.7572376515154974  0.9992511373654942  0.9937688092288480
  0.7493721126723426  0.0081287439012170  0.4949326478359702
  0.7379879688403271  0.5038600354481217  0.0056239614224898
  0.7552891414478941  0.4977794386603737  0.5048475377154714
  0.2451859290185599  0.0025295066777129  0.2432663592053312
  0.2584722665363634  0.9980821438185660  0.7441810675198797
  0.2545108691446472  0.4913678940811169  0.2516457474946996
  0.2465108977934614  0.5058797717481393  0.7405302629597774
  0.7442553044130995  0.0018454121154831  0.2554873663695525
  0.7477524124581448  0.0071405640881865  0.7553476260553487
  0.7552585407651854  0.4974415344861102  0.2425269755605878
  0.7566234585564046  0.4977980803659918  0.7415398829455101
  0.2585206701148073  0.2520230334186486  0.0057635587655163
  0.2542591069227509  0.2566789963070797  0.5050422449335183
  0.2528146775186822  0.7425441346443479  0.9939862917463527
  0.2524760771806111  0.7552088736396890  0.4928647160483647
  0.7551906625159613  0.2506744172728622  0.0074524368584565
  0.7419670861409210  0.2428274473327866  0.4980258310043753
  0.7414590680932602  0.7486714067438798  0.9939095018121086
  0.7413626519788703  0.7526873959499915  0.4938162319093602
  0.2510815946161631  0.2576265367060748  0.2438253167658511
  0.2442289746171525  0.2518754280180558  0.7435750670937140
  0.2436904278393256  0.7472289485908105  0.2559716515336954
  0.2478374302145736  0.7417858034261297  0.7565957928583578
  0.7421602278886914  0.2513688686269075  0.2422252089456975
  0.7434618744121934  0.2420392365969817  0.7490690392659263
  0.7453436694595194  0.7491695789646436  0.2568916165928748
  0.7575348318607885  0.7497842996518629  0.7564303285045607
  0.0092591289003294  0.4924283944411126  0.6241202906925013
  0.9977717625795146  0.0125235357329026  0.3760994610822527
  0.0024266661891348  0.0100722495060180  0.8721296765274548
  0.4977607980282394  0.4877061463368101  0.3754109590595756
  0.4912642014217259  0.4920889679161354  0.8748654325690952
  0.0002744351812265  0.7519640524848935  0.1251853336765897
  0.0031471933036984  0.7545155237440722  0.6234593193371666
  0.5046937136992857  0.7473645808823548  0.6242540558518970
  0.9936116549727596  0.2374318838415805  0.3772688652402779
  0.2579349570003535  0.0017242144147262  0.1249756974484656
  0.2592213956475629  0.0036011840335329  0.6249139827309345
  0.2366283059114138  0.4936390969407977  0.6253542312930126
  0.7478608051747053  0.4860677576519812  0.1247657226387046
  0.7446927861433308  0.4873857545780465  0.6238702977602554
  0.7480746569988747  0.0056675230329542  0.3761980404461238
  0.7431859690294577  0.0051775184999089  0.8732526863014247
  0.2461990009946302  0.2511286485199122  0.1258425623915710
  0.2538797324148747  0.2505274738599330  0.6245815406968267
  0.7400206530671268  0.2653565607358505  0.1272037540456316
  0.2564020324952096  0.7444214100526142  0.3747276942803701
  0.2533841580915311  0.7513831145087559  0.8753408252170410
  0.7534436976587175  0.7452018825211523  0.3742591680873756
  0.7502248948405366  0.7454521164971658  0.8754176545837404
  0.1271941304957072  0.5107126896188567  0.9922300526311593
  0.6236727360065687  0.5161272359872539  0.9968976528085596
  0.1255417271973648  0.0075460946602281  0.2493878116929094
  0.6246425416830922  0.0073734766411105  0.2471895241959548
  0.6242716964574201  0.2646145907474740  0.4943722462715744
  0.6244374937277161  0.7333258601797419  0.0012992576841791
  0.6244547632181846  0.7692216886018721  0.4934676419061254
  0.1250562154673778  0.2526855534076993  0.7482740341643285
  0.1249730119247420  0.7469067238032989  0.2536419629072111
  0.6252980578342875  0.2387972008454564  0.2631351097702930
  0.6251886867630270  0.2549206682031717  0.7446933944803392
  0.6224152720231110  0.7491117240973297  0.2527879076985980
  0.3769246439759819  0.9921632962211784  0.9895868272134030
  0.3754537220462078  0.5115682368854473  0.5057274605350286
  0.8730482869296423  0.9913449362085464  0.9966510732476793
  0.8748255751800896  0.5093732263884810  0.5014915408886218
  0.3765888826812351  0.9975310052710029  0.7611081743009475
  0.3735356217027445  0.4907522920047503  0.2473629989417392
  0.8747836201645718  0.4913488670724520  0.2507216436750183
  0.8748732698775875  0.5082157964653232  0.7442070150415887
  0.3776673857274190  0.2538633750728410  0.0049274837703394
  0.8688202060185626  0.2635932326050414  0.0003057746359638
  0.8747126955094877  0.7419589559945199  0.7464948073113197
  0.5179915666575310  0.1226884427856025  0.4884937539692251
  0.9976399670954152  0.1255423635179760  0.7323421610648331
  0.4894798342087699  0.1249767429522465  0.2688883637809404
  0.5031450603916304  0.1239878146243815  0.7549642182033935
  0.5029855018069967  0.6250224499367220  0.7547797922218702
  0.0001831108724011  0.3792844212126618  0.9874119112393146
  0.0107228073141947  0.8736376009431971  0.9936639798290333
  0.9846840123824194  0.8753552865218140  0.4903853080336866
  0.5096835813422070  0.3748654543702251  0.0125385169741136
  0.5119063222546798  0.8747126103795666  0.0099539143919320
  0.0118503035201207  0.3740730184152937  0.2584059676387229
  0.2646951518062851  0.6253071479422068  0.0038401976373902
  0.7325945234907248  0.1254166228623153  0.5097551160871819
  0.2454351515015741  0.6245926851104240  0.7485851584109428
  0.7496743057118337  0.1248294791414839  0.7372730419084920
  0.2600709380510998  0.3733262315548302  0.4923378800794236
  0.2616521693105222  0.8756310192174311  0.4988839476083984
  0.2369072224593947  0.3742870887937998  0.2585310409890370
  0.9981508629442114  0.9939325305188792  0.1266043681683307
  0.0010945325706821  0.9886112690006224  0.6231179018880404
  0.0009497115804373  0.4995805162135072  0.1241716783054902
  0.4900003639429970  0.0143562276524570  0.1263123080749889
  0.4929506138589260  0.0038181378117847  0.6225551589955215
  0.5025898897607348  0.5130251863529263  0.1276702546306144
  0.5103737851204396  0.5048927461931798  0.6241571334059031
  0.0012288118901720  0.5062328926249632  0.3758519716265828
  0.9922686243172313  0.5105509777327687  0.8717150975412703
  0.5073299208915404  0.9822544227562386  0.3764204346451848
  0.5197676370145476  0.9923146455756801  0.8751230544131553
  0.0098681898463624  0.2553501048576246  0.1312467660761490
  0.9990027096446372  0.2683360842639628  0.6207555883536104
  0.5094338068495533  0.2317760776954286  0.1270398735665139
  0.4959584409564634  0.2396525370336514  0.6220582631409314
  0.4973038452444490  0.7386369014632764  0.1269837769757906
  0.9928076757888515  0.2384955007099065  0.8692069787148440
  0.9918508544228142  0.7429480644648512  0.3749685160434317
  0.9991158287961431  0.7433707176736729  0.8733775054725772
  0.4911355089933344  0.2693056372426432  0.3755513963638293
  0.5013717291727979  0.2605259282327433  0.8743353505493854
  0.4901857855833848  0.7613728398315804  0.3753421099866236
  0.4967195300951761  0.7580132086051495  0.8742048931726280
  0.2423747895977528  0.4921371609400366  0.1244724304172422
  0.7519000956564651  0.9959075261601448  0.1263505893232720
  0.7499283586939542  0.9895492421228196  0.6226228307856612
  0.2501803720019746  0.0022809264160918  0.3753623847989492
  0.2403969555828885  0.9942526401528803  0.8742035183290974
  0.2488755261650661  0.5136823633890366  0.3749484895202132
  0.2636739668220646  0.5001462655333652  0.8735356626672944
  0.7471419778186406  0.5116323770582870  0.3744067946714180
  0.7534849012718852  0.5116359648379537  0.8742332507825448
  0.2497929873063051  0.7555958655740920  0.1250379581648524
  0.2466385103227404  0.7518417506883238  0.6248034697269459
  0.7515326577211345  0.2677119774931474  0.6223102788966085
  0.7503210837627974  0.7543142375205409  0.1256707510979756
  0.7450523507329450  0.7541318669608988  0.6241286094241023
  0.2549487507870641  0.2420456120274681  0.3743503532996210
  0.2556926439821657  0.2508585037751356  0.8743331655727379
  0.7621470656583474  0.2368325150186982  0.3747558939921380
  0.7485067461520620  0.2380266928479558  0.8746414318133470
  0.1265311257641692  0.0084311901494436  0.0043473078418986
  0.1249555618613746  0.9916852740077132  0.5009267482347852
  0.1231018174026003  0.4914278364866366  0.4899562625769289
  0.6254037235966733  0.0096336608311578  0.0109790622226064
  0.6238071398265167  0.9774711202301005  0.5053465809616116
  0.6254269779721757  0.4860256420373062  0.4959350646542276
  0.1272663874117445  0.9996724247147859  0.7435148212413352
  0.1234263582508538  0.5118727590522583  0.2494580430828610
  0.1231686138795179  0.4911510417285200  0.7651987787968655
  0.6237154880203671  0.9940323774953851  0.7366939587165292
  0.6247047848697133  0.5044314417291044  0.2508634000637491
  0.6262039177875395  0.4903340044079459  0.7578431444916368
  0.1315677395844737  0.2446696671386260  0.9922434697749293
  0.1237885151290664  0.2561089218104142  0.4976273208781282
  0.1251532716239779  0.7346953582730262  0.9990011450859682
  0.1237778769295949  0.7608876302390415  0.4926637772563456
  0.6251938092629367  0.2428519387517962  0.9939210130302555
  0.1252582652136024  0.2317262186103065  0.2591485643234774
  0.1232235602774005  0.7559705336715155  0.7534278451752457
  0.6262449802138573  0.7557577335157277  0.7528507677690468
  0.3783072001065672  0.0169062419377599  0.4903430981831353
  0.3739632121841743  0.4887232040863396  0.0114806669763527
  0.8742413545766685  0.0189930920773610  0.5063933056160052
  0.8718479028084775  0.4880706344465980  0.9948718678589109
  0.3773645486993363  0.9909105923072541  0.2589793662516682
  0.3746022003915958  0.5007718347992829  0.7368561337700154
  0.8736240208009882  0.9949241681374537  0.2494038003364479
  0.8741026380537388  0.9950643475920347  0.7456548031838566
  0.3793128469811919  0.2327992325729319  0.4967307262600100
  0.3765186446105785  0.7654427489253932  0.0037617220130505
  0.3774357670580898  0.7357152232416855  0.5043174214938853
  0.8738666565172264  0.2381870063545880  0.5070019387385408
  0.8719009245760324  0.7641840935218327  0.0001060753486472
  0.8719145619194838  0.7343455846541185  0.5057927733322516
  0.3784235569653539  0.2627201618170317  0.2452179915148546
  0.3769283814908569  0.2485144532683215  0.7512616644449427
  0.3765748761956709  0.7527488232819358  0.2453911655452376
  0.3750864245220933  0.7531596422679084  0.7461628955957534
  0.8739306923044194  0.2620304348624348  0.2455202320352454
  0.8733176625185446  0.2533622888981356  0.7455862533901773
  0.8731939899530111  0.7524908694267481  0.2472263638222446
  0.9951620919001520  0.1239386794358370  0.0102443158798264
  0.0093942169669041  0.1254526034233637  0.5172656221623126
  0.9848030679253484  0.6253053207781927  0.0009076366107972
  0.0109679405782061  0.6264544784527188  0.5012404784578869
  0.4989279251311227  0.1241777263728084  0.9900099047875872
  0.4819865902579710  0.6275498136241850  0.9942468960800074
  0.5152100865906745  0.6268048542067075  0.4903947945817803
  0.9869007637171171  0.1273457696740587  0.2392175221587996
  0.9926693572079197  0.6231242868945930  0.2490213362933545
  0.0129696419930385  0.6246148745432357  0.7449353039793012
  0.4953913996307348  0.6258167319432291  0.2625043430138997
  0.9908410328384260  0.3735737467624839  0.4882143480618799
  0.4850636199214424  0.3714017082849915  0.5129251976552794
  0.4810275340688808  0.8785773814307980  0.5053176162672719
  0.9925899687706735  0.3747987053793835  0.7614182010501945
  0.9999106815646625  0.8759508088659667  0.2586524407263019
  0.9981862538588743  0.8758372029341016  0.7553851334602939
  0.5102309181627211  0.3714287739492027  0.2348900232534604
  0.4946715268955289  0.3735994720165258  0.7385513944308432
  0.5012334250809445  0.8760941132124727  0.2384569771313271
  0.5013925512549680  0.8753210536495889  0.7468293196911122
  0.2553239766006549  0.1243002459978923  0.9936282567075033
  0.2402646783305412  0.1241849125394263  0.4976773719503727
  0.2378828780226097  0.6266360777831869  0.5063709127713764
  0.7549295952488226  0.1252574297386339  0.0116669690405556
  0.7694406206875012  0.6259727902956508  0.0109538509356483
  0.7342986202695112  0.6253538944650336  0.5072127926077298
  0.2655171477394515  0.1262347998123720  0.2516948548803631
  0.2505747072842742  0.1245625341261243  0.7572508956287560
  0.2556654555926198  0.6233209816802715  0.2387074808425186
  0.7641790709753067  0.1265000012627844  0.2399081157329075
  0.7523207203885217  0.6244324884696554  0.2395970192895551
  0.7370636077519980  0.6243606127038231  0.7406519609672667
  0.2452835259073824  0.3766633885841690  0.9954177583528911
  0.2374312321609047  0.8735006626319259  0.0025152871054928
  0.7433427144455975  0.3772605120732856  0.9781599574973576
  0.7634233854934134  0.3723807409183363  0.4837573785240835
  0.7335007139411188  0.8745206243632340  0.0005210663026043
  0.7688389487885833  0.8765279210749639  0.4966780090440966
  0.2557850338743661  0.3762533763403786  0.7570793037942140
  0.2493742151261642  0.8753758589006957  0.2528065442654322
  0.2479382466865726  0.8735298967015882  0.7457398473807663
  0.7404013753124472  0.3742415126427830  0.2709503486146292
  0.7575852876126791  0.3741407990254955  0.7663728935103445
  0.7481144929229068  0.8754702999090131  0.2511708804593147
  0.7520492616776303  0.8749192082445905  0.7506628546215505
 
  0.00000000E+00  0.00000000E+00  0.00000000E+00
  0.00000000E+00  0.00000000E+00  0.00000000E+00
  0.00000000E+00  0.00000000E+00  0.00000000E+00
  0.00000000E+00  0.00000000E+00  0.00000000E+00
  0.00000000E+00  0.00000000E+00  0.00000000E+00
  0.00000000E+00  0.00000000E+00  0.00000000E+00
  0.00000000E+00  0.00000000E+00  0.00000000E+00
  0.00000000E+00  0.00000000E+00  0.00000000E+00
  0.00000000E+00  0.00000000E+00  0.00000000E+00
  0.00000000E+00  0.00000000E+00  0.00000000E+00
  0.00000000E+00  0.00000000E+00  0.00000000E+00
  0.00000000E+00  0.00000000E+00  0.00000000E+00
  0.00000000E+00  0.00000000E+00  0.00000000E+00
  0.00000000E+00  0.00000000E+00  0.00000000E+00
  0.00000000E+00  0.00000000E+00  0.00000000E+00
  0.00000000E+00  0.00000000E+00  0.00000000E+00
  0.00000000E+00  0.00000000E+00  0.00000000E+00
  0.00000000E+00  0.00000000E+00  0.00000000E+00
  0.00000000E+00  0.00000000E+00  0.00000000E+00
  0.00000000E+00  0.00000000E+00  0.00000000E+00
  0.00000000E+00  0.00000000E+00  0.00000000E+00
  0.00000000E+00  0.00000000E+00  0.00000000E+00
  0.00000000E+00  0.00000000E+00  0.00000000E+00
  0.00000000E+00  0.00000000E+00  0.00000000E+00
  0.00000000E+00  0.00000000E+00  0.00000000E+00
  0.00000000E+00  0.00000000E+00  0.00000000E+00
  0.00000000E+00  0.00000000E+00  0.00000000E+00
  0.00000000E+00  0.00000000E+00  0.00000000E+00
  0.00000000E+00  0.00000000E+00  0.00000000E+00
  0.00000000E+00  0.00000000E+00  0.00000000E+00
  0.00000000E+00  0.00000000E+00  0.00000000E+00
  0.00000000E+00  0.00000000E+00  0.00000000E+00
  0.00000000E+00  0.00000000E+00  0.00000000E+00
  0.00000000E+00  0.00000000E+00  0.00000000E+00
  0.00000000E+00  0.00000000E+00  0.00000000E+00
  0.00000000E+00  0.00000000E+00  0.00000000E+00
  0.00000000E+00  0.00000000E+00  0.00000000E+00
  0.00000000E+00  0.00000000E+00  0.00000000E+00
  0.00000000E+00  0.00000000E+00  0.00000000E+00
  0.00000000E+00  0.00000000E+00  0.00000000E+00
  0.00000000E+00  0.00000000E+00  0.00000000E+00
  0.00000000E+00  0.00000000E+00  0.00000000E+00
  0.00000000E+00  0.00000000E+00  0.00000000E+00
  0.00000000E+00  0.00000000E+00  0.00000000E+00
  0.00000000E+00  0.00000000E+00  0.00000000E+00
  0.00000000E+00  0.00000000E+00  0.00000000E+00
  0.00000000E+00  0.00000000E+00  0.00000000E+00
  0.00000000E+00  0.00000000E+00  0.00000000E+00
  0.00000000E+00  0.00000000E+00  0.00000000E+00
  0.00000000E+00  0.00000000E+00  0.00000000E+00
  0.00000000E+00  0.00000000E+00  0.00000000E+00
  0.00000000E+00  0.00000000E+00  0.00000000E+00
  0.00000000E+00  0.00000000E+00  0.00000000E+00
  0.00000000E+00  0.00000000E+00  0.00000000E+00
  0.00000000E+00  0.00000000E+00  0.00000000E+00
  0.00000000E+00  0.00000000E+00  0.00000000E+00
  0.00000000E+00  0.00000000E+00  0.00000000E+00
  0.00000000E+00  0.00000000E+00  0.00000000E+00
  0.00000000E+00  0.00000000E+00  0.00000000E+00
  0.00000000E+00  0.00000000E+00  0.00000000E+00
  0.00000000E+00  0.00000000E+00  0.00000000E+00
  0.00000000E+00  0.00000000E+00  0.00000000E+00
  0.00000000E+00  0.00000000E+00  0.00000000E+00
  0.00000000E+00  0.00000000E+00  0.00000000E+00
  0.00000000E+00  0.00000000E+00  0.00000000E+00
  0.00000000E+00  0.00000000E+00  0.00000000E+00
  0.00000000E+00  0.00000000E+00  0.00000000E+00
  0.00000000E+00  0.00000000E+00  0.00000000E+00
  0.00000000E+00  0.00000000E+00  0.00000000E+00
  0.00000000E+00  0.00000000E+00  0.00000000E+00
  0.00000000E+00  0.00000000E+00  0.00000000E+00
  0.00000000E+00  0.00000000E+00  0.00000000E+00
  0.00000000E+00  0.00000000E+00  0.00000000E+00
  0.00000000E+00  0.00000000E+00  0.00000000E+00
  0.00000000E+00  0.00000000E+00  0.00000000E+00
  0.00000000E+00  0.00000000E+00  0.00000000E+00
  0.00000000E+00  0.00000000E+00  0.00000000E+00
  0.00000000E+00  0.00000000E+00  0.00000000E+00
  0.00000000E+00  0.00000000E+00  0.00000000E+00
  0.00000000E+00  0.00000000E+00  0.00000000E+00
  0.00000000E+00  0.00000000E+00  0.00000000E+00
  0.00000000E+00  0.00000000E+00  0.00000000E+00
  0.00000000E+00  0.00000000E+00  0.00000000E+00
  0.00000000E+00  0.00000000E+00  0.00000000E+00
  0.00000000E+00  0.00000000E+00  0.00000000E+00
  0.00000000E+00  0.00000000E+00  0.00000000E+00
  0.00000000E+00  0.00000000E+00  0.00000000E+00
  0.00000000E+00  0.00000000E+00  0.00000000E+00
  0.00000000E+00  0.00000000E+00  0.00000000E+00
  0.00000000E+00  0.00000000E+00  0.00000000E+00
  0.00000000E+00  0.00000000E+00  0.00000000E+00
  0.00000000E+00  0.00000000E+00  0.00000000E+00
  0.00000000E+00  0.00000000E+00  0.00000000E+00
  0.00000000E+00  0.00000000E+00  0.00000000E+00
  0.00000000E+00  0.00000000E+00  0.00000000E+00
  0.00000000E+00  0.00000000E+00  0.00000000E+00
  0.00000000E+00  0.00000000E+00  0.00000000E+00
  0.00000000E+00  0.00000000E+00  0.00000000E+00
  0.00000000E+00  0.00000000E+00  0.00000000E+00
  0.00000000E+00  0.00000000E+00  0.00000000E+00
  0.00000000E+00  0.00000000E+00  0.00000000E+00
  0.00000000E+00  0.00000000E+00  0.00000000E+00
  0.00000000E+00  0.00000000E+00  0.00000000E+00
  0.00000000E+00  0.00000000E+00  0.00000000E+00
  0.00000000E+00  0.00000000E+00  0.00000000E+00
  0.00000000E+00  0.00000000E+00  0.00000000E+00
  0.00000000E+00  0.00000000E+00  0.00000000E+00
  0.00000000E+00  0.00000000E+00  0.00000000E+00
  0.00000000E+00  0.00000000E+00  0.00000000E+00
  0.00000000E+00  0.00000000E+00  0.00000000E+00
  0.00000000E+00  0.00000000E+00  0.00000000E+00
  0.00000000E+00  0.00000000E+00  0.00000000E+00
  0.00000000E+00  0.00000000E+00  0.00000000E+00
  0.00000000E+00  0.00000000E+00  0.00000000E+00
  0.00000000E+00  0.00000000E+00  0.00000000E+00
  0.00000000E+00  0.00000000E+00  0.00000000E+00
  0.00000000E+00  0.00000000E+00  0.00000000E+00
  0.00000000E+00  0.00000000E+00  0.00000000E+00
  0.00000000E+00  0.00000000E+00  0.00000000E+00
  0.00000000E+00  0.00000000E+00  0.00000000E+00
  0.00000000E+00  0.00000000E+00  0.00000000E+00
  0.00000000E+00  0.00000000E+00  0.00000000E+00
  0.00000000E+00  0.00000000E+00  0.00000000E+00
  0.00000000E+00  0.00000000E+00  0.00000000E+00
  0.00000000E+00  0.00000000E+00  0.00000000E+00
  0.00000000E+00  0.00000000E+00  0.00000000E+00
  0.00000000E+00  0.00000000E+00  0.00000000E+00
  0.00000000E+00  0.00000000E+00  0.00000000E+00
  0.00000000E+00  0.00000000E+00  0.00000000E+00
  0.00000000E+00  0.00000000E+00  0.00000000E+00
  0.00000000E+00  0.00000000E+00  0.00000000E+00
  0.00000000E+00  0.00000000E+00  0.00000000E+00
  0.00000000E+00  0.00000000E+00  0.00000000E+00
  0.00000000E+00  0.00000000E+00  0.00000000E+00
  0.00000000E+00  0.00000000E+00  0.00000000E+00
  0.00000000E+00  0.00000000E+00  0.00000000E+00
  0.00000000E+00  0.00000000E+00  0.00000000E+00
  0.00000000E+00  0.00000000E+00  0.00000000E+00
  0.00000000E+00  0.00000000E+00  0.00000000E+00
  0.00000000E+00  0.00000000E+00  0.00000000E+00
  0.00000000E+00  0.00000000E+00  0.00000000E+00
  0.00000000E+00  0.00000000E+00  0.00000000E+00
  0.00000000E+00  0.00000000E+00  0.00000000E+00
  0.00000000E+00  0.00000000E+00  0.00000000E+00
  0.00000000E+00  0.00000000E+00  0.00000000E+00
  0.00000000E+00  0.00000000E+00  0.00000000E+00
  0.00000000E+00  0.00000000E+00  0.00000000E+00
  0.00000000E+00  0.00000000E+00  0.00000000E+00
  0.00000000E+00  0.00000000E+00  0.00000000E+00
  0.00000000E+00  0.00000000E+00  0.00000000E+00
  0.00000000E+00  0.00000000E+00  0.00000000E+00
  0.00000000E+00  0.00000000E+00  0.00000000E+00
  0.00000000E+00  0.00000000E+00  0.00000000E+00
  0.00000000E+00  0.00000000E+00  0.00000000E+00
  0.00000000E+00  0.00000000E+00  0.00000000E+00
  0.00000000E+00  0.00000000E+00  0.00000000E+00
  0.00000000E+00  0.00000000E+00  0.00000000E+00
  0.00000000E+00  0.00000000E+00  0.00000000E+00
  0.00000000E+00  0.00000000E+00  0.00000000E+00
  0.00000000E+00  0.00000000E+00  0.00000000E+00
  0.00000000E+00  0.00000000E+00  0.00000000E+00
  0.00000000E+00  0.00000000E+00  0.00000000E+00
  0.00000000E+00  0.00000000E+00  0.00000000E+00
  0.00000000E+00  0.00000000E+00  0.00000000E+00
  0.00000000E+00  0.00000000E+00  0.00000000E+00
  0.00000000E+00  0.00000000E+00  0.00000000E+00
  0.00000000E+00  0.00000000E+00  0.00000000E+00
  0.00000000E+00  0.00000000E+00  0.00000000E+00
  0.00000000E+00  0.00000000E+00  0.00000000E+00
  0.00000000E+00  0.00000000E+00  0.00000000E+00
  0.00000000E+00  0.00000000E+00  0.00000000E+00
  0.00000000E+00  0.00000000E+00  0.00000000E+00
  0.00000000E+00  0.00000000E+00  0.00000000E+00
  0.00000000E+00  0.00000000E+00  0.00000000E+00
  0.00000000E+00  0.00000000E+00  0.00000000E+00
  0.00000000E+00  0.00000000E+00  0.00000000E+00
  0.00000000E+00  0.00000000E+00  0.00000000E+00
  0.00000000E+00  0.00000000E+00  0.00000000E+00
  0.00000000E+00  0.00000000E+00  0.00000000E+00
  0.00000000E+00  0.00000000E+00  0.00000000E+00
  0.00000000E+00  0.00000000E+00  0.00000000E+00
  0.00000000E+00  0.00000000E+00  0.00000000E+00
  0.00000000E+00  0.00000000E+00  0.00000000E+00
  0.00000000E+00  0.00000000E+00  0.00000000E+00
  0.00000000E+00  0.00000000E+00  0.00000000E+00
  0.00000000E+00  0.00000000E+00  0.00000000E+00
  0.00000000E+00  0.00000000E+00  0.00000000E+00
  0.00000000E+00  0.00000000E+00  0.00000000E+00
  0.00000000E+00  0.00000000E+00  0.00000000E+00
  0.00000000E+00  0.00000000E+00  0.00000000E+00
  0.00000000E+00  0.00000000E+00  0.00000000E+00
  0.00000000E+00  0.00000000E+00  0.00000000E+00
  0.00000000E+00  0.00000000E+00  0.00000000E+00
  0.00000000E+00  0.00000000E+00  0.00000000E+00
  0.00000000E+00  0.00000000E+00  0.00000000E+00
  0.00000000E+00  0.00000000E+00  0.00000000E+00
  0.00000000E+00  0.00000000E+00  0.00000000E+00
  0.00000000E+00  0.00000000E+00  0.00000000E+00
  0.00000000E+00  0.00000000E+00  0.00000000E+00
  0.00000000E+00  0.00000000E+00  0.00000000E+00
  0.00000000E+00  0.00000000E+00  0.00000000E+00
  0.00000000E+00  0.00000000E+00  0.00000000E+00
  0.00000000E+00  0.00000000E+00  0.00000000E+00
  0.00000000E+00  0.00000000E+00  0.00000000E+00
  0.00000000E+00  0.00000000E+00  0.00000000E+00
  0.00000000E+00  0.00000000E+00  0.00000000E+00
  0.00000000E+00  0.00000000E+00  0.00000000E+00
  0.00000000E+00  0.00000000E+00  0.00000000E+00
  0.00000000E+00  0.00000000E+00  0.00000000E+00
  0.00000000E+00  0.00000000E+00  0.00000000E+00
  0.00000000E+00  0.00000000E+00  0.00000000E+00
  0.00000000E+00  0.00000000E+00  0.00000000E+00
  0.00000000E+00  0.00000000E+00  0.00000000E+00
  0.00000000E+00  0.00000000E+00  0.00000000E+00
  0.00000000E+00  0.00000000E+00  0.00000000E+00
  0.00000000E+00  0.00000000E+00  0.00000000E+00
  0.00000000E+00  0.00000000E+00  0.00000000E+00
  0.00000000E+00  0.00000000E+00  0.00000000E+00
  0.00000000E+00  0.00000000E+00  0.00000000E+00
  0.00000000E+00  0.00000000E+00  0.00000000E+00
  0.00000000E+00  0.00000000E+00  0.00000000E+00
  0.00000000E+00  0.00000000E+00  0.00000000E+00
  0.00000000E+00  0.00000000E+00  0.00000000E+00
  0.00000000E+00  0.00000000E+00  0.00000000E+00
  0.00000000E+00  0.00000000E+00  0.00000000E+00
  0.00000000E+00  0.00000000E+00  0.00000000E+00
  0.00000000E+00  0.00000000E+00  0.00000000E+00
  0.00000000E+00  0.00000000E+00  0.00000000E+00
  0.00000000E+00  0.00000000E+00  0.00000000E+00
  0.00000000E+00  0.00000000E+00  0.00000000E+00
  0.00000000E+00  0.00000000E+00  0.00000000E+00
  0.00000000E+00  0.00000000E+00  0.00000000E+00
  0.00000000E+00  0.00000000E+00  0.00000000E+00
  0.00000000E+00  0.00000000E+00  0.00000000E+00
  0.00000000E+00  0.00000000E+00  0.00000000E+00
  0.00000000E+00  0.00000000E+00  0.00000000E+00
  0.00000000E+00  0.00000000E+00  0.00000000E+00
  0.00000000E+00  0.00000000E+00  0.00000000E+00
  0.00000000E+00  0.00000000E+00  0.00000000E+00
  0.00000000E+00  0.00000000E+00  0.00000000E+00
  0.00000000E+00  0.00000000E+00  0.00000000E+00
  0.00000000E+00  0.00000000E+00  0.00000000E+00
  0.00000000E+00  0.00000000E+00  0.00000000E+00
  0.00000000E+00  0.00000000E+00  0.00000000E+00
  0.00000000E+00  0.00000000E+00  0.00000000E+00
  0.00000000E+00  0.00000000E+00  0.00000000E+00
  0.00000000E+00  0.00000000E+00  0.00000000E+00
  0.00000000E+00  0.00000000E+00  0.00000000E+00
  0.00000000E+00  0.00000000E+00  0.00000000E+00
  0.00000000E+00  0.00000000E+00  0.00000000E+00
  0.00000000E+00  0.00000000E+00  0.00000000E+00
  0.00000000E+00  0.00000000E+00  0.00000000E+00
  0.00000000E+00  0.00000000E+00  0.00000000E+00
  0.00000000E+00  0.00000000E+00  0.00000000E+00
  0.00000000E+00  0.00000000E+00  0.00000000E+00
  0.00000000E+00  0.00000000E+00  0.00000000E+00
  0.00000000E+00  0.00000000E+00  0.00000000E+00
