TiOF2 2x2x2 config 1440                 
   1.00000000000000     
     7.7881271655710256    0.0006682847981759   -0.0016823958459654
     0.0006871871929027    7.6999892516241744   -0.0010881047768326
    -0.0016575699836393   -0.0010770373974208    7.7371809786096017
   Ti   O    F 
     8     8    16
Direct
  0.0016195755822963  0.0012507142318086  0.0003961924733886
  0.0008691236694816  0.9802293053264464  0.5002160528471222
  0.9819971120717881  0.5005987241805769  0.9865935443409768
  0.9856560693877086  0.4997676330698226  0.5124137711673882
  0.5009370898720533  0.0004514335062709  0.0022088969488792
  0.5002898924782002  0.0010265559898528  0.4815025437718106
  0.5055064622853251  0.5006207843172419  0.0069925442166578
  0.5113794096806288  0.5003204134843671  0.4830065006444713
  0.7550165568292257  0.5008958604712959  0.0004145821185801
  0.7515733757333152  0.4983048048904166  0.4983166970167403
  0.0009170170778816  0.7572937832126385  0.4983485585073524
  0.5004975913273526  0.2429350864541746  0.9983970382569041
  0.5005022053490933  0.7577789050691877  0.9984189134322108
  0.0034640772199737  0.4981543537469619  0.7500673976191905
  0.5015055495843512  0.0002017471192843  0.2573946952052140
  0.4966903026262912  0.5007218015906290  0.2540765985980826
  0.2399756719482866  0.0000872089561028  0.9969524089998600
  0.2478825564625780  0.0049821817878453  0.5037606139225517
  0.2432972435179224  0.5009544363963059  0.0018465394823082
  0.2488658485305351  0.4976495428592287  0.4987573613553664
  0.7629414253415518  0.0001149902932553  0.9969818816167688
  0.7530495384367057  0.0055000229034192  0.5040073282473472
  0.0043545576405535  0.2423027274978509  0.0047754384222003
  0.0027135929044348  0.2398303827095773  0.4963156062856200
  0.0041806306374212  0.7596029153493689  0.0053028198841929
  0.4962597081283562  0.2468977754248058  0.5128067607709426
  0.4957851935794082  0.7545764942030928  0.5123906539830685
  0.0001643125102220  0.0041792235586513  0.2462839495552416
  0.0001966356332659  0.0044923999961597  0.7544860955811430
  0.0079906173322044  0.4975340499197287  0.2487025361918569
  0.5015609336039475  0.9999883111860726  0.7422311635607954
  0.4923601230176331  0.5007554302975521  0.7456343149757956
 
  0.00000000E+00  0.00000000E+00  0.00000000E+00
  0.00000000E+00  0.00000000E+00  0.00000000E+00
  0.00000000E+00  0.00000000E+00  0.00000000E+00
  0.00000000E+00  0.00000000E+00  0.00000000E+00
  0.00000000E+00  0.00000000E+00  0.00000000E+00
  0.00000000E+00  0.00000000E+00  0.00000000E+00
  0.00000000E+00  0.00000000E+00  0.00000000E+00
  0.00000000E+00  0.00000000E+00  0.00000000E+00
  0.00000000E+00  0.00000000E+00  0.00000000E+00
  0.00000000E+00  0.00000000E+00  0.00000000E+00
  0.00000000E+00  0.00000000E+00  0.00000000E+00
  0.00000000E+00  0.00000000E+00  0.00000000E+00
  0.00000000E+00  0.00000000E+00  0.00000000E+00
  0.00000000E+00  0.00000000E+00  0.00000000E+00
  0.00000000E+00  0.00000000E+00  0.00000000E+00
  0.00000000E+00  0.00000000E+00  0.00000000E+00
  0.00000000E+00  0.00000000E+00  0.00000000E+00
  0.00000000E+00  0.00000000E+00  0.00000000E+00
  0.00000000E+00  0.00000000E+00  0.00000000E+00
  0.00000000E+00  0.00000000E+00  0.00000000E+00
  0.00000000E+00  0.00000000E+00  0.00000000E+00
  0.00000000E+00  0.00000000E+00  0.00000000E+00
  0.00000000E+00  0.00000000E+00  0.00000000E+00
  0.00000000E+00  0.00000000E+00  0.00000000E+00
  0.00000000E+00  0.00000000E+00  0.00000000E+00
  0.00000000E+00  0.00000000E+00  0.00000000E+00
  0.00000000E+00  0.00000000E+00  0.00000000E+00
  0.00000000E+00  0.00000000E+00  0.00000000E+00
  0.00000000E+00  0.00000000E+00  0.00000000E+00
  0.00000000E+00  0.00000000E+00  0.00000000E+00
  0.00000000E+00  0.00000000E+00  0.00000000E+00
  0.00000000E+00  0.00000000E+00  0.00000000E+00
