TiOF2 2x2x2 config 1440                 
   1.00000000000000     
     7.7881271655710256    0.0006682847981759   -0.0016823958459654
     0.0006871871929027    7.6999892516241744   -0.0010881047768326
    -0.0016575699836393   -0.0010770373974208    7.7371809786096017
   Ti   O    F 
     8     8    16
Direct
  0.0016195755822974  0.0012507142318062  0.0003961924733863
  0.0008691236694783  0.9802293053264459  0.5002160528471220
  0.9819971120717911  0.5005987241805741  0.9865935443409749
  0.9856560693877081  0.4997676330698240  0.5124137711673915
  0.5009370898720533  0.0004514335062701  0.0022088969488777
  0.5002898924781981  0.0010265559898528  0.4815025437718076
  0.5055064622853270  0.5006207843172421  0.0069925442166594
  0.5113794096806301  0.5003204134843693  0.4830065006444710
  0.7550165568292269  0.5008958604712924  0.0004145821185789
  0.7515733757333182  0.4983048048904139  0.4983166970167392
  0.0009170170778791  0.7572937832126387  0.4983485585073521
  0.5004975913273548  0.2429350864541744  0.9983970382569028
  0.5005022053490958  0.7577789050691907  0.9984189134322080
  0.0034640772199705  0.4981543537469600  0.7500673976191929
  0.5015055495843517  0.0002017471192870  0.2573946952052136
  0.4966903026262933  0.5007218015906285  0.2540765985980802
  0.2399756719482872  0.0000872089561043  0.9969524089998628
  0.2478825564625776  0.0049821817878479  0.5037606139225539
  0.2432972435179258  0.5009544363963031  0.0018465394823087
  0.2488658485305338  0.4976495428592260  0.4987573613553644
  0.7629414253415491  0.0001149902932578  0.9969818816167723
  0.7530495384367036  0.0055000229034223  0.5040073282473483
  0.0043545576405523  0.2423027274978518  0.0047754384222000
  0.0027135929044356  0.2398303827095746  0.4963156062856213
  0.0041806306374229  0.7596029153493706  0.0053028198841946
  0.4962597081283586  0.2468977754248093  0.5128067607709402
  0.4957851935794110  0.7545764942030955  0.5123906539830689
  0.0001643125102192  0.0041792235586528  0.2462839495552396
  0.0001966356332638  0.0044923999961629  0.7544860955811444
  0.0079906173322078  0.4975340499197320  0.2487025361918542
  0.5015609336039480  0.9999883111860736  0.7422311635607947
  0.4923601230176333  0.5007554302975536  0.7456343149757956
 
  0.00000000E+00  0.00000000E+00  0.00000000E+00
  0.00000000E+00  0.00000000E+00  0.00000000E+00
  0.00000000E+00  0.00000000E+00  0.00000000E+00
  0.00000000E+00  0.00000000E+00  0.00000000E+00
  0.00000000E+00  0.00000000E+00  0.00000000E+00
  0.00000000E+00  0.00000000E+00  0.00000000E+00
  0.00000000E+00  0.00000000E+00  0.00000000E+00
  0.00000000E+00  0.00000000E+00  0.00000000E+00
  0.00000000E+00  0.00000000E+00  0.00000000E+00
  0.00000000E+00  0.00000000E+00  0.00000000E+00
  0.00000000E+00  0.00000000E+00  0.00000000E+00
  0.00000000E+00  0.00000000E+00  0.00000000E+00
  0.00000000E+00  0.00000000E+00  0.00000000E+00
  0.00000000E+00  0.00000000E+00  0.00000000E+00
  0.00000000E+00  0.00000000E+00  0.00000000E+00
  0.00000000E+00  0.00000000E+00  0.00000000E+00
  0.00000000E+00  0.00000000E+00  0.00000000E+00
  0.00000000E+00  0.00000000E+00  0.00000000E+00
  0.00000000E+00  0.00000000E+00  0.00000000E+00
  0.00000000E+00  0.00000000E+00  0.00000000E+00
  0.00000000E+00  0.00000000E+00  0.00000000E+00
  0.00000000E+00  0.00000000E+00  0.00000000E+00
  0.00000000E+00  0.00000000E+00  0.00000000E+00
  0.00000000E+00  0.00000000E+00  0.00000000E+00
  0.00000000E+00  0.00000000E+00  0.00000000E+00
  0.00000000E+00  0.00000000E+00  0.00000000E+00
  0.00000000E+00  0.00000000E+00  0.00000000E+00
  0.00000000E+00  0.00000000E+00  0.00000000E+00
  0.00000000E+00  0.00000000E+00  0.00000000E+00
  0.00000000E+00  0.00000000E+00  0.00000000E+00
  0.00000000E+00  0.00000000E+00  0.00000000E+00
  0.00000000E+00  0.00000000E+00  0.00000000E+00
