TiOF2 2x2x2 config 1237                 
   1.00000000000000     
     7.7578428863840907    0.0000000227954252    0.0024280294206829
     0.0000000307841964    7.7614230737824759    0.0000000080477196
     0.0025045916873470    0.0000000049074075    7.6695931728604645
   Ti   O    F 
     8     8    16
Direct
  0.0003022325735031  0.0013187563341361  0.9801281989459554
  0.0001755071533651  0.9812720301993139  0.5019096362125666
  0.9873567979897970  0.5008254990031062  0.9849439106339304
  0.9875063990352118  0.5041184655172088  0.5083032510626069
  0.4996977315976352  0.0013188045233790  0.0198718951365535
  0.4998245398001444  0.9812720793151186  0.4980904092996497
  0.5126431523774855  0.5008255423995038  0.0150560343455410
  0.5124936584533373  0.5041185048665824  0.4916966886236551
  0.7499999778206927  0.5016816153671684  0.9999999589674076
  0.7500000215651283  0.4975462135474729  0.4999999303694622
  0.0006563757814391  0.7547564479657822  0.4956658241943828
  0.4993436975052816  0.7547564658874961  0.5043342228334282
  0.9994074210714388  0.0013229759059854  0.7530655435030837
  0.0041434514629444  0.4986112842340447  0.7522931074587405
  0.5005926111248584  0.0013230356898006  0.2469344689800437
  0.4958565266849533  0.4986113627533015  0.2477068396390933
  0.2499999801986945  0.0002075065715417  0.0000000731385157
  0.2500000158151749  0.0092889568101739  0.5000000423092885
  0.2499999848127317  0.5017322172945526  0.9999999425996222
  0.2500000195189784  0.4960192103646150  0.4999999605284842
  0.7499999797421992  0.0001442156469125  0.0000000089101775
  0.7500000261336766  0.0107751029688075  0.5000000589445790
  0.0032631995890000  0.2465937217953851  0.0094656080996174
  0.0022575723397011  0.2453340091553358  0.4937133762262107
  0.0032644883263657  0.7554403347714356  0.0110258817807676
  0.4967367157630278  0.2465937577073305  0.9905343825821049
  0.4977424837412983  0.2453340479504718  0.5062866090461355
  0.4967354445633276  0.7554403868161899  0.9889741434370478
  0.9992460324803147  0.0039033995504241  0.2440856213224549
  0.0091395991744960  0.4978052638917987  0.2470539476779763
  0.5007539315343621  0.0039034639396860  0.7559144317699733
  0.4908604242694281  0.4978053212559388  0.7529459914209227
 
  0.00000000E+00  0.00000000E+00  0.00000000E+00
  0.00000000E+00  0.00000000E+00  0.00000000E+00
  0.00000000E+00  0.00000000E+00  0.00000000E+00
  0.00000000E+00  0.00000000E+00  0.00000000E+00
  0.00000000E+00  0.00000000E+00  0.00000000E+00
  0.00000000E+00  0.00000000E+00  0.00000000E+00
  0.00000000E+00  0.00000000E+00  0.00000000E+00
  0.00000000E+00  0.00000000E+00  0.00000000E+00
  0.00000000E+00  0.00000000E+00  0.00000000E+00
  0.00000000E+00  0.00000000E+00  0.00000000E+00
  0.00000000E+00  0.00000000E+00  0.00000000E+00
  0.00000000E+00  0.00000000E+00  0.00000000E+00
  0.00000000E+00  0.00000000E+00  0.00000000E+00
  0.00000000E+00  0.00000000E+00  0.00000000E+00
  0.00000000E+00  0.00000000E+00  0.00000000E+00
  0.00000000E+00  0.00000000E+00  0.00000000E+00
  0.00000000E+00  0.00000000E+00  0.00000000E+00
  0.00000000E+00  0.00000000E+00  0.00000000E+00
  0.00000000E+00  0.00000000E+00  0.00000000E+00
  0.00000000E+00  0.00000000E+00  0.00000000E+00
  0.00000000E+00  0.00000000E+00  0.00000000E+00
  0.00000000E+00  0.00000000E+00  0.00000000E+00
  0.00000000E+00  0.00000000E+00  0.00000000E+00
  0.00000000E+00  0.00000000E+00  0.00000000E+00
  0.00000000E+00  0.00000000E+00  0.00000000E+00
  0.00000000E+00  0.00000000E+00  0.00000000E+00
  0.00000000E+00  0.00000000E+00  0.00000000E+00
  0.00000000E+00  0.00000000E+00  0.00000000E+00
  0.00000000E+00  0.00000000E+00  0.00000000E+00
  0.00000000E+00  0.00000000E+00  0.00000000E+00
  0.00000000E+00  0.00000000E+00  0.00000000E+00
  0.00000000E+00  0.00000000E+00  0.00000000E+00
