TiOF2 2x2x2 config 1564                 
   1.00000000000000     
     7.7545034927437300   -0.0014962164842858    0.0000954428485842
    -0.0015635038988139    7.6515762577268456   -0.0017898099241892
     0.0000957007814846   -0.0017482275383902    7.7516263714463909
   Ti   O    F 
     8     8    16
Direct
  0.0003168527607187  0.9888049253189877  0.9865555356244826
  0.0003933023618359  0.9876690613650467  0.5134391274461407
  0.9872701073685022  0.5112521310671170  0.0004305314372317
  0.9873051663369452  0.5115689589070911  0.4996087757706107
  0.4997467531151756  0.9885642211442445  0.0134412747808454
  0.4996698464701410  0.0124675904356906  0.4866247541236675
  0.5127027629251728  0.5124210791002426  0.9994947023993532
  0.5126570849962278  0.4873654666149818  0.5004408115967891
  0.7500162553673846  0.4971277662331275  0.9999302735890652
  0.7499904953800538  0.5004163482380619  0.5000920384826912
  0.0016888351576725  0.7499892061793219  0.0025233805755036
  0.0014878047402291  0.7493806356430852  0.4975367731438780
  0.4987951750963973  0.2499838239515526  0.5017795072122198
  0.4984916974830114  0.7506323774847914  0.9978509585114992
  0.9993681023694663  0.0025045492470070  0.7500546250276798
  0.5005982301111089  0.9994722116812653  0.2499776948362324
  0.2500465832110095  0.0099692697137499  0.9999208195302813
  0.2500431937617336  0.9995445198397093  0.5001187845082740
  0.2500579411786461  0.4944711447084842  0.9999654038006156
  0.2500839782164803  0.5004249172372610  0.5000578196793981
  0.7500182591530020  0.0121715036300856  0.9999527367074919
  0.7500129537729165  0.9993744305576300  0.5000787934771296
  0.0036997991373511  0.2498988589108677  0.0042934080950445
  0.0039591062904876  0.2490598622105793  0.4958206050447487
  0.4963359216822383  0.2507237017069599  0.9953157739530667
  0.4960291038299331  0.7500894497731707  0.5047380372799566
  0.9992687251790073  0.0055813350930407  0.2501353986286148
  0.0082860807180296  0.4900290978201554  0.2500243159268365
  0.0079566546365299  0.4883193207823666  0.7500032997298902
  0.5007653878083929  0.9996087239257250  0.7498483506831803
  0.4916665227991430  0.5006557455581344  0.2499933076909926
  0.4912713165850633  0.5004577659204799  0.7499523807066026
 
  0.00000000E+00  0.00000000E+00  0.00000000E+00
  0.00000000E+00  0.00000000E+00  0.00000000E+00
  0.00000000E+00  0.00000000E+00  0.00000000E+00
  0.00000000E+00  0.00000000E+00  0.00000000E+00
  0.00000000E+00  0.00000000E+00  0.00000000E+00
  0.00000000E+00  0.00000000E+00  0.00000000E+00
  0.00000000E+00  0.00000000E+00  0.00000000E+00
  0.00000000E+00  0.00000000E+00  0.00000000E+00
  0.00000000E+00  0.00000000E+00  0.00000000E+00
  0.00000000E+00  0.00000000E+00  0.00000000E+00
  0.00000000E+00  0.00000000E+00  0.00000000E+00
  0.00000000E+00  0.00000000E+00  0.00000000E+00
  0.00000000E+00  0.00000000E+00  0.00000000E+00
  0.00000000E+00  0.00000000E+00  0.00000000E+00
  0.00000000E+00  0.00000000E+00  0.00000000E+00
  0.00000000E+00  0.00000000E+00  0.00000000E+00
  0.00000000E+00  0.00000000E+00  0.00000000E+00
  0.00000000E+00  0.00000000E+00  0.00000000E+00
  0.00000000E+00  0.00000000E+00  0.00000000E+00
  0.00000000E+00  0.00000000E+00  0.00000000E+00
  0.00000000E+00  0.00000000E+00  0.00000000E+00
  0.00000000E+00  0.00000000E+00  0.00000000E+00
  0.00000000E+00  0.00000000E+00  0.00000000E+00
  0.00000000E+00  0.00000000E+00  0.00000000E+00
  0.00000000E+00  0.00000000E+00  0.00000000E+00
  0.00000000E+00  0.00000000E+00  0.00000000E+00
  0.00000000E+00  0.00000000E+00  0.00000000E+00
  0.00000000E+00  0.00000000E+00  0.00000000E+00
  0.00000000E+00  0.00000000E+00  0.00000000E+00
  0.00000000E+00  0.00000000E+00  0.00000000E+00
  0.00000000E+00  0.00000000E+00  0.00000000E+00
  0.00000000E+00  0.00000000E+00  0.00000000E+00
