config 08                               
   1.00000000000000     
    15.4263309999999993    0.0000000000000000    0.0000000000000000
     0.0000000000000000   15.4263309999999993    0.0000000000000000
     0.0000000000000000    0.0000000000000000   15.4263309999999993
   Li   Ti   O    F 
     1    64    64   128
Direct
  0.1267526886716342  0.3747974450167948  0.9470172947010016
  0.9947485520634770  0.9939999320152230  0.9938813393446704
  0.9995405324076470  0.9922113143835413  0.4931468095980361
  0.0044394920696442  0.4950324043625631  0.9965981729054589
  0.9942511810929420  0.5023487335543488  0.5069745348644481
  0.4941088364210180  0.9944195992626301  0.9995404143924537
  0.5009727342715007  0.0078317146990142  0.4998708569592704
  0.5046715975423505  0.4958719257369839  0.9954784016892138
  0.4915404691469076  0.4990488528087404  0.4952803283736556
  0.0062586986450709  0.0031875762163410  0.2559302330177152
  0.0013430732690362  0.0078206461302753  0.7559510100017047
  0.9938877427871314  0.4937955675305692  0.2512333018122724
  0.9926231555446109  0.4997530869031149  0.7409456492076940
  0.5056482122378323  0.0090020436558362  0.2504251641429360
  0.4928497506936533  0.0051476973453621  0.7519408783956159
  0.4928427781291526  0.4968594647726756  0.2568368480816546
  0.5007871956283994  0.5043385410213602  0.7579426533389537
  0.9951156793033811  0.2512720252137382  0.0011687439866055
  0.9982589849949766  0.2479209378840571  0.4907980819496494
  0.9979527297931036  0.7572675582457782  0.0061197985513713
  0.9975373590981079  0.7569215104997072  0.5057342015083487
  0.4975830454157411  0.2582799683031629  0.0013513828484871
  0.5082932130996533  0.2454475346379688  0.4985822519247861
  0.5073388306826290  0.7564145251775747  0.9991112470442097
  0.5066858943908744  0.7531012330427503  0.5090031720289412
  0.9996128179657823  0.2583511322781894  0.2547638511385738
  0.0058203467244373  0.2422083890312711  0.7462189312436895
  0.0066925890331986  0.7488098619757452  0.2432501946181520
  0.9927831430332730  0.7506909070165222  0.7431337987075336
  0.5090665416460631  0.2424845086922570  0.2520036141147287
  0.5065963067952194  0.2429577019398295  0.7498321064141253
  0.5066944566455406  0.7517387970560094  0.2519409519793027
  0.5019397843428675  0.7421927339529547  0.7434456303881420
  0.2563512698017357  0.9986783091391825  0.0061243687851189
  0.2498551684834617  0.9939306458913076  0.5065515547292657
  0.2463690978692826  0.5111679948448343  0.9975619500414085
  0.2539028747902540  0.4943338002133705  0.5064785206022479
  0.7568162131907195  0.0003903964373688  0.9939261485876798
  0.7503631314424135  0.0065649940142086  0.4942080887097487
  0.7417798546628733  0.4997711964133681  0.0044303499227704
  0.7552305294895558  0.4976583870006152  0.5050509288278413
  0.2445140864300521  0.0027686807314182  0.2439304549441377
  0.2576639553691590  0.9979515533009522  0.7443264835358852
  0.2552497428646522  0.4925504874604045  0.2513059424565743
  0.2468824323748975  0.5062493817510378  0.7406171792805838
  0.7443189868003027  0.0006807568880734  0.2554549026960536
  0.7481171061099298  0.0061584066043675  0.7557837655888631
  0.7556871218432523  0.4988810847012052  0.2422336878226528
  0.7571092544816651  0.4982109561050772  0.7418520898053574
  0.2611289209286564  0.2485395076678868  0.0068857959008830
  0.2527771115716660  0.2566870669656278  0.5052505560300473
  0.2518929254011388  0.7449326150945641  0.9932214131329380
  0.2515647079827187  0.7552361900784634  0.4925648093239210
  0.7566459633592537  0.2499080416251480  0.0068812893972789
  0.7429580644492736  0.2424941582917424  0.4969834737694812
  0.7418701187691157  0.7492038136859487  0.9939432309754270
  0.7415042646942633  0.7523242317134387  0.4939932234023804
  0.2511241784668379  0.2580718721928690  0.2439764693570745
  0.2438343900847794  0.2514455503187182  0.7434750192902558
  0.2437917949246765  0.7483044844886159  0.2555017938558424
  0.2476211275956930  0.7419138976261020  0.7560854907121057
  0.7419895693503694  0.2512560785528790  0.2417640901831918
  0.7439251310194714  0.2420175180245931  0.7501348595057873
  0.7454779219034545  0.7502767796258367  0.2565707948683351
  0.7575095191812856  0.7503129726050293  0.7566163649225534
  0.0113689369930354  0.4999963143544257  0.6241833205077705
  0.9946089485342385  0.0072852438129663  0.3759449144515618
  0.9987302280724585  0.0041225266323368  0.8722597283440332
  0.4969655611326703  0.4933469247688724  0.3749867126041651
  0.4915869043050926  0.4979366382482222  0.8743927343039667
  0.9986479900713804  0.7473053038048513  0.1257446728801154
  0.0013658755260627  0.7476652843089773  0.6240587006236680
  0.5009938369692177  0.7550528204451488  0.6248459573040388
  0.9917185224581868  0.2442945896409542  0.3765212234075568
  0.2547752304792314  0.0042668738977155  0.1252378316698450
  0.2540672196821737  0.0040754162356588  0.6252814685931420
  0.2362812539487534  0.4951119380726245  0.6257739450416605
  0.7485468146322112  0.4920094819553209  0.1250304447649697
  0.7435619294807653  0.4936261015525146  0.6237521356637846
  0.7509490896121354  0.9984288464588533  0.3759354735884434
  0.7463464053366659  0.9969650589351855  0.8732645193478673
  0.2435141678050913  0.2504099508005840  0.1252761768476121
  0.2507763779716056  0.2499621552526249  0.6248555633921872
  0.7358200517348626  0.2585030748394616  0.1276784383422854
  0.2547760529183837  0.7464323282039688  0.3744620844446038
  0.2508672861332861  0.7529307818634114  0.8752864828525695
  0.7517479911011173  0.7524780607873431  0.3740369916289482
  0.7475604757305432  0.7529299900671071  0.8752664856700966
  0.1271532511604526  0.4981796467910913  0.9853573926957093
  0.6256818803743823  0.5070776022768034  0.9956707069769425
  0.1252333221402709  0.0038939100400658  0.2522570592563072
  0.6247189794092810  0.0015368163881474  0.2497452651708662
  0.6241619856687234  0.2560843360568554  0.4927444720995436
  0.6245855079236949  0.7418892481548036  0.0038510994737481
  0.6243144600015300  0.7623283732668930  0.4963647139502687
  0.1249163493108680  0.2535189166501152  0.7524744318424003
  0.1253760155534690  0.7515073382151193  0.2519307610164198
  0.6248481528641877  0.2448654634639491  0.2666806833532089
  0.6249402286799092  0.2531777902374774  0.7471418977980880
  0.6227394414191654  0.7543773613130281  0.2505591831028520
  0.3756946926456439  0.0011849615337537  0.9918789289015403
  0.3750016379920877  0.5047420207705891  0.5061762255786459
  0.8728701592774786  0.0039879826457301  0.0001565088785377
  0.8753224874522995  0.5006218676465830  0.5018173805819317
  0.3760094122449427  0.9974343004693206  0.7570631087487874
  0.3737539589105618  0.4958935326837424  0.2457585875300133
  0.8757093891229057  0.4980300538502651  0.2491120121537180
  0.8752197710537992  0.5098018302955274  0.7419266531565970
  0.3778254436780357  0.2462721116825151  0.0069012625492086
  0.8691053880342021  0.2450319060894058  0.0105311563898097
  0.8749440914654049  0.7414246039376327  0.7498579998883258
  0.5098331128501910  0.1222598271776075  0.4961791207458155
  0.9981294740756829  0.1256847523523029  0.7390621134943899
  0.4939090314634097  0.1251295379796351  0.2621774173760970
  0.5018161222128052  0.1234544614195337  0.7464154440461007
  0.5027051968894168  0.6252553930923943  0.7484674168703001
  0.0069846273787573  0.3776750963117790  0.9934601530109742
  0.0000590775884436  0.8741320188400902 -0.0007578665027493
  0.9978723087403705  0.8749791832719837  0.4964463003240946
  0.5020484404802978  0.3744390290568718  0.0070338257044778
  0.5030193358821924  0.8750903588866931  0.0026122634663932
  0.0074339600270010  0.3746279473012730  0.2509700716712153
  0.2549715100618526  0.6268510011943274  0.0035864917550221
  0.7427373753190298  0.1248005220938995  0.5035979274020175
  0.2453440555560168  0.6248078844707154  0.7500329189959604
  0.7499980353888135  0.1244243075628273  0.7446282499767333
  0.2512124689136684  0.3733326516674564  0.4935096434734229
  0.2513623528256499  0.8756514062946033  0.5000942365081771
  0.2412625164220402  0.3748245748225162  0.2563964278023628
  0.0002352461484353  0.9996085265927858  0.1266203218506541
  0.0057906726225202  0.9948773991617462  0.6232082898085709
  0.0050731560464440  0.5057434510211929  0.1241552179567171
  0.4929093124500140  0.0066168085594064  0.1262990522385191
  0.4966985387987085  0.9928242198694781  0.6230803734509323
  0.5040700664589469  0.5084047033904924  0.1268715543917145
  0.5096118538712511  0.4996243787326430  0.6243395053953404
  0.0011743107524953  0.4985629008382462  0.3758865127246198
  0.9910562456826730  0.5040072923478692  0.8716789542655939
  0.5035799102447256  0.9901015269997523  0.3768637006299790
  0.5156032812880644  0.0017356953886164  0.8750863641623793
  0.0126487061956048  0.2491796904538300  0.1306069609464284
  0.0024773743614206  0.2620998687145601  0.6206385397198093
  0.5126941082352204  0.2389273785922643  0.1268821645342024
  0.4961383940408751  0.2478864198577957  0.6224996830139251
  0.4956193589996452  0.7458428236666943  0.1268241113912638
  0.9897686690191139  0.2461237024440503  0.8695955175594514
  0.9936515208641077  0.7493075685750754  0.3749193605726644
  0.0023537566295672  0.7491452705628826  0.8736937506719541
  0.4882056022935566  0.2631293060152703  0.3759649455224982
  0.4980101777409967  0.2512367668028507  0.8744140366793915
  0.4927749042419792  0.7536058208355740  0.3756768701796123
  0.4994378732277717  0.7501474658878454  0.8740642358205489
  0.2411369189614470  0.4926524649334998  0.1235453211935609
  0.7492558571767397  0.0042845077838472  0.1263442821589739
  0.7452287167751955  0.9958867780424977  0.6229109749168610
  0.2527735387276156  0.0012059993745300  0.3755133122225112
  0.2433149276515623  0.9936137290287115  0.8744908631501329
  0.2503825149003760  0.5119333561489106  0.3747744729925892
  0.2650229529962831  0.4994448628865088  0.8735765309812227
  0.7484746908012249  0.5076358498563297  0.3744849874384805
  0.7558497855266307  0.5053828592272495  0.8737566569858788
  0.2522516354000631  0.7554356438957198  0.1249489929129910
  0.2488340829605145  0.7508034592304730  0.6250894696718805
  0.7487433667851696  0.2611670622576779  0.6222018060691556
  0.7529171597929756  0.7469438422589393  0.1256629144944431
  0.7476507860983206  0.7475123223424575  0.6242802054894840
  0.2555886912383311  0.2439311667480347  0.3741837834307140
  0.2564943754257455  0.2519197170054994  0.8749280721733166
  0.7648920739420904  0.2429992061496851  0.3745387387378278
  0.7525499345030502  0.2453823207603990  0.8745013276305139
  0.1263176845051050  0.9983130972441955  0.0015087437004168
  0.1248391704802210  0.0062855438628918  0.4968323272585175
  0.1236777820161986  0.5015080107855541  0.4896344285677171
  0.6247342245246561  0.9984881560138876  0.0084689895565137
  0.6237447255622606  0.9831079781685510  0.5019363304423471
  0.6249778198321062  0.4933008670707111  0.4954039886794131
  0.1269939503780070 -0.0005820895185014  0.7480612664996062
  0.1243837710673826  0.5085223062095755  0.2507861576362341
  0.1238308807634392  0.4901445953195870  0.7674416121602678
  0.6235134802053030  0.9935725654357407  0.7410788563127167
  0.6248783629508756  0.4992223614496334  0.2513692137429412
  0.6263911936897398  0.4919729572542886  0.7577941602161091
  0.1304535098585908  0.2580754462081133  0.9851043160643165
  0.1237239477764104  0.2445926004368152  0.4957744678094735
  0.1254780704699447  0.7469101770818336  0.0014111285717170
  0.1240654719763712  0.7486041622765951  0.4952187195245821
  0.6242548563726913  0.2500699439861980  0.9908059278755195
  0.1251698061947557  0.2366781203789135  0.2609323284067876
  0.1234309705181117  0.7564385913592896  0.7506850950797359
  0.6264056571399467  0.7553635168877947  0.7494431404159846
  0.3772948191325975  0.0073380275657275  0.4958880383617239
  0.3732582445529699  0.4945273991354545  0.0106018988170693
  0.8745865404139681  0.0057894132167910  0.5099803866068037
  0.8755757654194443  0.4977107121145356  0.0025613239302419
  0.3768003749380468  0.9954315727096499  0.2565778126038832
  0.3745733719335785  0.5003020683207353  0.7369608465684732
  0.8736828207028189  0.9984410492130578  0.2464968116851760
  0.8741959958086541  0.9952874954828546  0.7411096126843827
  0.3785007056922177  0.2418969302409106  0.4991957505935102
  0.3764171569837292  0.7568885289077917  0.0009430924464796
  0.3768448349901226  0.7428514531336659  0.5027447980625049
  0.8740329590795739  0.2512502064293168  0.5078357000452977
  0.8724102506487449  0.7524435042913565  0.9979577002017204
  0.8722780845045534  0.7435874837924203  0.5031390997396741
  0.3778475201398862  0.2584137861293105  0.2435342331820588
  0.3760659780411840  0.2488408753119412  0.7500862382833470
  0.3769098711405440  0.7485166312244124  0.2473982281651229
  0.3748791016553627  0.7530343129646715  0.7494275162229058
  0.8739596419780195  0.2568527558402376  0.2412384076290345
  0.8735607929056143  0.2529806129454446  0.7414860662168399
  0.8734824554911569  0.7470125719833631  0.2490703005703940
  0.0094440165799480  0.1237512100498118  0.0037622197344559
  0.9966502830615284  0.1256392886279263  0.5116798523335230
  0.9969516107128653  0.6257299567585718  0.9959875322375027
  1.0008556869103515  0.6264203736514705  0.4938664104818589
  0.5055809575815996  0.1241273336723354  0.9976018139854214
  0.4887445023821348  0.6270879686872189  0.9993613023731728
  0.5083906962423304  0.6265700464137237  0.4977050737313282
  0.9908862425422660  0.1274179004166551  0.2447287353547625
  0.9988305798535280  0.6236226293445994  0.2556434949860778
  0.0140340217078966  0.6247614041154060  0.7523489179551611
  0.5013136394754527  0.6260524755762330  0.2557871122498876
  0.0035685970494607  0.3740356738030028  0.4949232586725401
  0.4930147197910199  0.3719306461652344  0.5072884749877812
  0.4866714502667123  0.8777694338451564  0.4970160554958218
  0.9946763152154406  0.3753378108011993  0.7538616163544588
  0.9956602502329328  0.8759667932919313  0.2527974243587530
  0.9977863353560745  0.8756509736162715  0.7489831030224997
  0.5047794281887523  0.3721442912145316  0.2391848191404507
  0.4954094193855163  0.3734303129535619  0.7449582290829119
  0.4961575936358364  0.8761725033171888  0.2460345052454819
  0.5014188906690680  0.8749580369051136  0.7555718020920854
  0.2432673829168014  0.1245391171625862  0.9922139521527990
  0.2500443950370009  0.1245146246956248  0.4966311690234502
  0.2459472056706113  0.6264444965529289  0.5053943744313024
  0.7383042224930881  0.1247333980104774  1.0009909132951176
  0.7609601219349313  0.6248967843101738  0.0020835967638960
  0.7428900431487472  0.6254670649086072  0.5013006861399876
  0.2607348185738987  0.1268570921826710  0.2527982938097414
  0.2503608450611036  0.1245541468414731  0.7579967161253729
  0.2516239913669851  0.6238736705874992  0.2393727422032827
  0.7587050569169913  0.1259663985756289  0.2487337088711687
  0.7457483464106857  0.6251035577148810  0.2471007375892142
  0.7374884704833135  0.6246066205994905  0.7477676717937769
  0.2464507989599810  0.3753866479183357  0.9920859913035737
  0.2469494139946778  0.8741405667452341  0.0041636370667160
  0.7483825498184237  0.3752124156369801  0.9877737505450178
  0.7539409300938869  0.3725833732425528  0.4879885327168498
  0.7471105682047162  0.8744006483591645  0.0089911708957914
  0.7618401112352653  0.8760938203894839  0.5040344878654209
  0.2547375404165630  0.3763109117567683  0.7573983273188685
  0.2535472279870896  0.8758800596685885  0.2508613745629348
  0.2480617800560292  0.8733978065486956  0.7452629697479093
  0.7473919042218197  0.3748037981217561  0.2655742225482344
  0.7559075326379900  0.3740281796141383  0.7574753628024030
  0.7539308418828823  0.8752843449506911  0.2422071132930708
  0.7530108829616413  0.8746596459588654  0.7431083522573702
 
  0.00000000E+00  0.00000000E+00  0.00000000E+00
  0.00000000E+00  0.00000000E+00  0.00000000E+00
  0.00000000E+00  0.00000000E+00  0.00000000E+00
  0.00000000E+00  0.00000000E+00  0.00000000E+00
  0.00000000E+00  0.00000000E+00  0.00000000E+00
  0.00000000E+00  0.00000000E+00  0.00000000E+00
  0.00000000E+00  0.00000000E+00  0.00000000E+00
  0.00000000E+00  0.00000000E+00  0.00000000E+00
  0.00000000E+00  0.00000000E+00  0.00000000E+00
  0.00000000E+00  0.00000000E+00  0.00000000E+00
  0.00000000E+00  0.00000000E+00  0.00000000E+00
  0.00000000E+00  0.00000000E+00  0.00000000E+00
  0.00000000E+00  0.00000000E+00  0.00000000E+00
  0.00000000E+00  0.00000000E+00  0.00000000E+00
  0.00000000E+00  0.00000000E+00  0.00000000E+00
  0.00000000E+00  0.00000000E+00  0.00000000E+00
  0.00000000E+00  0.00000000E+00  0.00000000E+00
  0.00000000E+00  0.00000000E+00  0.00000000E+00
  0.00000000E+00  0.00000000E+00  0.00000000E+00
  0.00000000E+00  0.00000000E+00  0.00000000E+00
  0.00000000E+00  0.00000000E+00  0.00000000E+00
  0.00000000E+00  0.00000000E+00  0.00000000E+00
  0.00000000E+00  0.00000000E+00  0.00000000E+00
  0.00000000E+00  0.00000000E+00  0.00000000E+00
  0.00000000E+00  0.00000000E+00  0.00000000E+00
  0.00000000E+00  0.00000000E+00  0.00000000E+00
  0.00000000E+00  0.00000000E+00  0.00000000E+00
  0.00000000E+00  0.00000000E+00  0.00000000E+00
  0.00000000E+00  0.00000000E+00  0.00000000E+00
  0.00000000E+00  0.00000000E+00  0.00000000E+00
  0.00000000E+00  0.00000000E+00  0.00000000E+00
  0.00000000E+00  0.00000000E+00  0.00000000E+00
  0.00000000E+00  0.00000000E+00  0.00000000E+00
  0.00000000E+00  0.00000000E+00  0.00000000E+00
  0.00000000E+00  0.00000000E+00  0.00000000E+00
  0.00000000E+00  0.00000000E+00  0.00000000E+00
  0.00000000E+00  0.00000000E+00  0.00000000E+00
  0.00000000E+00  0.00000000E+00  0.00000000E+00
  0.00000000E+00  0.00000000E+00  0.00000000E+00
  0.00000000E+00  0.00000000E+00  0.00000000E+00
  0.00000000E+00  0.00000000E+00  0.00000000E+00
  0.00000000E+00  0.00000000E+00  0.00000000E+00
  0.00000000E+00  0.00000000E+00  0.00000000E+00
  0.00000000E+00  0.00000000E+00  0.00000000E+00
  0.00000000E+00  0.00000000E+00  0.00000000E+00
  0.00000000E+00  0.00000000E+00  0.00000000E+00
  0.00000000E+00  0.00000000E+00  0.00000000E+00
  0.00000000E+00  0.00000000E+00  0.00000000E+00
  0.00000000E+00  0.00000000E+00  0.00000000E+00
  0.00000000E+00  0.00000000E+00  0.00000000E+00
  0.00000000E+00  0.00000000E+00  0.00000000E+00
  0.00000000E+00  0.00000000E+00  0.00000000E+00
  0.00000000E+00  0.00000000E+00  0.00000000E+00
  0.00000000E+00  0.00000000E+00  0.00000000E+00
  0.00000000E+00  0.00000000E+00  0.00000000E+00
  0.00000000E+00  0.00000000E+00  0.00000000E+00
  0.00000000E+00  0.00000000E+00  0.00000000E+00
  0.00000000E+00  0.00000000E+00  0.00000000E+00
  0.00000000E+00  0.00000000E+00  0.00000000E+00
  0.00000000E+00  0.00000000E+00  0.00000000E+00
  0.00000000E+00  0.00000000E+00  0.00000000E+00
  0.00000000E+00  0.00000000E+00  0.00000000E+00
  0.00000000E+00  0.00000000E+00  0.00000000E+00
  0.00000000E+00  0.00000000E+00  0.00000000E+00
  0.00000000E+00  0.00000000E+00  0.00000000E+00
  0.00000000E+00  0.00000000E+00  0.00000000E+00
  0.00000000E+00  0.00000000E+00  0.00000000E+00
  0.00000000E+00  0.00000000E+00  0.00000000E+00
  0.00000000E+00  0.00000000E+00  0.00000000E+00
  0.00000000E+00  0.00000000E+00  0.00000000E+00
  0.00000000E+00  0.00000000E+00  0.00000000E+00
  0.00000000E+00  0.00000000E+00  0.00000000E+00
  0.00000000E+00  0.00000000E+00  0.00000000E+00
  0.00000000E+00  0.00000000E+00  0.00000000E+00
  0.00000000E+00  0.00000000E+00  0.00000000E+00
  0.00000000E+00  0.00000000E+00  0.00000000E+00
  0.00000000E+00  0.00000000E+00  0.00000000E+00
  0.00000000E+00  0.00000000E+00  0.00000000E+00
  0.00000000E+00  0.00000000E+00  0.00000000E+00
  0.00000000E+00  0.00000000E+00  0.00000000E+00
  0.00000000E+00  0.00000000E+00  0.00000000E+00
  0.00000000E+00  0.00000000E+00  0.00000000E+00
  0.00000000E+00  0.00000000E+00  0.00000000E+00
  0.00000000E+00  0.00000000E+00  0.00000000E+00
  0.00000000E+00  0.00000000E+00  0.00000000E+00
  0.00000000E+00  0.00000000E+00  0.00000000E+00
  0.00000000E+00  0.00000000E+00  0.00000000E+00
  0.00000000E+00  0.00000000E+00  0.00000000E+00
  0.00000000E+00  0.00000000E+00  0.00000000E+00
  0.00000000E+00  0.00000000E+00  0.00000000E+00
  0.00000000E+00  0.00000000E+00  0.00000000E+00
  0.00000000E+00  0.00000000E+00  0.00000000E+00
  0.00000000E+00  0.00000000E+00  0.00000000E+00
  0.00000000E+00  0.00000000E+00  0.00000000E+00
  0.00000000E+00  0.00000000E+00  0.00000000E+00
  0.00000000E+00  0.00000000E+00  0.00000000E+00
  0.00000000E+00  0.00000000E+00  0.00000000E+00
  0.00000000E+00  0.00000000E+00  0.00000000E+00
  0.00000000E+00  0.00000000E+00  0.00000000E+00
  0.00000000E+00  0.00000000E+00  0.00000000E+00
  0.00000000E+00  0.00000000E+00  0.00000000E+00
  0.00000000E+00  0.00000000E+00  0.00000000E+00
  0.00000000E+00  0.00000000E+00  0.00000000E+00
  0.00000000E+00  0.00000000E+00  0.00000000E+00
  0.00000000E+00  0.00000000E+00  0.00000000E+00
  0.00000000E+00  0.00000000E+00  0.00000000E+00
  0.00000000E+00  0.00000000E+00  0.00000000E+00
  0.00000000E+00  0.00000000E+00  0.00000000E+00
  0.00000000E+00  0.00000000E+00  0.00000000E+00
  0.00000000E+00  0.00000000E+00  0.00000000E+00
  0.00000000E+00  0.00000000E+00  0.00000000E+00
  0.00000000E+00  0.00000000E+00  0.00000000E+00
  0.00000000E+00  0.00000000E+00  0.00000000E+00
  0.00000000E+00  0.00000000E+00  0.00000000E+00
  0.00000000E+00  0.00000000E+00  0.00000000E+00
  0.00000000E+00  0.00000000E+00  0.00000000E+00
  0.00000000E+00  0.00000000E+00  0.00000000E+00
  0.00000000E+00  0.00000000E+00  0.00000000E+00
  0.00000000E+00  0.00000000E+00  0.00000000E+00
  0.00000000E+00  0.00000000E+00  0.00000000E+00
  0.00000000E+00  0.00000000E+00  0.00000000E+00
  0.00000000E+00  0.00000000E+00  0.00000000E+00
  0.00000000E+00  0.00000000E+00  0.00000000E+00
  0.00000000E+00  0.00000000E+00  0.00000000E+00
  0.00000000E+00  0.00000000E+00  0.00000000E+00
  0.00000000E+00  0.00000000E+00  0.00000000E+00
  0.00000000E+00  0.00000000E+00  0.00000000E+00
  0.00000000E+00  0.00000000E+00  0.00000000E+00
  0.00000000E+00  0.00000000E+00  0.00000000E+00
  0.00000000E+00  0.00000000E+00  0.00000000E+00
  0.00000000E+00  0.00000000E+00  0.00000000E+00
  0.00000000E+00  0.00000000E+00  0.00000000E+00
  0.00000000E+00  0.00000000E+00  0.00000000E+00
  0.00000000E+00  0.00000000E+00  0.00000000E+00
  0.00000000E+00  0.00000000E+00  0.00000000E+00
  0.00000000E+00  0.00000000E+00  0.00000000E+00
  0.00000000E+00  0.00000000E+00  0.00000000E+00
  0.00000000E+00  0.00000000E+00  0.00000000E+00
  0.00000000E+00  0.00000000E+00  0.00000000E+00
  0.00000000E+00  0.00000000E+00  0.00000000E+00
  0.00000000E+00  0.00000000E+00  0.00000000E+00
  0.00000000E+00  0.00000000E+00  0.00000000E+00
  0.00000000E+00  0.00000000E+00  0.00000000E+00
  0.00000000E+00  0.00000000E+00  0.00000000E+00
  0.00000000E+00  0.00000000E+00  0.00000000E+00
  0.00000000E+00  0.00000000E+00  0.00000000E+00
  0.00000000E+00  0.00000000E+00  0.00000000E+00
  0.00000000E+00  0.00000000E+00  0.00000000E+00
  0.00000000E+00  0.00000000E+00  0.00000000E+00
  0.00000000E+00  0.00000000E+00  0.00000000E+00
  0.00000000E+00  0.00000000E+00  0.00000000E+00
  0.00000000E+00  0.00000000E+00  0.00000000E+00
  0.00000000E+00  0.00000000E+00  0.00000000E+00
  0.00000000E+00  0.00000000E+00  0.00000000E+00
  0.00000000E+00  0.00000000E+00  0.00000000E+00
  0.00000000E+00  0.00000000E+00  0.00000000E+00
  0.00000000E+00  0.00000000E+00  0.00000000E+00
  0.00000000E+00  0.00000000E+00  0.00000000E+00
  0.00000000E+00  0.00000000E+00  0.00000000E+00
  0.00000000E+00  0.00000000E+00  0.00000000E+00
  0.00000000E+00  0.00000000E+00  0.00000000E+00
  0.00000000E+00  0.00000000E+00  0.00000000E+00
  0.00000000E+00  0.00000000E+00  0.00000000E+00
  0.00000000E+00  0.00000000E+00  0.00000000E+00
  0.00000000E+00  0.00000000E+00  0.00000000E+00
  0.00000000E+00  0.00000000E+00  0.00000000E+00
  0.00000000E+00  0.00000000E+00  0.00000000E+00
  0.00000000E+00  0.00000000E+00  0.00000000E+00
  0.00000000E+00  0.00000000E+00  0.00000000E+00
  0.00000000E+00  0.00000000E+00  0.00000000E+00
  0.00000000E+00  0.00000000E+00  0.00000000E+00
  0.00000000E+00  0.00000000E+00  0.00000000E+00
  0.00000000E+00  0.00000000E+00  0.00000000E+00
  0.00000000E+00  0.00000000E+00  0.00000000E+00
  0.00000000E+00  0.00000000E+00  0.00000000E+00
  0.00000000E+00  0.00000000E+00  0.00000000E+00
  0.00000000E+00  0.00000000E+00  0.00000000E+00
  0.00000000E+00  0.00000000E+00  0.00000000E+00
  0.00000000E+00  0.00000000E+00  0.00000000E+00
  0.00000000E+00  0.00000000E+00  0.00000000E+00
  0.00000000E+00  0.00000000E+00  0.00000000E+00
  0.00000000E+00  0.00000000E+00  0.00000000E+00
  0.00000000E+00  0.00000000E+00  0.00000000E+00
  0.00000000E+00  0.00000000E+00  0.00000000E+00
  0.00000000E+00  0.00000000E+00  0.00000000E+00
  0.00000000E+00  0.00000000E+00  0.00000000E+00
  0.00000000E+00  0.00000000E+00  0.00000000E+00
  0.00000000E+00  0.00000000E+00  0.00000000E+00
  0.00000000E+00  0.00000000E+00  0.00000000E+00
  0.00000000E+00  0.00000000E+00  0.00000000E+00
  0.00000000E+00  0.00000000E+00  0.00000000E+00
  0.00000000E+00  0.00000000E+00  0.00000000E+00
  0.00000000E+00  0.00000000E+00  0.00000000E+00
  0.00000000E+00  0.00000000E+00  0.00000000E+00
  0.00000000E+00  0.00000000E+00  0.00000000E+00
  0.00000000E+00  0.00000000E+00  0.00000000E+00
  0.00000000E+00  0.00000000E+00  0.00000000E+00
  0.00000000E+00  0.00000000E+00  0.00000000E+00
  0.00000000E+00  0.00000000E+00  0.00000000E+00
  0.00000000E+00  0.00000000E+00  0.00000000E+00
  0.00000000E+00  0.00000000E+00  0.00000000E+00
  0.00000000E+00  0.00000000E+00  0.00000000E+00
  0.00000000E+00  0.00000000E+00  0.00000000E+00
  0.00000000E+00  0.00000000E+00  0.00000000E+00
  0.00000000E+00  0.00000000E+00  0.00000000E+00
  0.00000000E+00  0.00000000E+00  0.00000000E+00
  0.00000000E+00  0.00000000E+00  0.00000000E+00
  0.00000000E+00  0.00000000E+00  0.00000000E+00
  0.00000000E+00  0.00000000E+00  0.00000000E+00
  0.00000000E+00  0.00000000E+00  0.00000000E+00
  0.00000000E+00  0.00000000E+00  0.00000000E+00
  0.00000000E+00  0.00000000E+00  0.00000000E+00
  0.00000000E+00  0.00000000E+00  0.00000000E+00
  0.00000000E+00  0.00000000E+00  0.00000000E+00
  0.00000000E+00  0.00000000E+00  0.00000000E+00
  0.00000000E+00  0.00000000E+00  0.00000000E+00
  0.00000000E+00  0.00000000E+00  0.00000000E+00
  0.00000000E+00  0.00000000E+00  0.00000000E+00
  0.00000000E+00  0.00000000E+00  0.00000000E+00
  0.00000000E+00  0.00000000E+00  0.00000000E+00
  0.00000000E+00  0.00000000E+00  0.00000000E+00
  0.00000000E+00  0.00000000E+00  0.00000000E+00
  0.00000000E+00  0.00000000E+00  0.00000000E+00
  0.00000000E+00  0.00000000E+00  0.00000000E+00
  0.00000000E+00  0.00000000E+00  0.00000000E+00
  0.00000000E+00  0.00000000E+00  0.00000000E+00
  0.00000000E+00  0.00000000E+00  0.00000000E+00
  0.00000000E+00  0.00000000E+00  0.00000000E+00
  0.00000000E+00  0.00000000E+00  0.00000000E+00
  0.00000000E+00  0.00000000E+00  0.00000000E+00
  0.00000000E+00  0.00000000E+00  0.00000000E+00
  0.00000000E+00  0.00000000E+00  0.00000000E+00
  0.00000000E+00  0.00000000E+00  0.00000000E+00
  0.00000000E+00  0.00000000E+00  0.00000000E+00
  0.00000000E+00  0.00000000E+00  0.00000000E+00
  0.00000000E+00  0.00000000E+00  0.00000000E+00
  0.00000000E+00  0.00000000E+00  0.00000000E+00
  0.00000000E+00  0.00000000E+00  0.00000000E+00
  0.00000000E+00  0.00000000E+00  0.00000000E+00
  0.00000000E+00  0.00000000E+00  0.00000000E+00
  0.00000000E+00  0.00000000E+00  0.00000000E+00
  0.00000000E+00  0.00000000E+00  0.00000000E+00
  0.00000000E+00  0.00000000E+00  0.00000000E+00
  0.00000000E+00  0.00000000E+00  0.00000000E+00
  0.00000000E+00  0.00000000E+00  0.00000000E+00
  0.00000000E+00  0.00000000E+00  0.00000000E+00
  0.00000000E+00  0.00000000E+00  0.00000000E+00
  0.00000000E+00  0.00000000E+00  0.00000000E+00
  0.00000000E+00  0.00000000E+00  0.00000000E+00
  0.00000000E+00  0.00000000E+00  0.00000000E+00
  0.00000000E+00  0.00000000E+00  0.00000000E+00
  0.00000000E+00  0.00000000E+00  0.00000000E+00
  0.00000000E+00  0.00000000E+00  0.00000000E+00
  0.00000000E+00  0.00000000E+00  0.00000000E+00
  0.00000000E+00  0.00000000E+00  0.00000000E+00
  0.00000000E+00  0.00000000E+00  0.00000000E+00
  0.00000000E+00  0.00000000E+00  0.00000000E+00
