TiOF2 2x2x2 config 0281                 
   1.00000000000000     
     7.8743081920244569    0.0000188841029902    0.0000029991550548
     0.0000183361911450    7.6473453189670222    0.0000022681161176
     0.0000029142250409    0.0000022649841530    7.6473539096931455
   Ti   O    F 
     8     8    16
Direct
  1.0000000377688600  0.9881273695421470  0.9881284484931321
  0.0000000402059986  0.9881280934635189  0.5118707365418332
  0.9999999598248761  0.5118696586268036  0.9881286909145121
 -0.0000000381094299  0.5118703244691535  0.5118724448397295
  0.4999999620621031  0.0118742661373499  0.0118690325908399
  0.4999999600940827  0.0118739740801277  0.4881311387598506
  0.5000000409544031  0.4881310478504768  0.0118732539112800
  0.5000000377828748  0.4881308877452809  0.4881263039428363
  1.0000000413314982  0.7500050874848603  0.0069587907443742
 -0.0000000409052014  0.7500023585458563  0.4930412230166359
  0.4999999586039303  0.2499913501333894  0.9930407489326537
  0.5000000412496307  0.2499923186063293  0.5069591968648728
  0.9999999927168801  0.0069592057960231  0.7500012455689863
  0.0000000070043985  0.4930408361810649  0.7499987089282489
  0.5000000072195973  0.9930412316967294  0.2499996371039139
  0.4999999929707370  0.5069587413677369  0.2500005690059480
  0.2500005082786301  0.0000000341239757  0.0000000047067126
  0.2500007884961537  0.0000000382357638  0.4999999086257126
  0.2499995025678995  0.5000000735833491  0.9999999451382480
  0.2499992425308080  0.5000000697012047  0.5000000823291588
  0.7499994916356815  0.0000000341100538  0.0000000046178550
  0.7499992108098875  0.0000000384952763  0.4999999088178247
  0.7500004970430356  0.5000000734315511  0.9999999454711300
  0.7500007576896867  0.5000000697358237  0.5000000821605085
  0.9999999836500716  0.2499988854414712  0.0092746860728306
  0.0000000173244006  0.2499993538619756  0.4907253576765528
  0.5000000166218435  0.7500021175870338  0.9907256788620765
  0.4999999829016003  0.7500021152327042  0.5092742547949047
  0.0000000046691034  0.0092752012592704  0.2499996971900559
  0.9999999961901404  0.4907243470115488  0.2500004019793221
  0.4999999951730814  0.9907245038860651  0.7500000133775768
  0.5000000036427370  0.5092762925760709  0.7499998580198829
 
  0.00000000E+00  0.00000000E+00  0.00000000E+00
  0.00000000E+00  0.00000000E+00  0.00000000E+00
  0.00000000E+00  0.00000000E+00  0.00000000E+00
  0.00000000E+00  0.00000000E+00  0.00000000E+00
  0.00000000E+00  0.00000000E+00  0.00000000E+00
  0.00000000E+00  0.00000000E+00  0.00000000E+00
  0.00000000E+00  0.00000000E+00  0.00000000E+00
  0.00000000E+00  0.00000000E+00  0.00000000E+00
  0.00000000E+00  0.00000000E+00  0.00000000E+00
  0.00000000E+00  0.00000000E+00  0.00000000E+00
  0.00000000E+00  0.00000000E+00  0.00000000E+00
  0.00000000E+00  0.00000000E+00  0.00000000E+00
  0.00000000E+00  0.00000000E+00  0.00000000E+00
  0.00000000E+00  0.00000000E+00  0.00000000E+00
  0.00000000E+00  0.00000000E+00  0.00000000E+00
  0.00000000E+00  0.00000000E+00  0.00000000E+00
  0.00000000E+00  0.00000000E+00  0.00000000E+00
  0.00000000E+00  0.00000000E+00  0.00000000E+00
  0.00000000E+00  0.00000000E+00  0.00000000E+00
  0.00000000E+00  0.00000000E+00  0.00000000E+00
  0.00000000E+00  0.00000000E+00  0.00000000E+00
  0.00000000E+00  0.00000000E+00  0.00000000E+00
  0.00000000E+00  0.00000000E+00  0.00000000E+00
  0.00000000E+00  0.00000000E+00  0.00000000E+00
  0.00000000E+00  0.00000000E+00  0.00000000E+00
  0.00000000E+00  0.00000000E+00  0.00000000E+00
  0.00000000E+00  0.00000000E+00  0.00000000E+00
  0.00000000E+00  0.00000000E+00  0.00000000E+00
  0.00000000E+00  0.00000000E+00  0.00000000E+00
  0.00000000E+00  0.00000000E+00  0.00000000E+00
  0.00000000E+00  0.00000000E+00  0.00000000E+00
  0.00000000E+00  0.00000000E+00  0.00000000E+00
