config 61                               
   1.00000000000000     
    15.4263309999999993    0.0000000000000000    0.0000000000000000
     0.0000000000000000   15.4263309999999993    0.0000000000000000
     0.0000000000000000    0.0000000000000000   15.4263309999999993
   Li   Ti   O    F 
     1    64    64   128
Direct
  0.9461986103542883  0.8776973574238723  0.1210014759766573
  0.9962290167678057  0.9950211938790655  0.9904600876339245
  0.9986818139319587  0.9916553452799731  0.4947936218324392
  0.0064535923058826  0.4934027663122706  0.9971275754795823
  0.9938308684846211  0.5027682295275877  0.5067719621232184
  0.4948087537461656  0.9937473633917229  1.0002834519889310
  0.5009315656774083  0.0083240195749661  0.4996985382525709
  0.5045480859679388  0.4953685664026618  0.9961908778557294
  0.4916614732483628  0.4993982825110441  0.4954219880579414
  0.0068861792117476  0.0056773354807283  0.2596966646926028
  0.0009338825966188  0.0079630602057322  0.7542724825110461
  0.9933554220428434  0.4931735816723322  0.2510839960851697
  0.9927897963152099  0.4992404211557583  0.7414935031091879
  0.5051600220168057  0.0086691106719458  0.2510309567788916
  0.4926444217377992  0.0051313879795269  0.7521076856755951
  0.4925679176053308  0.4966531384225515  0.2574830387593472
  0.5009549287047105  0.5040752895043003  0.7586095187814252
  0.9955548565236096  0.2561836959030971  0.0010692119028551
  0.9984714193620162  0.2478971919710183  0.4909738265745524
 -0.0011609301789774  0.7528962094515305  1.0002838840109702
  0.9966238766771504  0.7561921539487356  0.5050262959543462
  0.4951531978099361  0.2580518902016079  0.0013957072151131
  0.5084167882354356  0.2457183707931958  0.4988464978997861
  0.5077066990567953  0.7558922473319775  0.9999176866585465
  0.5059229885401562  0.7530795327594033  0.5097318130487177
 -0.0004404106513256  0.2584278361416939  0.2550339153983408
  0.0066728175549720  0.2427876007474837  0.7468919645308899
  0.0053728190644570  0.7471994781749444  0.2436102392957879
  0.9925620850012489  0.7509948039196874  0.7415172781178176
  0.5078371334228572  0.2419316140987298  0.2518399884418998
  0.5069876982669300  0.2430299404432059  0.7505008606421022
  0.5052592444221633  0.7515746570388130  0.2519415538065056
  0.5014279314218423  0.7419321887010514  0.7440611468019850
  0.2568418254177023  0.9981909620953663  0.0056029348885058
  0.2499030915511282  0.9935066631606608  0.5061383172183992
  0.2443199150264214  0.5078753599699387  0.9974544834954084
  0.2541762733054164  0.4942416788805646  0.5065863423337912
  0.7569518600054858  0.0003193320368393  0.9945762386211203
  0.7499167856839678  0.0071174111525476  0.4953107499522704
  0.7420263156261125  0.5010136539922975  0.0049326108685574
  0.7552369522269636  0.4982514972396707  0.5054991855624023
  0.2447566660157245  0.0022931867351514  0.2434453022206955
  0.2573002099131980  0.9979330393225854  0.7438450906616134
  0.2548708250412557  0.4920780711239626  0.2516940163858885
  0.2470558540896353  0.5060623866940951  0.7410069627624277
  0.7435596218857260  0.0008040547107718  0.2569132666439712
  0.7482701140219011  0.0066647700298242  0.7563312982591562
  0.7553450288227427  0.4986834225881125  0.2427012727689329
  0.7572624799111334  0.4982263868096899  0.7426097324396667
  0.2572254044066291  0.2513690601389578  0.0058732592294633
  0.2532281959641687  0.2565988117938468  0.5052859753586310
  0.2524762588645356  0.7420818617401090  0.9934892922099668
  0.2514982987177192  0.7549983934782630  0.4922584792668893
  0.7570738358216439  0.2513959899105080  0.0072701995480685
  0.7424720103057364  0.2429555072859002  0.4978879138327246
  0.7413604096397579  0.7492707619927829  0.9943161878695927
  0.7406419826368399  0.7527236987902992  0.4951221306262122
  0.2508890803022576  0.2576297810869126  0.2435154715820976
  0.2441217643816030  0.2515390737959849  0.7436165879284681
  0.2426520163078313  0.7478498886341630  0.2549365870094322
  0.2477476445342134  0.7417454656404943  0.7563106136871129
  0.7419494489555606  0.2508392783896543  0.2424733505061363
  0.7443487365089059  0.2422569801192452  0.7508566455512162
  0.7434195742908011  0.7497858542776635  0.2576790605981613
  0.7570716334360394  0.7507904684141702  0.7572049666774565
  0.0080098638314626  0.5011646283945519  0.6241440668951850
  0.9933470160466059  0.0092432428768809  0.3774870296559395
  0.9975148926813416  0.0023279412863763  0.8703886357548725
  0.4993284051614095  0.4925148930153135  0.3754376276901576
  0.4942511524067193  0.4957824413533725  0.8749127774444241
  0.9893410977351933  0.7580956881137335  0.1306944503653271
 -0.0022533087469456  0.7448604873124618  0.6221948632831231
  0.4967041003150902  0.7515127874933113  0.6252053184932985
  0.9936682937717820  0.2450029940023896  0.3760148614467428
  0.2534380860178184  0.0027178239281314  0.1254741726438705
  0.2528147522523076  0.0036369642863057  0.6251497709747148
  0.2388345215156367  0.4946349914694509  0.6255414208517091
  0.7501026717981173  0.4915305591044290  0.1256923919120046
  0.7458019204175727  0.4935116683158159  0.6242088731160952
  0.7518685271822467  1.0000878930553336  0.3768029033302399
  0.7484186161960901  0.9997591712958344  0.8737908529119400
  0.2449982532024881  0.2494609682996849  0.1256183755587935
  0.2514272353579007  0.2493787172907349  0.6250014131633478
  0.7419128145090703  0.2588075966187006  0.1264557287275338
  0.2515719537169658  0.7462180625897081  0.3747220631650849
  0.2474112328451066  0.7518527351731429  0.8746682882020882
  0.7464427100651565  0.7516705477601436  0.3752415261092817
  0.7444344341973861  0.7511510139506803  0.8754312018075119
  0.1245466104028136  0.5061367696523065  0.9942835572085897
  0.6260102931602621  0.5101722830487888  0.9980709261571260
  0.1245347538009644  0.0043837161966105  0.2528898657049914
  0.6241996367785583  0.0027083666735321  0.2522681549459476
  0.6243642736461772  0.2588338891812453  0.4934708479373648
  0.6238531300161413  0.7378151264087877  0.0069901188422300
  0.6237424620731111  0.7641613389542994  0.5011077408054896
  0.1245664925166679  0.2518664235962112  0.7501352574628308
  0.1255428532179775  0.7505400771328063  0.2484302745164721
  0.6253034923965441  0.2434043804506968  0.2625627370650468
  0.6257012031570589  0.2530135293533524  0.7485951818414396
  0.6214413979254341  0.7525005414192159  0.2483794841969894
  0.3760017473476511 -0.0023696194232757  0.9938426182281138
  0.3751749044866872  0.5066365830768669  0.5042752922594231
  0.8722512074269282  0.9980004113770534  0.0040175441392536
  0.8750526451556421  0.5042724168154898  0.4993824989169001
  0.3759011871558691  0.9973553266925214  0.7554763563097441
  0.3736929779923038  0.4947723529584593  0.2486210424377443
  0.8753405018689469  0.4959074949016883  0.2521602391325571
  0.8752787526031292  0.5075283612721372  0.7461211548098782
  0.3758109604644873  0.2506899144014736  0.0044436834697339
  0.8742196368528812  0.2507882258960986  0.0054720366305069
  0.8746234783807856  0.7447105833553564  0.7515076825223888
  0.5116845124176249  0.1226907637284896  0.4937149063636031
  0.9966934628163404  0.1261138065268497  0.7417555140433930
  0.4930442788954906  0.1250841395121315  0.2638703420187684
  0.5019971190743112  0.1237606162275844  0.7491671701837320
  0.5018872160418379  0.6251135498372651  0.7514852314083680
  0.0035747356127973  0.3736985781439493  0.0026413767019302
  0.9999716150792129  0.8781660714964717  0.0045727138125101
  0.9928357132355426  0.8753700206354346  0.4975177206494868
  0.5059034076838241  0.3739454435944162  0.0084040329095735
  0.5074223450671936  0.8754672954281704  0.0060555590851271
  0.0080979552588568  0.3736338953510796  0.2484177641629978
  0.2600115441504298  0.6243880430601140  0.0015797162141678
  0.7398587115487394  0.1252266551212270  0.5048156633024362
  0.2480024481162336  0.6242288617533509  0.7494274343666270
  0.7512888762419363  0.1248505081347775  0.7436131939780013
  0.2540775378540923  0.3728969529656236  0.4932326272451483
  0.2544540789039665  0.8759593297144848  0.4993012549103644
  0.2405105697641649  0.3743067669390012  0.2564818540863660
  0.9953365908387409  0.9933580895534895  0.1292260558638192
  0.0053955940974513  0.9983274069746253  0.6228648498032172
  1.0006546157895169  0.5054892107357066  0.1247607042620806
  0.4954203446098344  0.0088083982407346  0.1269140700753823
  0.4991190458561499  0.9972501394636792  0.6231255886780512
  0.5025740894420248  0.5078378983871766  0.1276420033166687
  0.5078010948959732  0.5010852843699742  0.6246487180372823
  0.0029914157358413  0.4973964766647962  0.3755058866758904
  0.9951840683246895  0.4983684134838448  0.8725927454574799
  0.5005851573407529  0.9875913002733556  0.3770272154315962
  0.5132782985597052 -0.0019775758198913  0.8752904550975004
  0.0078619314050088  0.2465273839907765  0.1271737791047435
  1.0001917760810823  0.2590646677732826  0.6209212932808865
  0.5091129389311715  0.2377995138742015  0.1271484978918365
  0.4976930499409073  0.2462362910824095  0.6228599274071663
  0.4914971116073508  0.7449667312252789  0.1272210493405764
  0.9949356083214014  0.2478821830799063  0.8740289836878856
  0.9970044089341591  0.7499645540175692  0.3757131173505022
  0.0073007314321150  0.7521670261143871  0.8677557166017055
  0.4898866921911581  0.2634141993129022  0.3758990667890990
  0.4992502072094960  0.2532682492392992  0.8747466076815725
  0.4959723433201431  0.7563654353711655  0.3760812706048147
  0.5025152696141616  0.7540509384160464  0.8743267667112583
  0.2441434978526464  0.4941023505223796  0.1246747687854465
  0.7477180307153879  0.0016618337538779  0.1275679230072967
  0.7441960231653664  0.9948472434083919  0.6232816897813154
  0.2528763004650898  0.0018778755587351  0.3753671791855657
  0.2433417702140682  0.9954094024529229  0.8744872888695008
  0.2473534153422012  0.5111175025194399  0.3751048845364189
  0.2592312799588974  0.4971506316758637  0.8734241313894325
  0.7462985650720213  0.5062857273838999  0.3748938437477077
  0.7528578715005383  0.5059934488222155  0.8741266487052528
  0.2578554627435142  0.7546712663642959  0.1252389452446289
  0.2534394407972750  0.7512318042551849  0.6245878696987247
  0.7506450590027939  0.2612915138635348  0.6230113707154080
  0.7537820686057540  0.7504688687210057  0.1273634463337456
  0.7503917797773034  0.7493815063205611  0.6246434776654092
  0.2539371634307258  0.2430817420090032  0.3742588236815364
  0.2527050616972200  0.2506436418259262  0.8751424622047703
  0.7626065790024165  0.2433554626846692  0.3743416134811240
  0.7531458877224725  0.2445403861184464  0.8760594567679838
  0.1255848624233816  0.0052512870856914  0.0019369142327727
  0.1242158138920753  0.0011878526992989  0.4968944711771323
  0.1231148822547679  0.4968562971750910  0.4917520727356971
  0.6248221589733899  0.0063287079521874  0.0066867608630331
  0.6235956151750314  0.9823180554713850  0.5005153351519493
  0.6251755101541882  0.4917983211577469  0.4975549688427044
  0.1263984956899423 -0.0003321417699838  0.7476940533513456
  0.1236709002624971  0.5084567516803494  0.2494927057903218
  0.1232075026593496  0.4930008910683066  0.7624603625093539
  0.6237219941677604  0.9946674962795153  0.7433773216070367
  0.6249084294989466  0.5009704963683025  0.2505495988108783
  0.6265607632188385  0.4925658283676087  0.7556289645819276
  0.1248319232646722  0.2457143721741648  0.9938617318574059
  0.1234038183181729  0.2490976648560118  0.4969277536099910
  0.1290864246019804  0.7415863849908759  0.0074145550447724
  0.1237978995895883  0.7533151956036581  0.4989690144369036
  0.6262385350590408  0.2458143072437755  0.9937882480153541
  0.1241745607201640  0.2354892999691851  0.2571669811666965
  0.1238860467433753  0.7542550197533598  0.7432082183316423
  0.6261067019757091  0.7546927477100815  0.7462374543253587
  0.3773075146965321  0.0102431140123402  0.4973932291778470
  0.3736712322456781  0.4917984895222595  0.0078123564690525
  0.8742023327856442  0.0102126398176305  0.5112284047344631
  0.8747448964010447  0.4938323599000636  0.9992058769043375
  0.3765294737880563  0.9950438621861637  0.2551515838959256
  0.3747691419372755  0.4980709527003706  0.7405969445522318
  0.8731363232272962  0.9964971901564799  0.2457458714041291
  0.8740749689452889  0.9941288238726969  0.7394029088914922
  0.3789519271594113  0.2395947911004811  0.4994240743499683
  0.3772163383050941  0.7598721304294240  0.9971443371503508
  0.3770409298771412  0.7411849892523610  0.4984830627602452
  0.8740342023562150  0.2464634526633022  0.5058321722930984
  0.8673160572728911  0.7618344490928621 -0.0012166410617413
  0.8716387845856537  0.7404698104966695  0.4991367795320644
  0.3778846771498905  0.2581494183146288  0.2455318857826464
  0.3762918359201876  0.2490319583220360  0.7510002920644091
  0.3766852052817423  0.7502485836262052  0.2514398302294841
  0.3751582739794886  0.7545802993714351  0.7530209746157984
  0.8739067417693860  0.2566325063866272  0.2441142654130943
  0.8744037161170802  0.2539652698448763  0.7462648547675781
  0.8714044542325740  0.7499218842170305  0.2559819688780767
  0.0003238425603444  0.1261000287868880  0.0041321502153919
  1.0012338467712618  0.1258168962599675  0.5101296317189560
  0.9895184732818588  0.6230605626471193  0.9967943614507310
  0.0050482060438054  0.6262232863314883  0.4916798067223999
  0.5015598092225465  0.1246529269333560  0.9961995450172750
  0.4870234060541398  0.6269156876926287 -0.0012908913839852
  0.5099883710002576  0.6267119463616931  0.4956991659459244
  0.9894379592405842  0.1279211996926437  0.2427662307542022
  0.9966829659729389  0.6225833881312449  0.2531153130161137
  0.0104857227981948  0.6245109829462726  0.7537805745911265
  0.4987718786911015  0.6260442395095064  0.2568154686778248
 -0.0019646884693119  0.3736608622438763  0.4966183095414442
  0.4911949081800968  0.3718340619654135  0.5082251247512546
  0.4857146909673218  0.8784501718551506  0.5010390223591703
  0.9954542139174323  0.3744065401323928  0.7511834558878173
  0.9918732592804205  0.8777648897986812  0.2521303462557149
 -0.0002898011786659  0.8762906691091992  0.7433397309515963
  0.5054976698905055  0.3715425737886800  0.2401702470113505
  0.4964234127154852  0.3730741522677906  0.7436077276363178
  0.4969764215854881  0.8765364987908834  0.2446140571493323
  0.5021367499701757  0.8754380971939941  0.7513807182160773
  0.2490851761105328  0.1245700825802197  0.9936022419876767
  0.2466071015164732  0.1244351196211448  0.4967018351151883
  0.2429855219459335  0.6261609402578255  0.5049201539322535
  0.7473738555506966  0.1262260352673831  0.0043063933939270
  0.7645638276408957  0.6255574239600682  0.0045491822404699
  0.7402137335332060  0.6256760075069824  0.5025675659607229
  0.2604967694169342  0.1262454049771402  0.2530959235580668
  0.2503864186470265  0.1244806074236776  0.7573727099931815
  0.2525879147378436  0.6233701907658071  0.2410005468272649
  0.7602314251023654  0.1259496073404937  0.2476951863103135
  0.7482755866903089  0.6249546944970820  0.2468935616075763
  0.7393219955181966  0.6248252615071800  0.7466854997781913
  0.2452745269977419  0.3756390258998916  0.9972950203995188
  0.2434879715844312  0.8740650271140208  0.0023406664232298
  0.7443596658835830  0.3750358465142042  0.9877660679760329
  0.7572042972748642  0.3724597205010341  0.4897414174023205
  0.7379514411213353  0.8754161914263513  0.0075223327733028
  0.7635110115203183  0.8766886118286294  0.5031450275781606
  0.2543447034789105  0.3756377358964137  0.7560666054828391
  0.2525544919566778  0.8758987329315134  0.2518568995892319
  0.2473163725190105  0.8736591189800750  0.7465848336895089
  0.7457126883127778  0.3740610179614430  0.2648546200015010
  0.7550127292019665  0.3738486586148961  0.7581687083288335
  0.7523046472474907  0.8754820537767627  0.2449865323230773
  0.7509476518424943  0.8754407636015792  0.7455488516962850
 
  0.00000000E+00  0.00000000E+00  0.00000000E+00
  0.00000000E+00  0.00000000E+00  0.00000000E+00
  0.00000000E+00  0.00000000E+00  0.00000000E+00
  0.00000000E+00  0.00000000E+00  0.00000000E+00
  0.00000000E+00  0.00000000E+00  0.00000000E+00
  0.00000000E+00  0.00000000E+00  0.00000000E+00
  0.00000000E+00  0.00000000E+00  0.00000000E+00
  0.00000000E+00  0.00000000E+00  0.00000000E+00
  0.00000000E+00  0.00000000E+00  0.00000000E+00
  0.00000000E+00  0.00000000E+00  0.00000000E+00
  0.00000000E+00  0.00000000E+00  0.00000000E+00
  0.00000000E+00  0.00000000E+00  0.00000000E+00
  0.00000000E+00  0.00000000E+00  0.00000000E+00
  0.00000000E+00  0.00000000E+00  0.00000000E+00
  0.00000000E+00  0.00000000E+00  0.00000000E+00
  0.00000000E+00  0.00000000E+00  0.00000000E+00
  0.00000000E+00  0.00000000E+00  0.00000000E+00
  0.00000000E+00  0.00000000E+00  0.00000000E+00
  0.00000000E+00  0.00000000E+00  0.00000000E+00
  0.00000000E+00  0.00000000E+00  0.00000000E+00
  0.00000000E+00  0.00000000E+00  0.00000000E+00
  0.00000000E+00  0.00000000E+00  0.00000000E+00
  0.00000000E+00  0.00000000E+00  0.00000000E+00
  0.00000000E+00  0.00000000E+00  0.00000000E+00
  0.00000000E+00  0.00000000E+00  0.00000000E+00
  0.00000000E+00  0.00000000E+00  0.00000000E+00
  0.00000000E+00  0.00000000E+00  0.00000000E+00
  0.00000000E+00  0.00000000E+00  0.00000000E+00
  0.00000000E+00  0.00000000E+00  0.00000000E+00
  0.00000000E+00  0.00000000E+00  0.00000000E+00
  0.00000000E+00  0.00000000E+00  0.00000000E+00
  0.00000000E+00  0.00000000E+00  0.00000000E+00
  0.00000000E+00  0.00000000E+00  0.00000000E+00
  0.00000000E+00  0.00000000E+00  0.00000000E+00
  0.00000000E+00  0.00000000E+00  0.00000000E+00
  0.00000000E+00  0.00000000E+00  0.00000000E+00
  0.00000000E+00  0.00000000E+00  0.00000000E+00
  0.00000000E+00  0.00000000E+00  0.00000000E+00
  0.00000000E+00  0.00000000E+00  0.00000000E+00
  0.00000000E+00  0.00000000E+00  0.00000000E+00
  0.00000000E+00  0.00000000E+00  0.00000000E+00
  0.00000000E+00  0.00000000E+00  0.00000000E+00
  0.00000000E+00  0.00000000E+00  0.00000000E+00
  0.00000000E+00  0.00000000E+00  0.00000000E+00
  0.00000000E+00  0.00000000E+00  0.00000000E+00
  0.00000000E+00  0.00000000E+00  0.00000000E+00
  0.00000000E+00  0.00000000E+00  0.00000000E+00
  0.00000000E+00  0.00000000E+00  0.00000000E+00
  0.00000000E+00  0.00000000E+00  0.00000000E+00
  0.00000000E+00  0.00000000E+00  0.00000000E+00
  0.00000000E+00  0.00000000E+00  0.00000000E+00
  0.00000000E+00  0.00000000E+00  0.00000000E+00
  0.00000000E+00  0.00000000E+00  0.00000000E+00
  0.00000000E+00  0.00000000E+00  0.00000000E+00
  0.00000000E+00  0.00000000E+00  0.00000000E+00
  0.00000000E+00  0.00000000E+00  0.00000000E+00
  0.00000000E+00  0.00000000E+00  0.00000000E+00
  0.00000000E+00  0.00000000E+00  0.00000000E+00
  0.00000000E+00  0.00000000E+00  0.00000000E+00
  0.00000000E+00  0.00000000E+00  0.00000000E+00
  0.00000000E+00  0.00000000E+00  0.00000000E+00
  0.00000000E+00  0.00000000E+00  0.00000000E+00
  0.00000000E+00  0.00000000E+00  0.00000000E+00
  0.00000000E+00  0.00000000E+00  0.00000000E+00
  0.00000000E+00  0.00000000E+00  0.00000000E+00
  0.00000000E+00  0.00000000E+00  0.00000000E+00
  0.00000000E+00  0.00000000E+00  0.00000000E+00
  0.00000000E+00  0.00000000E+00  0.00000000E+00
  0.00000000E+00  0.00000000E+00  0.00000000E+00
  0.00000000E+00  0.00000000E+00  0.00000000E+00
  0.00000000E+00  0.00000000E+00  0.00000000E+00
  0.00000000E+00  0.00000000E+00  0.00000000E+00
  0.00000000E+00  0.00000000E+00  0.00000000E+00
  0.00000000E+00  0.00000000E+00  0.00000000E+00
  0.00000000E+00  0.00000000E+00  0.00000000E+00
  0.00000000E+00  0.00000000E+00  0.00000000E+00
  0.00000000E+00  0.00000000E+00  0.00000000E+00
  0.00000000E+00  0.00000000E+00  0.00000000E+00
  0.00000000E+00  0.00000000E+00  0.00000000E+00
  0.00000000E+00  0.00000000E+00  0.00000000E+00
  0.00000000E+00  0.00000000E+00  0.00000000E+00
  0.00000000E+00  0.00000000E+00  0.00000000E+00
  0.00000000E+00  0.00000000E+00  0.00000000E+00
  0.00000000E+00  0.00000000E+00  0.00000000E+00
  0.00000000E+00  0.00000000E+00  0.00000000E+00
  0.00000000E+00  0.00000000E+00  0.00000000E+00
  0.00000000E+00  0.00000000E+00  0.00000000E+00
  0.00000000E+00  0.00000000E+00  0.00000000E+00
  0.00000000E+00  0.00000000E+00  0.00000000E+00
  0.00000000E+00  0.00000000E+00  0.00000000E+00
  0.00000000E+00  0.00000000E+00  0.00000000E+00
  0.00000000E+00  0.00000000E+00  0.00000000E+00
  0.00000000E+00  0.00000000E+00  0.00000000E+00
  0.00000000E+00  0.00000000E+00  0.00000000E+00
  0.00000000E+00  0.00000000E+00  0.00000000E+00
  0.00000000E+00  0.00000000E+00  0.00000000E+00
  0.00000000E+00  0.00000000E+00  0.00000000E+00
  0.00000000E+00  0.00000000E+00  0.00000000E+00
  0.00000000E+00  0.00000000E+00  0.00000000E+00
  0.00000000E+00  0.00000000E+00  0.00000000E+00
  0.00000000E+00  0.00000000E+00  0.00000000E+00
  0.00000000E+00  0.00000000E+00  0.00000000E+00
  0.00000000E+00  0.00000000E+00  0.00000000E+00
  0.00000000E+00  0.00000000E+00  0.00000000E+00
  0.00000000E+00  0.00000000E+00  0.00000000E+00
  0.00000000E+00  0.00000000E+00  0.00000000E+00
  0.00000000E+00  0.00000000E+00  0.00000000E+00
  0.00000000E+00  0.00000000E+00  0.00000000E+00
  0.00000000E+00  0.00000000E+00  0.00000000E+00
  0.00000000E+00  0.00000000E+00  0.00000000E+00
  0.00000000E+00  0.00000000E+00  0.00000000E+00
  0.00000000E+00  0.00000000E+00  0.00000000E+00
  0.00000000E+00  0.00000000E+00  0.00000000E+00
  0.00000000E+00  0.00000000E+00  0.00000000E+00
  0.00000000E+00  0.00000000E+00  0.00000000E+00
  0.00000000E+00  0.00000000E+00  0.00000000E+00
  0.00000000E+00  0.00000000E+00  0.00000000E+00
  0.00000000E+00  0.00000000E+00  0.00000000E+00
  0.00000000E+00  0.00000000E+00  0.00000000E+00
  0.00000000E+00  0.00000000E+00  0.00000000E+00
  0.00000000E+00  0.00000000E+00  0.00000000E+00
  0.00000000E+00  0.00000000E+00  0.00000000E+00
  0.00000000E+00  0.00000000E+00  0.00000000E+00
  0.00000000E+00  0.00000000E+00  0.00000000E+00
  0.00000000E+00  0.00000000E+00  0.00000000E+00
  0.00000000E+00  0.00000000E+00  0.00000000E+00
  0.00000000E+00  0.00000000E+00  0.00000000E+00
  0.00000000E+00  0.00000000E+00  0.00000000E+00
  0.00000000E+00  0.00000000E+00  0.00000000E+00
  0.00000000E+00  0.00000000E+00  0.00000000E+00
  0.00000000E+00  0.00000000E+00  0.00000000E+00
  0.00000000E+00  0.00000000E+00  0.00000000E+00
  0.00000000E+00  0.00000000E+00  0.00000000E+00
  0.00000000E+00  0.00000000E+00  0.00000000E+00
  0.00000000E+00  0.00000000E+00  0.00000000E+00
  0.00000000E+00  0.00000000E+00  0.00000000E+00
  0.00000000E+00  0.00000000E+00  0.00000000E+00
  0.00000000E+00  0.00000000E+00  0.00000000E+00
  0.00000000E+00  0.00000000E+00  0.00000000E+00
  0.00000000E+00  0.00000000E+00  0.00000000E+00
  0.00000000E+00  0.00000000E+00  0.00000000E+00
  0.00000000E+00  0.00000000E+00  0.00000000E+00
  0.00000000E+00  0.00000000E+00  0.00000000E+00
  0.00000000E+00  0.00000000E+00  0.00000000E+00
  0.00000000E+00  0.00000000E+00  0.00000000E+00
  0.00000000E+00  0.00000000E+00  0.00000000E+00
  0.00000000E+00  0.00000000E+00  0.00000000E+00
  0.00000000E+00  0.00000000E+00  0.00000000E+00
  0.00000000E+00  0.00000000E+00  0.00000000E+00
  0.00000000E+00  0.00000000E+00  0.00000000E+00
  0.00000000E+00  0.00000000E+00  0.00000000E+00
  0.00000000E+00  0.00000000E+00  0.00000000E+00
  0.00000000E+00  0.00000000E+00  0.00000000E+00
  0.00000000E+00  0.00000000E+00  0.00000000E+00
  0.00000000E+00  0.00000000E+00  0.00000000E+00
  0.00000000E+00  0.00000000E+00  0.00000000E+00
  0.00000000E+00  0.00000000E+00  0.00000000E+00
  0.00000000E+00  0.00000000E+00  0.00000000E+00
  0.00000000E+00  0.00000000E+00  0.00000000E+00
  0.00000000E+00  0.00000000E+00  0.00000000E+00
  0.00000000E+00  0.00000000E+00  0.00000000E+00
  0.00000000E+00  0.00000000E+00  0.00000000E+00
  0.00000000E+00  0.00000000E+00  0.00000000E+00
  0.00000000E+00  0.00000000E+00  0.00000000E+00
  0.00000000E+00  0.00000000E+00  0.00000000E+00
  0.00000000E+00  0.00000000E+00  0.00000000E+00
  0.00000000E+00  0.00000000E+00  0.00000000E+00
  0.00000000E+00  0.00000000E+00  0.00000000E+00
  0.00000000E+00  0.00000000E+00  0.00000000E+00
  0.00000000E+00  0.00000000E+00  0.00000000E+00
  0.00000000E+00  0.00000000E+00  0.00000000E+00
  0.00000000E+00  0.00000000E+00  0.00000000E+00
  0.00000000E+00  0.00000000E+00  0.00000000E+00
  0.00000000E+00  0.00000000E+00  0.00000000E+00
  0.00000000E+00  0.00000000E+00  0.00000000E+00
  0.00000000E+00  0.00000000E+00  0.00000000E+00
  0.00000000E+00  0.00000000E+00  0.00000000E+00
  0.00000000E+00  0.00000000E+00  0.00000000E+00
  0.00000000E+00  0.00000000E+00  0.00000000E+00
  0.00000000E+00  0.00000000E+00  0.00000000E+00
  0.00000000E+00  0.00000000E+00  0.00000000E+00
  0.00000000E+00  0.00000000E+00  0.00000000E+00
  0.00000000E+00  0.00000000E+00  0.00000000E+00
  0.00000000E+00  0.00000000E+00  0.00000000E+00
  0.00000000E+00  0.00000000E+00  0.00000000E+00
  0.00000000E+00  0.00000000E+00  0.00000000E+00
  0.00000000E+00  0.00000000E+00  0.00000000E+00
  0.00000000E+00  0.00000000E+00  0.00000000E+00
  0.00000000E+00  0.00000000E+00  0.00000000E+00
  0.00000000E+00  0.00000000E+00  0.00000000E+00
  0.00000000E+00  0.00000000E+00  0.00000000E+00
  0.00000000E+00  0.00000000E+00  0.00000000E+00
  0.00000000E+00  0.00000000E+00  0.00000000E+00
  0.00000000E+00  0.00000000E+00  0.00000000E+00
  0.00000000E+00  0.00000000E+00  0.00000000E+00
  0.00000000E+00  0.00000000E+00  0.00000000E+00
  0.00000000E+00  0.00000000E+00  0.00000000E+00
  0.00000000E+00  0.00000000E+00  0.00000000E+00
  0.00000000E+00  0.00000000E+00  0.00000000E+00
  0.00000000E+00  0.00000000E+00  0.00000000E+00
  0.00000000E+00  0.00000000E+00  0.00000000E+00
  0.00000000E+00  0.00000000E+00  0.00000000E+00
  0.00000000E+00  0.00000000E+00  0.00000000E+00
  0.00000000E+00  0.00000000E+00  0.00000000E+00
  0.00000000E+00  0.00000000E+00  0.00000000E+00
  0.00000000E+00  0.00000000E+00  0.00000000E+00
  0.00000000E+00  0.00000000E+00  0.00000000E+00
  0.00000000E+00  0.00000000E+00  0.00000000E+00
  0.00000000E+00  0.00000000E+00  0.00000000E+00
  0.00000000E+00  0.00000000E+00  0.00000000E+00
  0.00000000E+00  0.00000000E+00  0.00000000E+00
  0.00000000E+00  0.00000000E+00  0.00000000E+00
  0.00000000E+00  0.00000000E+00  0.00000000E+00
  0.00000000E+00  0.00000000E+00  0.00000000E+00
  0.00000000E+00  0.00000000E+00  0.00000000E+00
  0.00000000E+00  0.00000000E+00  0.00000000E+00
  0.00000000E+00  0.00000000E+00  0.00000000E+00
  0.00000000E+00  0.00000000E+00  0.00000000E+00
  0.00000000E+00  0.00000000E+00  0.00000000E+00
  0.00000000E+00  0.00000000E+00  0.00000000E+00
  0.00000000E+00  0.00000000E+00  0.00000000E+00
  0.00000000E+00  0.00000000E+00  0.00000000E+00
  0.00000000E+00  0.00000000E+00  0.00000000E+00
  0.00000000E+00  0.00000000E+00  0.00000000E+00
  0.00000000E+00  0.00000000E+00  0.00000000E+00
  0.00000000E+00  0.00000000E+00  0.00000000E+00
  0.00000000E+00  0.00000000E+00  0.00000000E+00
  0.00000000E+00  0.00000000E+00  0.00000000E+00
  0.00000000E+00  0.00000000E+00  0.00000000E+00
  0.00000000E+00  0.00000000E+00  0.00000000E+00
  0.00000000E+00  0.00000000E+00  0.00000000E+00
  0.00000000E+00  0.00000000E+00  0.00000000E+00
  0.00000000E+00  0.00000000E+00  0.00000000E+00
  0.00000000E+00  0.00000000E+00  0.00000000E+00
  0.00000000E+00  0.00000000E+00  0.00000000E+00
  0.00000000E+00  0.00000000E+00  0.00000000E+00
  0.00000000E+00  0.00000000E+00  0.00000000E+00
  0.00000000E+00  0.00000000E+00  0.00000000E+00
  0.00000000E+00  0.00000000E+00  0.00000000E+00
  0.00000000E+00  0.00000000E+00  0.00000000E+00
  0.00000000E+00  0.00000000E+00  0.00000000E+00
  0.00000000E+00  0.00000000E+00  0.00000000E+00
  0.00000000E+00  0.00000000E+00  0.00000000E+00
  0.00000000E+00  0.00000000E+00  0.00000000E+00
  0.00000000E+00  0.00000000E+00  0.00000000E+00
  0.00000000E+00  0.00000000E+00  0.00000000E+00
  0.00000000E+00  0.00000000E+00  0.00000000E+00
  0.00000000E+00  0.00000000E+00  0.00000000E+00
  0.00000000E+00  0.00000000E+00  0.00000000E+00
  0.00000000E+00  0.00000000E+00  0.00000000E+00
  0.00000000E+00  0.00000000E+00  0.00000000E+00
  0.00000000E+00  0.00000000E+00  0.00000000E+00
  0.00000000E+00  0.00000000E+00  0.00000000E+00
  0.00000000E+00  0.00000000E+00  0.00000000E+00
  0.00000000E+00  0.00000000E+00  0.00000000E+00
  0.00000000E+00  0.00000000E+00  0.00000000E+00
  0.00000000E+00  0.00000000E+00  0.00000000E+00
