TiOF2 2x2x2 config 1053                 
   1.00000000000000     
     7.8245040807016437    0.0004466903379556   -0.0004327798472071
     0.0004362022607078    7.6183049179551627    0.0011674346878809
    -0.0004469129236544    0.0011948600407338    7.7234377319360537
   Ti   O    F 
     8     8    16
Direct
  0.0001826221647505  0.9858917001494163  0.9964991112284451
  0.0009677849792027  0.0010554932363220  0.5200149664173068
  0.0004951243853171  0.5088687138951187  0.9862443145040842
  0.9832944670377586  0.5000704649961421  0.5108362082094331
  0.5003754729860503  0.9997147745410047  0.0075959037166200
  0.5000440004937161  0.9913617883684438  0.4827603409773005
  0.4997613834365353  0.4980866624739875  0.0004462850345845
  0.5107658588267583  0.5143610633616689  0.5007844400699781
  0.7512775645022316  0.4999765544882635  0.4999158952584821
  0.9999885195763341  0.7506879566405615  0.0038583661093554
  0.5007582945082873  0.2522079678958136  0.9983667750822320
  0.5007385209589899  0.7464066816203072  0.9983772189443059
  0.4992300654495097  0.7500360479282264  0.5029925662569497
  0.9996457208728060  0.0015399955852828  0.7477286111188590
  0.0005738979740997  0.4983812486504817  0.7491527120630366
  0.5005850105714273  0.0020703736860668  0.2522852909817459
  0.2457802035980237  0.0047864955573189  0.9999943966553673
  0.2466070723590548  0.0037160315541129  0.4999340654310203
  0.2470148091168269  0.4956621238034131  0.0046765289551516
  0.2482859951864782  0.4984658709389862  0.4980188419782081
  0.7546903050671432  0.0047990223818317  0.0000452411260738
  0.7549374219164378  0.0045689243735652  0.4993665359650947
  0.7529976156438210  0.4957755699111601  0.0051682572743417
  0.9999624804502574  0.2487865252302939  0.0068458500079913
  0.0064996463652136  0.2481957302898152  0.4867259414900147
  0.0067554959193075  0.7531097819252324  0.4851201977601391
  0.4970720465019696  0.2510079055950456  0.5057814229528574
  0.9995504998769675  0.0033707288399611  0.2534756366424773
  0.0022639871210970  0.4970224903018874  0.2498132306058523
  0.5008603287288977  0.0034689100169984  0.7456258323193268
  0.4947625730083942  0.4924901326562221  0.2530116206119573
  0.4932752104163143  0.4940562691070838  0.7485373942513860
 
  0.00000000E+00  0.00000000E+00  0.00000000E+00
  0.00000000E+00  0.00000000E+00  0.00000000E+00
  0.00000000E+00  0.00000000E+00  0.00000000E+00
  0.00000000E+00  0.00000000E+00  0.00000000E+00
  0.00000000E+00  0.00000000E+00  0.00000000E+00
  0.00000000E+00  0.00000000E+00  0.00000000E+00
  0.00000000E+00  0.00000000E+00  0.00000000E+00
  0.00000000E+00  0.00000000E+00  0.00000000E+00
  0.00000000E+00  0.00000000E+00  0.00000000E+00
  0.00000000E+00  0.00000000E+00  0.00000000E+00
  0.00000000E+00  0.00000000E+00  0.00000000E+00
  0.00000000E+00  0.00000000E+00  0.00000000E+00
  0.00000000E+00  0.00000000E+00  0.00000000E+00
  0.00000000E+00  0.00000000E+00  0.00000000E+00
  0.00000000E+00  0.00000000E+00  0.00000000E+00
  0.00000000E+00  0.00000000E+00  0.00000000E+00
  0.00000000E+00  0.00000000E+00  0.00000000E+00
  0.00000000E+00  0.00000000E+00  0.00000000E+00
  0.00000000E+00  0.00000000E+00  0.00000000E+00
  0.00000000E+00  0.00000000E+00  0.00000000E+00
  0.00000000E+00  0.00000000E+00  0.00000000E+00
  0.00000000E+00  0.00000000E+00  0.00000000E+00
  0.00000000E+00  0.00000000E+00  0.00000000E+00
  0.00000000E+00  0.00000000E+00  0.00000000E+00
  0.00000000E+00  0.00000000E+00  0.00000000E+00
  0.00000000E+00  0.00000000E+00  0.00000000E+00
  0.00000000E+00  0.00000000E+00  0.00000000E+00
  0.00000000E+00  0.00000000E+00  0.00000000E+00
  0.00000000E+00  0.00000000E+00  0.00000000E+00
  0.00000000E+00  0.00000000E+00  0.00000000E+00
  0.00000000E+00  0.00000000E+00  0.00000000E+00
  0.00000000E+00  0.00000000E+00  0.00000000E+00
