TiOF2 2x2x2 config 1053                 
   1.00000000000000     
     7.8245040807016437    0.0004466903379556   -0.0004327798472071
     0.0004362022607078    7.6183049179551627    0.0011674346878809
    -0.0004469129236544    0.0011948600407338    7.7234377319360537
   Ti   O    F 
     8     8    16
Direct
  0.0001826221647529 -0.0141082998505864 -0.0035008887715524
  0.0009677849792057  0.0010554932363202  0.5200149664173075
  0.0004951243853169  0.5088687138951218 -0.0137556854959124
 -0.0167055329622396  0.5000704649961452  0.5108362082094321
  0.5003754729860532 -0.0002852254589937  0.0075959037166208
  0.5000440004937187 -0.0086382116315597  0.4827603409773007
  0.4997613834365357  0.4980866624739846  0.0004462850345839
  0.5107658588267587  0.5143610633616699  0.5007844400699756
  0.7512775645022295  0.4999765544882604  0.4999158952584789
 -0.0000114804236628  0.7506879566405581  0.0038583661093537
  0.5007582945082905  0.2522079678958158 -0.0016332249177673
  0.5007385209589872  0.7464066816203078 -0.0016227810556954
  0.4992300654495114  0.7500360479282230  0.5029925662569527
 -0.0003542791271924  0.0015399955852841  0.7477286111188600
  0.0005738979740971  0.4983812486504813  0.7491527120630390
  0.5005850105714250  0.0020703736860665  0.2522852909817476
  0.2457802035980261  0.0047864955573188 -0.0000056033446357
  0.2466070723590518  0.0037160315541132  0.4999340654310185
  0.2470148091168300  0.4956621238034133  0.0046765289551512
  0.2482859951864770  0.4984658709389846  0.4980188419782108
  0.7546903050671431  0.0047990223818288  0.0000452411260726
  0.7549374219164399  0.0045689243735642  0.4993665359650979
  0.7529976156438174  0.4957755699111598  0.0051682572743419
 -0.0000375195497458  0.2487865252302948  0.0068458500079880
  0.0064996463652128  0.2481957302898147  0.4867259414900150
  0.0067554959193061  0.7531097819252303  0.4851201977601416
  0.4970720465019716  0.2510079055950447  0.5057814229528590
 -0.0004495001230302  0.0033707288399629  0.2534756366424742
  0.0022639871210959  0.4970224903018851  0.2498132306058511
  0.5008603287288963  0.0034689100170008  0.7456258323193286
  0.4947625730083935  0.4924901326562228  0.2530116206119584
  0.4932752104163126  0.4940562691070853  0.7485373942513853
 
  0.00000000E+00  0.00000000E+00  0.00000000E+00
  0.00000000E+00  0.00000000E+00  0.00000000E+00
  0.00000000E+00  0.00000000E+00  0.00000000E+00
  0.00000000E+00  0.00000000E+00  0.00000000E+00
  0.00000000E+00  0.00000000E+00  0.00000000E+00
  0.00000000E+00  0.00000000E+00  0.00000000E+00
  0.00000000E+00  0.00000000E+00  0.00000000E+00
  0.00000000E+00  0.00000000E+00  0.00000000E+00
  0.00000000E+00  0.00000000E+00  0.00000000E+00
  0.00000000E+00  0.00000000E+00  0.00000000E+00
  0.00000000E+00  0.00000000E+00  0.00000000E+00
  0.00000000E+00  0.00000000E+00  0.00000000E+00
  0.00000000E+00  0.00000000E+00  0.00000000E+00
  0.00000000E+00  0.00000000E+00  0.00000000E+00
  0.00000000E+00  0.00000000E+00  0.00000000E+00
  0.00000000E+00  0.00000000E+00  0.00000000E+00
  0.00000000E+00  0.00000000E+00  0.00000000E+00
  0.00000000E+00  0.00000000E+00  0.00000000E+00
  0.00000000E+00  0.00000000E+00  0.00000000E+00
  0.00000000E+00  0.00000000E+00  0.00000000E+00
  0.00000000E+00  0.00000000E+00  0.00000000E+00
  0.00000000E+00  0.00000000E+00  0.00000000E+00
  0.00000000E+00  0.00000000E+00  0.00000000E+00
  0.00000000E+00  0.00000000E+00  0.00000000E+00
  0.00000000E+00  0.00000000E+00  0.00000000E+00
  0.00000000E+00  0.00000000E+00  0.00000000E+00
  0.00000000E+00  0.00000000E+00  0.00000000E+00
  0.00000000E+00  0.00000000E+00  0.00000000E+00
  0.00000000E+00  0.00000000E+00  0.00000000E+00
  0.00000000E+00  0.00000000E+00  0.00000000E+00
  0.00000000E+00  0.00000000E+00  0.00000000E+00
  0.00000000E+00  0.00000000E+00  0.00000000E+00
