Ti64 O64 F128                           
   1.00000000000000     
    15.2638358711715227    0.0000000000000000    0.0000000000000000
     0.0000000000000000   15.2638358711715227    0.0000000000000000
     0.0000000000000000    0.0000000000000000   15.2638358711715227
   Ti   O    F 
    64    64   128
Direct
  0.0010893222243934  0.9950495751904580  0.9949231339212375
  0.0021119535776390  0.9909687123235703  0.5042005282207270
  0.0041362031609713  0.4971819350213596  0.0068541821110594
  0.0076618237258663  0.5034957816011320  0.5063929045884178
  0.4905640919529531  0.0055720894269473  0.0039221781171452
  0.4988436667289304  0.9924003306768631  0.4906351110268278
  0.4932396408644312  0.4974164644361520  0.9922177670917333
  0.4991105072110514  0.4932372101978200  0.4915013750352963
  0.0059509594353873  0.0116775890029207  0.2515135379060974
  0.9953265958245231  0.9940903328603840  0.7586027195348817
  0.9952677889937928  0.4990321622803183  0.2446579218111877
  0.0007942774547757  0.4956607424128690  0.7447900927851803
  0.4946053866194284  0.0074029932241369  0.2554840323299183
  0.5092398392672084  0.0033311001942902  0.7478050088998842
  0.4931195660418718  0.4965808072994311  0.2540159457311604
  0.4960160433956632  0.5063580379292912  0.7529005523561281
  0.0015692574056221  0.2574540886154230  0.0067044082430170
  0.0048044125553391  0.2459151919807066  0.5073768862522172
  0.9947789239201391  0.7586795527027888  0.0013575138365942
  0.0022052631049114  0.7572715914160147  0.4931537030443310
  0.4910355537353589  0.2439733799432014  0.9996152985938709
  0.5066691336973926  0.2541010831067366  0.4997819358849387
  0.4949059919211279  0.7519207267490909  0.9913468429627826
  0.5018808921008127  0.7533865978535520  0.4909420114058747
  0.9956132959883217  0.2436037760139249  0.2454444865937906
  0.9989985123524426  0.2559781302511691  0.7441519648294639
  0.9960507219018491  0.7550368367690390  0.2577391379687349
  0.9908581324839586  0.7559906771715014  0.7486051087399913
  0.5070201311360886  0.2394706865292147  0.2467671181441503
  0.4934304942172232  0.2414065040154520  0.7509974687408192
  0.4946572194334139  0.7499073946931876  0.2543884933210353
  0.5045397088137656  0.7414796627756131  0.7524692903741129
  0.2581078599353255  0.9994948250989154  0.9939656535571006
  0.2502283133875101  0.9918771931941545  0.4928933095240726
  0.2570536539494505  0.4965401481493987  0.0083412384466964
  0.2419236594698204  0.4929483779570843  0.4959081421814020
  0.7479616146481755  0.9960563887316654  0.9956555904653946
  0.7515504323890626  0.0054802475581944  0.4935404758679038
  0.7470970318970681  0.4961635757260819  0.9956478058374937
  0.7530033864223546  0.5051267713498885  0.4927378531694705
  0.2428075134929252  0.0037936003187986  0.2568544189127691
  0.2530516509275017  0.9936851598626220  0.7551553870753842
  0.2534824781453802  0.4901186333054958  0.2433081446307908
  0.2596105165357149  0.4945536904173710  0.7525198496935348
  0.7539864431545712  0.0080546179391083  0.2581442433261262
  0.7432282329288122  0.0006368581342291  0.7586554811192873
  0.7558890838099532  0.4964841373974846  0.2554665390919472
  0.7503025318419955  0.4919925268498483  0.7557255956122152
  0.2583452208161354  0.2537432862744240  0.0068875073655459
  0.2427576723409734  0.2526623945865347  0.4981038330486170
  0.2556746026142407  0.7500136998643309  0.9923090966329734
  0.2471690053164685  0.7525935800514686  0.4921402933961176
  0.7451929181210728  0.2595200018717135  0.9948450268861952
  0.7450682161488882  0.2431781332239532  0.5030112141214491
  0.7552485274388995  0.7590657096504367  0.9976215222934479
  0.7530487822916176  0.7424313776946664  0.5074525242359124
  0.2512031081344389  0.2597843339783047  0.2450568194869065
  0.2580989338747467  0.2547084343063579  0.7552792043493065
  0.2555078568232500  0.7475151245739817  0.2546365871383654
  0.2480509836382867  0.7539008765930330  0.7545960169570498
  0.7445760682916339  0.2421076456214884  0.2487341090520288
  0.7481966401022523  0.2597003097679161  0.7580039804142740
  0.7565080853535731  0.7541175468244545  0.2526512163595958
  0.7589617408652407  0.7466669318293275  0.7439233049551890
  0.0082334660103359  0.5107864545254820  0.1260391417196975
  0.0018146384168175  0.5112142995531689  0.6253427890682175
  0.9835588565963232  0.9898394286685838  0.8764379164118677
  0.4806390893040839  0.0129885023499786  0.3735526913961951
  0.4995686245559787  0.5134312571266030  0.3739584203130621
  0.5030347243481986  0.5095395607837764  0.8753782900520215
  0.9877685918901266  0.2441556276921576  0.1267233317081554
  0.9858963501167314  0.2394563893028492  0.6253255143894498
  0.0167415380746829  0.7653091911123393  0.3760638479749492
  0.5105028841031909  0.7339273822648686  0.3731581640420963
  0.5095933943735729  0.7407316356472514  0.8738203274075002
  0.2374993552595939  0.4803333713184785  0.1234821835838171
  0.2676658425170251  0.0067286015242692  0.3745560559093549
  0.2635370556920019  0.0095456264608266  0.8754284400748117
  0.7638987028450059  0.9840112547379996  0.3752882318353097
  0.7658744183909362  0.9966464936890832  0.8763377276759464
  0.7471922097451151  0.4850121697826327  0.3750402794128266
  0.7473025872350101  0.4925682578141266  0.8755780143436266
  0.2616408714897279  0.2688157222477153  0.1243343157684761
  0.7684381998107819  0.7397623752898256  0.6250328074815904
  0.2369438846498001  0.7369973160707669  0.3738651523841275
  0.2396334066449806  0.7385329295459916  0.8737348654862919
  0.7298139715012464  0.2591316616536880  0.8761286654386625
  0.1249915082771657  0.5166902463395988  0.4935726882642866
  0.1241014601009593  0.0175520251787823  0.2673965267138989
  0.6256741267385241  0.9826753267516607  0.7646909388956367
  0.1244935968670202  0.2338010075664506  0.5097583920161697
  0.6256708100937585  0.2374509266977141  0.5126560639706828
  0.6257213503907367  0.2340779370387940  0.2353754046577269
  0.3746237096938401  0.9806916312338478  0.0154595413666123
  0.3744699353236635  0.4799333158991170  0.0023561162875258
  0.3751999616453826  0.4869007468877580  0.2443071460994303
  0.3752166804542240  0.5112543473657285  0.7453870116836216
  0.8754563528973748  0.4888667514495518  0.2469556081184822
  0.3751959397522537  0.2667383797251167  0.9812184688147270
  0.3743294199146341  0.7659125183489432  0.9926649942205704
  0.8752857031158956  0.7626986301010880  0.9873511867602011
  0.3763512235050501  0.2357953926876329  0.7689976076748855
  0.3748005940388854  0.7592607902022254  0.2565572646031280
  0.8736722178416683  0.7651385273389073  0.2631067080274526
  0.8748720146175488  0.7351527063858719  0.7696621009399589
  0.4843836527568779  0.1255382348834755  0.0131845702606270
  0.9784219262065048  0.1255526615822513  0.2653215637481947
  0.4831386885488878  0.1238415946136770  0.2293449358757344
  0.5145704541806743  0.1233143909668889  0.7408093786531540
  0.5181034484860308  0.6254111067858769  0.7359124096844589
  0.0125174234251153  0.3765253560605719  0.0046159037678508
  0.0131482372537947  0.8775326281742386  0.0144625340600619
  0.0200054065452080  0.8762287535574463  0.5173282573741326
  0.5088103547542702  0.3721266546372018  0.4851228933423472
  0.5131717580158408  0.8740789594217270  0.4858359869118917
  0.9870315525645454  0.3755679299355671  0.7461230140195394
  0.9869962682654752  0.8758638504123106  0.7353778245646417
  0.7646943666884397  0.1238268661646348  0.4893990586564819
  0.7661967200861521  0.6262922468012460  0.4852311500858835
  0.7689125562249204  0.1262364040199012  0.2649270392468421
  0.2396863276992752  0.3726157725537521  0.4856493805669637
  0.2321862042185444  0.8730950834381817  0.4928026048284016
  0.7390602722399130  0.3770940330729650  0.0153462950234421
  0.7379876842159908  0.8774809090942152  0.0109628340660734
  0.2337125457606120  0.3723733589759087  0.2705939582701278
  0.2581977710963358  0.3732586529707261  0.7649362298100355
  0.2590352434932483  0.8743306389539887  0.7548416279715326
  0.7704376696622340  0.3750325638484549  0.7393162437911353
  0.0132939756889506  0.0176874007945381  0.1258076048643100
  0.0153205963643722  0.0185485553327271  0.6247263465712951
  0.5182589504186457  0.9846217272808543  0.1261297332960168
  0.5157621717780689  0.9879922999694404  0.6219772503037475
  0.5065794305530800  0.4827867851998143  0.1242606234055978
  0.5012588830636572  0.4848903778048710  0.6227899983524144
  0.9830591147960999  0.9811477814274220  0.3776088532644294
  0.9953856043757336  0.4921558001611048  0.3763228248310302
  0.9943739279178064  0.4998754288119346  0.8754828088533828
  0.4828441928393257  0.0071963235158131  0.8750407166231222
  0.9872989677883766  0.7381789570831782  0.1278723085751653
  0.9806555240457873  0.7356312388584644  0.6218193730408036
  0.4827488311423291  0.2712479065361926  0.1249493345692060
  0.4821402840344572  0.2607799206113908  0.6251826426414849
  0.4981146837943299  0.7647742528716925  0.1243316245737659
  0.4909943400611775  0.7617866287691974  0.6221478486122363
  0.0091060241105060  0.2592726169660869  0.3755953796094134
  0.0133857157593505  0.2521409658879445  0.8756832142962314
  0.0189824745114373  0.7626146227352278  0.8743200839902769
  0.5103039124262796  0.2268544090188995  0.3737234611357600
  0.5249092047249455  0.2394374457717113  0.8763784713827908
  0.2337533639742201  0.9929244172812521  0.1252201102841122
  0.2328511009890913  0.9950549766078911  0.6237399329750923
  0.2433087296558016  0.4870543772342839  0.6244955841901588
  0.7364043354318728  0.0133655559036270  0.1275795225715590
  0.7381085244891462  0.0054820189043964  0.6246476197227842
  0.7500480456649175  0.5188597931614766  0.1259002374658673
  0.7544702918127555  0.5135854393759379  0.6250808119541337
  0.2589955006075321  0.5183967359234265  0.3735464648149395
  0.2523102982406062  0.5185233449746898  0.8767348816061766
  0.2646362182364519  0.2579991288415273  0.6257546437908200
  0.2522810767460817  0.7623714977067595  0.1243381066893626
  0.2599811549063579  0.7535635718607401  0.6228002699387899
  0.7699356275106893  0.2393091161561096  0.1251092882274892
  0.7674251015394680  0.2380819888862141  0.6275240300316524
  0.7613271509950931  0.7378566095442624  0.1266854312433428
  0.2426523992466826  0.2264196037844250  0.3729725915604142
  0.2322943149449555  0.2311142388836981  0.8779819911824549
  0.7375491253699977  0.2676824062384607  0.3748948921750889
  0.7338347074397257  0.7669254834881482  0.3757603710768513
  0.7318349104783236  0.7609841100483081  0.8727653719710310
  0.1261356503811602  0.0187431200055104  0.9893411994102294
  0.1229963023473291  0.0194872853806370  0.4818165683942349
  0.1274019721075124  0.5176954405306032  0.9883712863988544
  0.6223754059896004  0.0159096965996051  0.9860549183375378
  0.6244586297034721  0.0151740709424073  0.4851983635238927
  0.6233809554689782  0.5174432936228767  0.0057488456694439
  0.6258218050035580  0.5131384061768844  0.5059488829749682
  0.1236345059692949  0.9916191894884842  0.7618111421564735
  0.1245715229931946  0.5150220106674236  0.2624384901181922
  0.1257975100658940  0.4907167333336047  0.7567734121615579
  0.6243854713313801  0.0137632013872468  0.2641539471087084
  0.6257819568874110  0.5091185899860139  0.2463194529083362
  0.6260988895086432  0.4808285232506256  0.7417384781421366
  0.1270113650480790  0.2345097266500504  0.0122007735569209
  0.1244718532312636  0.7359322316989010  0.0112753803556370
  0.1226389577681946  0.7265755532920669  0.5181136572421016
  0.6227542565003998  0.2377472139324235  0.0232496865955056
  0.6254548290098818  0.7374682761080512  0.0106099807584897
  0.6262862114916234  0.7339917163772296  0.5140015403600473
  0.1249964965816763  0.2299717807491769  0.2419260090933531
  0.1258849818122041  0.2566025703019161  0.7376978493702016
  0.1223933126889086  0.7400104895444770  0.2362592071348706
  0.1223890718357981  0.7594197128224121  0.7319272466791813
  0.6247089064436899  0.2648453429177258  0.7297600602445967
  0.6276376439175962  0.7407467430545502  0.2395906109476451
  0.6284010437482735  0.7705590029638698  0.7354587239940301
  0.3746240883926962  0.9828426444415844  0.5205938439156244
  0.3732039147084172  0.4906893309207775  0.5047169859523825
  0.8749581661396558  0.9954880268813042  0.0216959983856309
  0.8770211177029242  0.9815954296917374  0.5194566459776492
  0.8753882200180205  0.4948335449668869  0.0043049103227749
  0.8771626755590464  0.4840392561719477  0.5009059248837724
  0.3730261070314610  0.9805486989551289  0.2308376382797933
  0.3764984018058679  0.0104916904371851  0.7311604638168051
  0.8765101769103467  0.9816765135869243  0.2345846145033414
  0.8734116736632327  0.0177944948972620  0.7319136748374245
  0.8746898181136189  0.5234202639158162  0.7518337686762337
  0.3751844312630615  0.2520204984502332  0.4871880270417776
  0.3743066144810935  0.7612321944144953  0.4888925815263400
  0.8742297096232423  0.2609045975264913  0.9847131182341626
  0.8748180710764860  0.2635839083028508  0.4872411764711613
  0.8759374902019050  0.7734908218737633  0.4820773087738294
  0.3773563624645875  0.2636207891048889  0.2649296909704515
  0.3750135216981655  0.7341860172851843  0.7529881471318941
  0.8730932934586098  0.2737758585318838  0.2633924016389840
  0.8738383493812022  0.2323451404163549  0.7694557328589993
  0.9886106107900245  0.1263063726070202  0.9929532344345560
  0.9817502021958666  0.1199820585155077  0.4853372675777275
  0.9912837241476753  0.6278188167873199  0.9906559173611945
  0.9793157955267716  0.6288291437493463  0.4868892365420456
  0.4880992309858722  0.1217790073340700  0.5147761661267064
  0.4850171949162770  0.6248779177178480  0.0162390819642855
  0.4888308220294534  0.6245501689216680  0.5141995107390321
  0.0101194997139165  0.1241917444614005  0.7594503837235537
  0.9888695776634191  0.6278868551935012  0.2646774344087077
  0.0153474093832339  0.6276246448605899  0.7588045923414364
  0.4931030218572676  0.6242254785720878  0.2287401005344451
  0.0128041224302102  0.3748026041359233  0.5075738337409379
  0.5215752287902110  0.3720597446217221  0.9887717875258485
  0.5193329641912335  0.8778111653233150  0.9888937342754894
  0.0192424068249780  0.3738545956495180  0.2464668751634263
  0.0130280407465253  0.8782844668286445  0.2348989343697782
  0.5142222502403564  0.3701943604297377  0.2654787509767171
  0.4932266890976836  0.3718598384242028  0.7604962117374938
  0.5143297354656813  0.8763461052242446  0.2603763490773747
  0.4839465880762094  0.8749264680093914  0.7553924000625433
  0.2661382853927698  0.1259606252589266  0.0156053445240052
  0.2629535404314880  0.1214748133090060  0.5115415603918224
  0.2652298554670238  0.6243829966989960  0.0168899740474980
  0.2645858334144793  0.6237095031100963  0.5111572051520481
  0.7583022410864001  0.1277082890503368  0.9974326566147650
  0.7588496199889025  0.6279512269773914  0.9907016699550167
  0.2689034564243531  0.1258331601965426  0.2348094250858177
  0.2392370481242578  0.1241654014497985  0.7388742575849045
  0.2573572195619121  0.6233785853226701  0.2321017380145259
  0.2359541345628140  0.6237586266786871  0.7363602714856183
  0.7340934688315102  0.1270353924192605  0.7534239961439070
  0.7585090073669606  0.6277556381665462  0.2659502484249163
  0.7286300171083807  0.6248838418642423  0.7582175902819918
  0.2278815264960186  0.3744065433698529  0.9762838729526454
  0.2267875496641641  0.8757538789100449  0.9917784080062921
  0.7411034238955836  0.3749237153956735  0.5162319026716812
  0.7350300968047305  0.8742463250585206  0.5112373735065351
  0.2340346052362904  0.8751191453952671  0.2562752821683777
  0.7365386045268082  0.3733541288567387  0.2315350286532230
  0.7348904391735339  0.8765391009674646  0.2338807390592872
  0.7697005337828479  0.8756287507515585  0.7417313453114518
 
  0.00000000E+00  0.00000000E+00  0.00000000E+00
  0.00000000E+00  0.00000000E+00  0.00000000E+00
  0.00000000E+00  0.00000000E+00  0.00000000E+00
  0.00000000E+00  0.00000000E+00  0.00000000E+00
  0.00000000E+00  0.00000000E+00  0.00000000E+00
  0.00000000E+00  0.00000000E+00  0.00000000E+00
  0.00000000E+00  0.00000000E+00  0.00000000E+00
  0.00000000E+00  0.00000000E+00  0.00000000E+00
  0.00000000E+00  0.00000000E+00  0.00000000E+00
  0.00000000E+00  0.00000000E+00  0.00000000E+00
  0.00000000E+00  0.00000000E+00  0.00000000E+00
  0.00000000E+00  0.00000000E+00  0.00000000E+00
  0.00000000E+00  0.00000000E+00  0.00000000E+00
  0.00000000E+00  0.00000000E+00  0.00000000E+00
  0.00000000E+00  0.00000000E+00  0.00000000E+00
  0.00000000E+00  0.00000000E+00  0.00000000E+00
  0.00000000E+00  0.00000000E+00  0.00000000E+00
  0.00000000E+00  0.00000000E+00  0.00000000E+00
  0.00000000E+00  0.00000000E+00  0.00000000E+00
  0.00000000E+00  0.00000000E+00  0.00000000E+00
  0.00000000E+00  0.00000000E+00  0.00000000E+00
  0.00000000E+00  0.00000000E+00  0.00000000E+00
  0.00000000E+00  0.00000000E+00  0.00000000E+00
  0.00000000E+00  0.00000000E+00  0.00000000E+00
  0.00000000E+00  0.00000000E+00  0.00000000E+00
  0.00000000E+00  0.00000000E+00  0.00000000E+00
  0.00000000E+00  0.00000000E+00  0.00000000E+00
  0.00000000E+00  0.00000000E+00  0.00000000E+00
  0.00000000E+00  0.00000000E+00  0.00000000E+00
  0.00000000E+00  0.00000000E+00  0.00000000E+00
  0.00000000E+00  0.00000000E+00  0.00000000E+00
  0.00000000E+00  0.00000000E+00  0.00000000E+00
  0.00000000E+00  0.00000000E+00  0.00000000E+00
  0.00000000E+00  0.00000000E+00  0.00000000E+00
  0.00000000E+00  0.00000000E+00  0.00000000E+00
  0.00000000E+00  0.00000000E+00  0.00000000E+00
  0.00000000E+00  0.00000000E+00  0.00000000E+00
  0.00000000E+00  0.00000000E+00  0.00000000E+00
  0.00000000E+00  0.00000000E+00  0.00000000E+00
  0.00000000E+00  0.00000000E+00  0.00000000E+00
  0.00000000E+00  0.00000000E+00  0.00000000E+00
  0.00000000E+00  0.00000000E+00  0.00000000E+00
  0.00000000E+00  0.00000000E+00  0.00000000E+00
  0.00000000E+00  0.00000000E+00  0.00000000E+00
  0.00000000E+00  0.00000000E+00  0.00000000E+00
  0.00000000E+00  0.00000000E+00  0.00000000E+00
  0.00000000E+00  0.00000000E+00  0.00000000E+00
  0.00000000E+00  0.00000000E+00  0.00000000E+00
  0.00000000E+00  0.00000000E+00  0.00000000E+00
  0.00000000E+00  0.00000000E+00  0.00000000E+00
  0.00000000E+00  0.00000000E+00  0.00000000E+00
  0.00000000E+00  0.00000000E+00  0.00000000E+00
  0.00000000E+00  0.00000000E+00  0.00000000E+00
  0.00000000E+00  0.00000000E+00  0.00000000E+00
  0.00000000E+00  0.00000000E+00  0.00000000E+00
  0.00000000E+00  0.00000000E+00  0.00000000E+00
  0.00000000E+00  0.00000000E+00  0.00000000E+00
  0.00000000E+00  0.00000000E+00  0.00000000E+00
  0.00000000E+00  0.00000000E+00  0.00000000E+00
  0.00000000E+00  0.00000000E+00  0.00000000E+00
  0.00000000E+00  0.00000000E+00  0.00000000E+00
  0.00000000E+00  0.00000000E+00  0.00000000E+00
  0.00000000E+00  0.00000000E+00  0.00000000E+00
  0.00000000E+00  0.00000000E+00  0.00000000E+00
  0.00000000E+00  0.00000000E+00  0.00000000E+00
  0.00000000E+00  0.00000000E+00  0.00000000E+00
  0.00000000E+00  0.00000000E+00  0.00000000E+00
  0.00000000E+00  0.00000000E+00  0.00000000E+00
  0.00000000E+00  0.00000000E+00  0.00000000E+00
  0.00000000E+00  0.00000000E+00  0.00000000E+00
  0.00000000E+00  0.00000000E+00  0.00000000E+00
  0.00000000E+00  0.00000000E+00  0.00000000E+00
  0.00000000E+00  0.00000000E+00  0.00000000E+00
  0.00000000E+00  0.00000000E+00  0.00000000E+00
  0.00000000E+00  0.00000000E+00  0.00000000E+00
  0.00000000E+00  0.00000000E+00  0.00000000E+00
  0.00000000E+00  0.00000000E+00  0.00000000E+00
  0.00000000E+00  0.00000000E+00  0.00000000E+00
  0.00000000E+00  0.00000000E+00  0.00000000E+00
  0.00000000E+00  0.00000000E+00  0.00000000E+00
  0.00000000E+00  0.00000000E+00  0.00000000E+00
  0.00000000E+00  0.00000000E+00  0.00000000E+00
  0.00000000E+00  0.00000000E+00  0.00000000E+00
  0.00000000E+00  0.00000000E+00  0.00000000E+00
  0.00000000E+00  0.00000000E+00  0.00000000E+00
  0.00000000E+00  0.00000000E+00  0.00000000E+00
  0.00000000E+00  0.00000000E+00  0.00000000E+00
  0.00000000E+00  0.00000000E+00  0.00000000E+00
  0.00000000E+00  0.00000000E+00  0.00000000E+00
  0.00000000E+00  0.00000000E+00  0.00000000E+00
  0.00000000E+00  0.00000000E+00  0.00000000E+00
  0.00000000E+00  0.00000000E+00  0.00000000E+00
  0.00000000E+00  0.00000000E+00  0.00000000E+00
  0.00000000E+00  0.00000000E+00  0.00000000E+00
  0.00000000E+00  0.00000000E+00  0.00000000E+00
  0.00000000E+00  0.00000000E+00  0.00000000E+00
  0.00000000E+00  0.00000000E+00  0.00000000E+00
  0.00000000E+00  0.00000000E+00  0.00000000E+00
  0.00000000E+00  0.00000000E+00  0.00000000E+00
  0.00000000E+00  0.00000000E+00  0.00000000E+00
  0.00000000E+00  0.00000000E+00  0.00000000E+00
  0.00000000E+00  0.00000000E+00  0.00000000E+00
  0.00000000E+00  0.00000000E+00  0.00000000E+00
  0.00000000E+00  0.00000000E+00  0.00000000E+00
  0.00000000E+00  0.00000000E+00  0.00000000E+00
  0.00000000E+00  0.00000000E+00  0.00000000E+00
  0.00000000E+00  0.00000000E+00  0.00000000E+00
  0.00000000E+00  0.00000000E+00  0.00000000E+00
  0.00000000E+00  0.00000000E+00  0.00000000E+00
  0.00000000E+00  0.00000000E+00  0.00000000E+00
  0.00000000E+00  0.00000000E+00  0.00000000E+00
  0.00000000E+00  0.00000000E+00  0.00000000E+00
  0.00000000E+00  0.00000000E+00  0.00000000E+00
  0.00000000E+00  0.00000000E+00  0.00000000E+00
  0.00000000E+00  0.00000000E+00  0.00000000E+00
  0.00000000E+00  0.00000000E+00  0.00000000E+00
  0.00000000E+00  0.00000000E+00  0.00000000E+00
  0.00000000E+00  0.00000000E+00  0.00000000E+00
  0.00000000E+00  0.00000000E+00  0.00000000E+00
  0.00000000E+00  0.00000000E+00  0.00000000E+00
  0.00000000E+00  0.00000000E+00  0.00000000E+00
  0.00000000E+00  0.00000000E+00  0.00000000E+00
  0.00000000E+00  0.00000000E+00  0.00000000E+00
  0.00000000E+00  0.00000000E+00  0.00000000E+00
  0.00000000E+00  0.00000000E+00  0.00000000E+00
  0.00000000E+00  0.00000000E+00  0.00000000E+00
  0.00000000E+00  0.00000000E+00  0.00000000E+00
  0.00000000E+00  0.00000000E+00  0.00000000E+00
  0.00000000E+00  0.00000000E+00  0.00000000E+00
  0.00000000E+00  0.00000000E+00  0.00000000E+00
  0.00000000E+00  0.00000000E+00  0.00000000E+00
  0.00000000E+00  0.00000000E+00  0.00000000E+00
  0.00000000E+00  0.00000000E+00  0.00000000E+00
  0.00000000E+00  0.00000000E+00  0.00000000E+00
  0.00000000E+00  0.00000000E+00  0.00000000E+00
  0.00000000E+00  0.00000000E+00  0.00000000E+00
  0.00000000E+00  0.00000000E+00  0.00000000E+00
  0.00000000E+00  0.00000000E+00  0.00000000E+00
  0.00000000E+00  0.00000000E+00  0.00000000E+00
  0.00000000E+00  0.00000000E+00  0.00000000E+00
  0.00000000E+00  0.00000000E+00  0.00000000E+00
  0.00000000E+00  0.00000000E+00  0.00000000E+00
  0.00000000E+00  0.00000000E+00  0.00000000E+00
  0.00000000E+00  0.00000000E+00  0.00000000E+00
  0.00000000E+00  0.00000000E+00  0.00000000E+00
  0.00000000E+00  0.00000000E+00  0.00000000E+00
  0.00000000E+00  0.00000000E+00  0.00000000E+00
  0.00000000E+00  0.00000000E+00  0.00000000E+00
  0.00000000E+00  0.00000000E+00  0.00000000E+00
  0.00000000E+00  0.00000000E+00  0.00000000E+00
  0.00000000E+00  0.00000000E+00  0.00000000E+00
  0.00000000E+00  0.00000000E+00  0.00000000E+00
  0.00000000E+00  0.00000000E+00  0.00000000E+00
  0.00000000E+00  0.00000000E+00  0.00000000E+00
  0.00000000E+00  0.00000000E+00  0.00000000E+00
  0.00000000E+00  0.00000000E+00  0.00000000E+00
  0.00000000E+00  0.00000000E+00  0.00000000E+00
  0.00000000E+00  0.00000000E+00  0.00000000E+00
  0.00000000E+00  0.00000000E+00  0.00000000E+00
  0.00000000E+00  0.00000000E+00  0.00000000E+00
  0.00000000E+00  0.00000000E+00  0.00000000E+00
  0.00000000E+00  0.00000000E+00  0.00000000E+00
  0.00000000E+00  0.00000000E+00  0.00000000E+00
  0.00000000E+00  0.00000000E+00  0.00000000E+00
  0.00000000E+00  0.00000000E+00  0.00000000E+00
  0.00000000E+00  0.00000000E+00  0.00000000E+00
  0.00000000E+00  0.00000000E+00  0.00000000E+00
  0.00000000E+00  0.00000000E+00  0.00000000E+00
  0.00000000E+00  0.00000000E+00  0.00000000E+00
  0.00000000E+00  0.00000000E+00  0.00000000E+00
  0.00000000E+00  0.00000000E+00  0.00000000E+00
  0.00000000E+00  0.00000000E+00  0.00000000E+00
  0.00000000E+00  0.00000000E+00  0.00000000E+00
  0.00000000E+00  0.00000000E+00  0.00000000E+00
  0.00000000E+00  0.00000000E+00  0.00000000E+00
  0.00000000E+00  0.00000000E+00  0.00000000E+00
  0.00000000E+00  0.00000000E+00  0.00000000E+00
  0.00000000E+00  0.00000000E+00  0.00000000E+00
  0.00000000E+00  0.00000000E+00  0.00000000E+00
  0.00000000E+00  0.00000000E+00  0.00000000E+00
  0.00000000E+00  0.00000000E+00  0.00000000E+00
  0.00000000E+00  0.00000000E+00  0.00000000E+00
  0.00000000E+00  0.00000000E+00  0.00000000E+00
  0.00000000E+00  0.00000000E+00  0.00000000E+00
  0.00000000E+00  0.00000000E+00  0.00000000E+00
  0.00000000E+00  0.00000000E+00  0.00000000E+00
  0.00000000E+00  0.00000000E+00  0.00000000E+00
  0.00000000E+00  0.00000000E+00  0.00000000E+00
  0.00000000E+00  0.00000000E+00  0.00000000E+00
  0.00000000E+00  0.00000000E+00  0.00000000E+00
  0.00000000E+00  0.00000000E+00  0.00000000E+00
  0.00000000E+00  0.00000000E+00  0.00000000E+00
  0.00000000E+00  0.00000000E+00  0.00000000E+00
  0.00000000E+00  0.00000000E+00  0.00000000E+00
  0.00000000E+00  0.00000000E+00  0.00000000E+00
  0.00000000E+00  0.00000000E+00  0.00000000E+00
  0.00000000E+00  0.00000000E+00  0.00000000E+00
  0.00000000E+00  0.00000000E+00  0.00000000E+00
  0.00000000E+00  0.00000000E+00  0.00000000E+00
  0.00000000E+00  0.00000000E+00  0.00000000E+00
  0.00000000E+00  0.00000000E+00  0.00000000E+00
  0.00000000E+00  0.00000000E+00  0.00000000E+00
  0.00000000E+00  0.00000000E+00  0.00000000E+00
  0.00000000E+00  0.00000000E+00  0.00000000E+00
  0.00000000E+00  0.00000000E+00  0.00000000E+00
  0.00000000E+00  0.00000000E+00  0.00000000E+00
  0.00000000E+00  0.00000000E+00  0.00000000E+00
  0.00000000E+00  0.00000000E+00  0.00000000E+00
  0.00000000E+00  0.00000000E+00  0.00000000E+00
  0.00000000E+00  0.00000000E+00  0.00000000E+00
  0.00000000E+00  0.00000000E+00  0.00000000E+00
  0.00000000E+00  0.00000000E+00  0.00000000E+00
  0.00000000E+00  0.00000000E+00  0.00000000E+00
  0.00000000E+00  0.00000000E+00  0.00000000E+00
  0.00000000E+00  0.00000000E+00  0.00000000E+00
  0.00000000E+00  0.00000000E+00  0.00000000E+00
  0.00000000E+00  0.00000000E+00  0.00000000E+00
  0.00000000E+00  0.00000000E+00  0.00000000E+00
  0.00000000E+00  0.00000000E+00  0.00000000E+00
  0.00000000E+00  0.00000000E+00  0.00000000E+00
  0.00000000E+00  0.00000000E+00  0.00000000E+00
  0.00000000E+00  0.00000000E+00  0.00000000E+00
  0.00000000E+00  0.00000000E+00  0.00000000E+00
  0.00000000E+00  0.00000000E+00  0.00000000E+00
  0.00000000E+00  0.00000000E+00  0.00000000E+00
  0.00000000E+00  0.00000000E+00  0.00000000E+00
  0.00000000E+00  0.00000000E+00  0.00000000E+00
  0.00000000E+00  0.00000000E+00  0.00000000E+00
  0.00000000E+00  0.00000000E+00  0.00000000E+00
  0.00000000E+00  0.00000000E+00  0.00000000E+00
  0.00000000E+00  0.00000000E+00  0.00000000E+00
  0.00000000E+00  0.00000000E+00  0.00000000E+00
  0.00000000E+00  0.00000000E+00  0.00000000E+00
  0.00000000E+00  0.00000000E+00  0.00000000E+00
  0.00000000E+00  0.00000000E+00  0.00000000E+00
  0.00000000E+00  0.00000000E+00  0.00000000E+00
  0.00000000E+00  0.00000000E+00  0.00000000E+00
  0.00000000E+00  0.00000000E+00  0.00000000E+00
  0.00000000E+00  0.00000000E+00  0.00000000E+00
  0.00000000E+00  0.00000000E+00  0.00000000E+00
  0.00000000E+00  0.00000000E+00  0.00000000E+00
  0.00000000E+00  0.00000000E+00  0.00000000E+00
  0.00000000E+00  0.00000000E+00  0.00000000E+00
  0.00000000E+00  0.00000000E+00  0.00000000E+00
  0.00000000E+00  0.00000000E+00  0.00000000E+00
  0.00000000E+00  0.00000000E+00  0.00000000E+00
  0.00000000E+00  0.00000000E+00  0.00000000E+00
  0.00000000E+00  0.00000000E+00  0.00000000E+00
  0.00000000E+00  0.00000000E+00  0.00000000E+00
  0.00000000E+00  0.00000000E+00  0.00000000E+00
  0.00000000E+00  0.00000000E+00  0.00000000E+00
  0.00000000E+00  0.00000000E+00  0.00000000E+00
  0.00000000E+00  0.00000000E+00  0.00000000E+00
  0.00000000E+00  0.00000000E+00  0.00000000E+00
  0.00000000E+00  0.00000000E+00  0.00000000E+00
  0.00000000E+00  0.00000000E+00  0.00000000E+00
