config 31                               
   1.00000000000000     
    15.4263309999999993    0.0000000000000000    0.0000000000000000
     0.0000000000000000   15.4263309999999993    0.0000000000000000
     0.0000000000000000    0.0000000000000000   15.4263309999999993
   Li   Ti   O    F 
     1    64    64   128
Direct
  0.3961017768087342  0.8669659139379170  0.6355786078843373
  0.9954776675160988  0.9952469559267006  0.9941376009640559
  0.9987305599606583  0.9917598643720394  0.4934524569938658
  0.0057879953791242  0.4955687589943761  0.9973946785325651
  0.9943215945785274  0.5042976142349180  0.5072048192429786
  0.4942246694169942  0.9940180149141521  0.9997471833492948
  0.5025420977999946  0.0063437475437149  0.4993006172585593
  0.5040276434858872  0.4957104178327112  0.9963323289128797
  0.4915017151788126  0.4980240056617054  0.4963470983406004
  0.0069822157831279  0.0033519608656374  0.2555612859432150
  0.0012602656316607  0.0076716053140912  0.7565490648272013
  0.9937338808667380  0.4935111587679882  0.2512234252880250
  0.9930880959906651  0.4989292331846508  0.7415491372448841
  0.5064841049400683  0.0082245806315953  0.2508466665436989
  0.4925466231615931  0.0051161611081164  0.7523146155692418
  0.4927049789982060  0.4964895400758390  0.2578132262682409
  0.5002987185181967  0.5031785143468801  0.7583880576270777
  0.9953275567665899  0.2575931883371663  0.0017813727520785
  0.9981508385584005  0.2482982426273915  0.4914437672142054
  0.9974559704544080  0.7579592244564248  0.0057725157542325
  0.9961024663337018  0.7574901616904389  0.5057610507733100
  0.4949509012217764  0.2578147342051962  0.0012060634010939
  0.5093503729080778  0.2432199125997091  0.4987977749104681
  0.5072877228409630  0.7557444868683540  0.9995452458388732
  0.5069470854096917  0.7526490406649439  0.5094203004305490
  0.9996618153617391  0.2585401318793573  0.2552851851447319
  0.0062013358459544  0.2418883513693903  0.7474980320338527
  0.0056033857329146  0.7483776237465030  0.2424830252027557
  0.9923986448016079  0.7508315707120466  0.7434409220056667
  0.5078918132005139  0.2413748481749804  0.2523971170471576
  0.5063184565193790  0.2424277279336858  0.7493742730091948
  0.5062999665250789  0.7513816917280615  0.2509808283296953
  0.5019268242469453  0.7410302877711963  0.7435973548053034
  0.2566171212502305  0.9981622767034135  0.0058963509743424
  0.2528596696127289  0.9942230062833324  0.5057599558260333
  0.2437910056376525  0.5077895575435966  0.9977401640273815
  0.2549901711259501  0.4948063135588368  0.5067656099454506
  0.7566895429042495  0.0002165663990236  0.9934529524952870
  0.7485947705433685  0.0081037771648325  0.4942383360860443
  0.7416353670118792  0.5006916284534368  0.0045899820214121
  0.7558196271360598  0.4987394891621939  0.5052224625448528
  0.2453328150702174  0.0026279897383329  0.2433561272140444
  0.2576404209672649  0.9982621575752482  0.7452014544161443
  0.2548939042045065  0.4919114498254703  0.2521037825375753
  0.2472996629937644  0.5058594969564862  0.7409217481767908
  0.7446545121945867  0.0013939424109764  0.2551427602903318
  0.7479149952615368  0.0062744388095829  0.7552549315295445
  0.7554653532604929  0.4985776125765872  0.2424293505261548
  0.7571530347831199  0.4975561866493853  0.7421403187738417
  0.2568518678874833  0.2515198525386735  0.0062583843549810
  0.2539470510826430  0.2570580342842839  0.5054788770203797
  0.2515444198823022  0.7421680964497025  0.9946739472374161
  0.2526929065593685  0.7554726855741555  0.4922902013199228
  0.7567658212249120  0.2514558311629621  0.0077058327603734
  0.7405640852105916  0.2437510677386000  0.4972651854136001
  0.7407067479408014  0.7489875777989913  0.9942539079116853
  0.7418216443535174  0.7537440011754701  0.4947472641555889
  0.2507902106706614  0.2577951232357510  0.2439570639229735
  0.2440750260393231  0.2513749377215610  0.7439301951501337
  0.2427772304794314  0.7479856389069289  0.2551435278573828
  0.2475431924267128  0.7413417184656044  0.7580255338465181
  0.7418107208822824  0.2509972169306557  0.2427533085315120
  0.7445977428950262  0.2414344861573368  0.7505111877241942
  0.7444408866030687  0.7503799641251456  0.2564145856694332
  0.7570271793563252  0.7505718148085708  0.7570314453862572
  0.0104266437396122  0.5029672591148109  0.6246706490789039
  0.9993646439842198  0.0053555472551655  0.3760289088495404
  0.0035714710710504  0.0018906078307352  0.8725510283281571
  0.4978251424847097  0.4963966285403144  0.3759211153882431
  0.4919820796906821  0.5007313208501719  0.8741999050729270
  0.9932049981945807  0.7451746354848016  0.1255069667808551
  0.9951434219528399  0.7454789173864159  0.6243011166586823
  0.4841975113699276  0.7665529068335004  0.6255071629338068
  0.9924460159901897  0.2476472544359789  0.3763702979696739
  0.2579037784923784  0.0032068692537682  0.1250208089173326
  0.2613476659542781  0.0012279981311480  0.6260003592346958
  0.2371338530720679  0.4949215664032592  0.6260740039832293
  0.7486286590439741  0.4907656430723240  0.1252496756629641
  0.7445130952150780  0.4926790435522834  0.6240254542120336
  0.7483553847537309  1.0007547687915022  0.3748758267450327
  0.7418744312329110  0.9991901214181604  0.8728169798574688
  0.2435861914191881  0.2503241705876638  0.1259101845657133
  0.2513459109951598  0.2501906977337454  0.6254179726087694
  0.7401247180951001  0.2605640723650274  0.1262049499220617
  0.2484199508755378  0.7475164844430324  0.3749424430582289
  0.2458917867618927  0.7516894734184363  0.8758011711453263
  0.7441276352881522  0.7517845018684221  0.3747694509907305
  0.7402068029480433  0.7508831446337462  0.8749204588731486
  0.1245987934081184  0.5066213914111433  0.9928825032993041
  0.6254266142366378  0.5099470588417747  0.9966234154735405
  0.1255419701652773  0.0053612307007116  0.2481994618822457
  0.6256199926940463  0.0048368689938832  0.2436865092231069
  0.6260621235609534  0.2687083921664083  0.4923381602035255
  0.6241588162739579  0.7383431548388762  0.0091964680165508
  0.6235816333368179  0.7692788459712734  0.5068777907122485
  0.1247967096899733  0.2464961674093978  0.7509318058356770
  0.1249103465872746  0.7491602603741551  0.2465991148259176
  0.6257528817827768  0.2416477174488363  0.2634313193047654
  0.6249326198218551  0.2477499202998352  0.7488912191838057
  0.6223953237460185  0.7519389334883856  0.2449520925978800
  0.3760015254551372  0.9968871219297570  0.9889404707341800
  0.3752678369441023  0.5131186171163490  0.5066113880185161
  0.8729026040727933 -0.0007179558504960  0.9957358417665282
  0.8755424663923016  0.5124105899439488  0.5018744648644311
  0.3756884809799695  0.9862168710355412  0.7604449019488450
  0.3737055688975862  0.4933406730955203  0.2476296594191589
  0.8753840881795937  0.4948209307329565  0.2504869819069949
  0.8753222318808448  0.5051713299597652  0.7439808568932550
  0.3756677777540943  0.2504651001669548  0.0057064422222359
  0.8741758019316054  0.2507765527984786  0.0073613792209623
  0.8746652543380841  0.7470988978687527  0.7562524543385601
  0.5202996738740499  0.1274293210210063  0.4986962731352844
  0.9920123708700156  0.1258238108342654  0.7438207718905572
  0.4921156700863104  0.1250834443707344  0.2627476203757282
  0.4949588282254457  0.1225687955192298  0.7422578647980648
  0.4967476462167017  0.6255953914977380  0.7438019720629850
  0.0026329588264778  0.3754811057039519  0.0050075609558401
  0.0040650473678417  0.8746528410071268  0.0018387629712096
  0.9834649288170739  0.8749753037169310  0.4987607696577923
  0.5048740903450116  0.3742992041719904  0.0047202476132706
  0.5069948419672203  0.8745811398347326  0.0016725550084313
  0.0100688703755353  0.3742227331435990  0.2469074782744418
  0.2588224947317058  0.6252202420910054  0.0033739744109254
  0.7320968575624098  0.1253637581952272  0.5040908200728142
  0.2536866913750087  0.6248911299582199  0.7489473664347763
  0.7544767834314305  0.1243361769241346  0.7433476608152214
  0.2601949010736824  0.3737904589072929  0.4940465452296349
  0.2694988556032704  0.8753079385295501  0.5030104142605177
  0.2391029909104453  0.3745174691275098  0.2581741694293243
  0.9977136101441745  0.0028512188449042  0.1260824488598337
  0.0008916349284294  0.9973774364719858  0.6236438096720333
  0.0019549111823890  0.5101200937032387  0.1250626023989174
  0.4890288605957127  0.0063799071206519  0.1259558300889860
  0.4813122648866582  0.9773170057093217  0.6273414986029375
  0.5032383584899619  0.5075776323444993  0.1272421194642327
  0.5099754345721449  0.4966213570433247  0.6252742631484817
  0.0012294218203222  0.4956925097676513  0.3761775545728357
  0.9930868918280867  0.4962985210878292  0.8728167775656593
  0.5111932565175231  0.9840534648491539  0.3722413918001461
  0.5183025314966926  0.0040636127368646  0.8750377088447105
  0.0101289488614093  0.2449964089777154  0.1273292958064410
  0.0013121988845266  0.2582024488426785  0.6216041877180420
  0.5106129426935833  0.2397177852264005  0.1268914152434862
  0.4973386398540358  0.2537758163673810  0.6236511396158352
  0.4894490903179928  0.7449657112087610  0.1263955323842520
  0.9938659108876712  0.2509210631178186  0.8743386701937174
  1.0000685173066861  0.7514521803710874  0.3753880827763331
  0.0077235949178071  0.7517143247122829  0.8736708685998884
  0.4891659818737273  0.2635020554211203  0.3753643862158818
  0.4983561746831914  0.2473270730589066  0.8744450107009623
  0.5010780217113718  0.7539857130341128  0.3763742344154207
  0.5054268804246219  0.7469304395238781  0.8732956856240682
  0.2424018424167748  0.4931393100972700  0.1249863536542935
  0.7534373282505128  0.0021817524168550  0.1250884893822338
  0.7536474905925632  0.9946223021376687  0.6233466295724795
  0.2464402273154600  0.9992171129589688  0.3755256129085773
  0.2398703632168943  0.9941844008151808  0.8743020564358090
  0.2496695355838855  0.5135296085033113  0.3756908659528621
  0.2617405448884289  0.4992993809419395  0.8738056136834166
  0.7479826712999138  0.5082650267818949  0.3747997597642637
  0.7543216579014985  0.5071265188480873  0.8738993924349825
  0.2568491920068125  0.7551400415087396  0.1252745422040585
  0.2636537220389275  0.7551119814657027  0.6263227029735990
  0.7500802548586846  0.2617633091787405  0.6232724609543292
  0.7572365644966262  0.7490614915776402  0.1256858585921920
  0.7556508388922484  0.7494347102637574  0.6239997323423279
  0.2548148015343045  0.2428306123594583  0.3748377367469504
  0.2531844585626861  0.2507470437561428  0.8754758742040141
  0.7647090022262809  0.2422661048125143  0.3737450919874487
  0.7538691991373946  0.2434434980161163  0.8758140785129780
  0.1262629526201249  0.0039211475295162  0.0044891194606664
  0.1255514355954284  0.9868722048409873  0.5028639586718320
  0.1236511760312276  0.4917420624836645  0.4905833393655858
  0.6247571586042512  0.0037647301452476  0.0105588582786672
  0.6289967265071768  0.9729355792327871  0.5078352649228942
  0.6257915802002118  0.4869740140791105  0.4960318163414096
  0.1272902303621946  0.0061057344039087  0.7432461724540631
  0.1239817409704167  0.5104773937225715  0.2512040220171157
  0.1237686582892073  0.4972300123856211  0.7649971269616319
  0.6226071465051390  0.9990375273843622  0.7346874890212881
  0.6249013014774484  0.5022119313691150  0.2513890796960846
  0.6260429001097674  0.4964413791611367  0.7576598931614987
  0.1248598717585468  0.2479593861983750  0.9929119588644703
  0.1233738520990099  0.2586368345153056  0.4961912620525165
  0.1248056316466448  0.7412919701850332  0.0065804936533890
  0.1250530504610713  0.7645831764995649  0.5040198717118174
  0.6259369620710585  0.2469928263790205  0.9924721602004516
  0.1244867659303965  0.2345236424629698  0.2589689663766401
  0.1240110068195701  0.7490827607644678  0.7428404920460038
  0.6257874684188424  0.7496942596054288  0.7374765915435152
  0.3734979939543758  0.0212987283222271  0.4893492163186617
  0.3732070560109730  0.4924181057410542  0.0095724510800016
  0.8749638953887431  0.0191137601634334  0.5039615833717401
  0.8745332919651916  0.4953648951534581  0.0010572423456912
  0.3765321092079617  0.9940217704636485  0.2593639357434958
  0.3747489087971677  0.4941775456994835  0.7379759482768528
  0.8745759352311089  0.9966320908986260  0.2485495489507050
  0.8741819793595190  0.9893653717917015  0.7477814100504406
  0.3780127103240584  0.2338400708559920  0.4996533290754446
  0.3762160229113432  0.7604482637801766  0.9955990295088427
  0.3776964514381549  0.7310563373280832  0.4944271296035067
  0.8747668850081043  0.2375841980649547  0.5075255193846336
  0.8716288434522280  0.7578095981985828  0.9921013893677257
  0.8721854640235945  0.7325902177889650  0.4962962515309531
  0.3777892654023095  0.2603792850847687  0.2437787868301116
  0.3761521663677263  0.2534063139481855  0.7517086059837241
  0.3767261519582709  0.7502127028486045  0.2537669006424764
  0.3752154001358606  0.7658268016477440  0.7551265966814867
  0.8743442864586162  0.2598860854787391  0.2414440037750311
  0.8741042622419124  0.2569314334520832  0.7459096894287343
  0.8729686623302996  0.7496975467814136  0.2551499214333470
  0.0014402899941290  0.1268834713821882  0.0006411977200819
  0.0117762342728652  0.1257050812050363  0.5082933018053429
  0.9906034259942846  0.6254672909801697  0.9928171071928575
  0.0135748199538120  0.6274848975853686  0.4923208181714691
  0.5019608460575748  0.1243332884615461  0.9984507663047366
  0.4860714237105788  0.6272065303647447 -0.0001773365195000
  0.5165931378923527  0.6269505530021557  0.5048248513195819
  0.9888925862730534  0.1278621719319308  0.2466970026374644
  0.9956958203806821  0.6236539235065363  0.2584512408617504
  0.0079034144662935  0.6246153347681623  0.7566523528553053
  0.4985494836760729  0.6261455303922009  0.2551352323051319
  0.9902485542250786  0.3744991762777852  0.4991387032821680
  0.4837260800356382  0.3730150706447136  0.5051167825512438
  0.4730964169808591  0.8753015748119726  0.4965579825596651
  0.9992901816501039  0.3743409507154052  0.7501064737802737
  0.9977886145101726  0.8758946405127261  0.2503615902944570
  0.0044243413166016  0.8754235011785972  0.7470598306527152
  0.5077192774627308  0.3721109238930516  0.2408506843191085
  0.4995958610247301  0.3730650310278710  0.7491199913887141
  0.4975924122451830  0.8752730097072148  0.2413985098914904
  0.5066236937555910  0.8740387779303616  0.7588926423478368
  0.2486966625294720  0.1246631228977564  0.9932640014614900
  0.2359060684706965  0.1241990941947212  0.4988910672100282
  0.2365921721102493  0.6281245962734174  0.5077651553924832
  0.7461430155096911  0.1261313126960786  0.0037439956889062
  0.7639844535859948  0.6255422269132301  0.0039289671971517
  0.7340226733344327  0.6264779358589136  0.5029554299396053
  0.2623354592372969  0.1265229633747067  0.2533732918634145
  0.2584962073900273  0.1243352099854693  0.7577172726767034
  0.2538609414837121  0.6239854041770108  0.2404062303579378
  0.7627922172418093  0.1266948743541246  0.2451832225147350
  0.7492701304745240  0.6252794072794959  0.2458638944149814
  0.7414486094831212  0.6247472761672817  0.7457789901745839
  0.2459077800765568  0.3761289806304978  0.9966385731301723
  0.2421647953949917  0.8736021847824297  0.0035608405990846
  0.7450391531775148  0.3751673142506812  0.9858980000758226
  0.7668572131107833  0.3734430953219026  0.4889740678593612
  0.7415437941781933  0.8745420120438163  0.0064513770067004
  0.7715370472752558  0.8756126387116596  0.5008933416596882
  0.2501581489551613  0.3759803221987284  0.7571997901889219
  0.2518198468561420  0.8753807407937924  0.2506306434451190
  0.2415348706747183  0.8734107366617488  0.7446311688728535
  0.7438734536019777  0.3745163837645979  0.2663933934776540
  0.7512383126983092  0.3736118254627763  0.7594187916060885
  0.7517635363683366  0.8753235682181726  0.2439812665882060
  0.7460281637485203  0.8745745818223608  0.7450288528545280
 
  0.00000000E+00  0.00000000E+00  0.00000000E+00
  0.00000000E+00  0.00000000E+00  0.00000000E+00
  0.00000000E+00  0.00000000E+00  0.00000000E+00
  0.00000000E+00  0.00000000E+00  0.00000000E+00
  0.00000000E+00  0.00000000E+00  0.00000000E+00
  0.00000000E+00  0.00000000E+00  0.00000000E+00
  0.00000000E+00  0.00000000E+00  0.00000000E+00
  0.00000000E+00  0.00000000E+00  0.00000000E+00
  0.00000000E+00  0.00000000E+00  0.00000000E+00
  0.00000000E+00  0.00000000E+00  0.00000000E+00
  0.00000000E+00  0.00000000E+00  0.00000000E+00
  0.00000000E+00  0.00000000E+00  0.00000000E+00
  0.00000000E+00  0.00000000E+00  0.00000000E+00
  0.00000000E+00  0.00000000E+00  0.00000000E+00
  0.00000000E+00  0.00000000E+00  0.00000000E+00
  0.00000000E+00  0.00000000E+00  0.00000000E+00
  0.00000000E+00  0.00000000E+00  0.00000000E+00
  0.00000000E+00  0.00000000E+00  0.00000000E+00
  0.00000000E+00  0.00000000E+00  0.00000000E+00
  0.00000000E+00  0.00000000E+00  0.00000000E+00
  0.00000000E+00  0.00000000E+00  0.00000000E+00
  0.00000000E+00  0.00000000E+00  0.00000000E+00
  0.00000000E+00  0.00000000E+00  0.00000000E+00
  0.00000000E+00  0.00000000E+00  0.00000000E+00
  0.00000000E+00  0.00000000E+00  0.00000000E+00
  0.00000000E+00  0.00000000E+00  0.00000000E+00
  0.00000000E+00  0.00000000E+00  0.00000000E+00
  0.00000000E+00  0.00000000E+00  0.00000000E+00
  0.00000000E+00  0.00000000E+00  0.00000000E+00
  0.00000000E+00  0.00000000E+00  0.00000000E+00
  0.00000000E+00  0.00000000E+00  0.00000000E+00
  0.00000000E+00  0.00000000E+00  0.00000000E+00
  0.00000000E+00  0.00000000E+00  0.00000000E+00
  0.00000000E+00  0.00000000E+00  0.00000000E+00
  0.00000000E+00  0.00000000E+00  0.00000000E+00
  0.00000000E+00  0.00000000E+00  0.00000000E+00
  0.00000000E+00  0.00000000E+00  0.00000000E+00
  0.00000000E+00  0.00000000E+00  0.00000000E+00
  0.00000000E+00  0.00000000E+00  0.00000000E+00
  0.00000000E+00  0.00000000E+00  0.00000000E+00
  0.00000000E+00  0.00000000E+00  0.00000000E+00
  0.00000000E+00  0.00000000E+00  0.00000000E+00
  0.00000000E+00  0.00000000E+00  0.00000000E+00
  0.00000000E+00  0.00000000E+00  0.00000000E+00
  0.00000000E+00  0.00000000E+00  0.00000000E+00
  0.00000000E+00  0.00000000E+00  0.00000000E+00
  0.00000000E+00  0.00000000E+00  0.00000000E+00
  0.00000000E+00  0.00000000E+00  0.00000000E+00
  0.00000000E+00  0.00000000E+00  0.00000000E+00
  0.00000000E+00  0.00000000E+00  0.00000000E+00
  0.00000000E+00  0.00000000E+00  0.00000000E+00
  0.00000000E+00  0.00000000E+00  0.00000000E+00
  0.00000000E+00  0.00000000E+00  0.00000000E+00
  0.00000000E+00  0.00000000E+00  0.00000000E+00
  0.00000000E+00  0.00000000E+00  0.00000000E+00
  0.00000000E+00  0.00000000E+00  0.00000000E+00
  0.00000000E+00  0.00000000E+00  0.00000000E+00
  0.00000000E+00  0.00000000E+00  0.00000000E+00
  0.00000000E+00  0.00000000E+00  0.00000000E+00
  0.00000000E+00  0.00000000E+00  0.00000000E+00
  0.00000000E+00  0.00000000E+00  0.00000000E+00
  0.00000000E+00  0.00000000E+00  0.00000000E+00
  0.00000000E+00  0.00000000E+00  0.00000000E+00
  0.00000000E+00  0.00000000E+00  0.00000000E+00
  0.00000000E+00  0.00000000E+00  0.00000000E+00
  0.00000000E+00  0.00000000E+00  0.00000000E+00
  0.00000000E+00  0.00000000E+00  0.00000000E+00
  0.00000000E+00  0.00000000E+00  0.00000000E+00
  0.00000000E+00  0.00000000E+00  0.00000000E+00
  0.00000000E+00  0.00000000E+00  0.00000000E+00
  0.00000000E+00  0.00000000E+00  0.00000000E+00
  0.00000000E+00  0.00000000E+00  0.00000000E+00
  0.00000000E+00  0.00000000E+00  0.00000000E+00
  0.00000000E+00  0.00000000E+00  0.00000000E+00
  0.00000000E+00  0.00000000E+00  0.00000000E+00
  0.00000000E+00  0.00000000E+00  0.00000000E+00
  0.00000000E+00  0.00000000E+00  0.00000000E+00
  0.00000000E+00  0.00000000E+00  0.00000000E+00
  0.00000000E+00  0.00000000E+00  0.00000000E+00
  0.00000000E+00  0.00000000E+00  0.00000000E+00
  0.00000000E+00  0.00000000E+00  0.00000000E+00
  0.00000000E+00  0.00000000E+00  0.00000000E+00
  0.00000000E+00  0.00000000E+00  0.00000000E+00
  0.00000000E+00  0.00000000E+00  0.00000000E+00
  0.00000000E+00  0.00000000E+00  0.00000000E+00
  0.00000000E+00  0.00000000E+00  0.00000000E+00
  0.00000000E+00  0.00000000E+00  0.00000000E+00
  0.00000000E+00  0.00000000E+00  0.00000000E+00
  0.00000000E+00  0.00000000E+00  0.00000000E+00
  0.00000000E+00  0.00000000E+00  0.00000000E+00
  0.00000000E+00  0.00000000E+00  0.00000000E+00
  0.00000000E+00  0.00000000E+00  0.00000000E+00
  0.00000000E+00  0.00000000E+00  0.00000000E+00
  0.00000000E+00  0.00000000E+00  0.00000000E+00
  0.00000000E+00  0.00000000E+00  0.00000000E+00
  0.00000000E+00  0.00000000E+00  0.00000000E+00
  0.00000000E+00  0.00000000E+00  0.00000000E+00
  0.00000000E+00  0.00000000E+00  0.00000000E+00
  0.00000000E+00  0.00000000E+00  0.00000000E+00
  0.00000000E+00  0.00000000E+00  0.00000000E+00
  0.00000000E+00  0.00000000E+00  0.00000000E+00
  0.00000000E+00  0.00000000E+00  0.00000000E+00
  0.00000000E+00  0.00000000E+00  0.00000000E+00
  0.00000000E+00  0.00000000E+00  0.00000000E+00
  0.00000000E+00  0.00000000E+00  0.00000000E+00
  0.00000000E+00  0.00000000E+00  0.00000000E+00
  0.00000000E+00  0.00000000E+00  0.00000000E+00
  0.00000000E+00  0.00000000E+00  0.00000000E+00
  0.00000000E+00  0.00000000E+00  0.00000000E+00
  0.00000000E+00  0.00000000E+00  0.00000000E+00
  0.00000000E+00  0.00000000E+00  0.00000000E+00
  0.00000000E+00  0.00000000E+00  0.00000000E+00
  0.00000000E+00  0.00000000E+00  0.00000000E+00
  0.00000000E+00  0.00000000E+00  0.00000000E+00
  0.00000000E+00  0.00000000E+00  0.00000000E+00
  0.00000000E+00  0.00000000E+00  0.00000000E+00
  0.00000000E+00  0.00000000E+00  0.00000000E+00
  0.00000000E+00  0.00000000E+00  0.00000000E+00
  0.00000000E+00  0.00000000E+00  0.00000000E+00
  0.00000000E+00  0.00000000E+00  0.00000000E+00
  0.00000000E+00  0.00000000E+00  0.00000000E+00
  0.00000000E+00  0.00000000E+00  0.00000000E+00
  0.00000000E+00  0.00000000E+00  0.00000000E+00
  0.00000000E+00  0.00000000E+00  0.00000000E+00
  0.00000000E+00  0.00000000E+00  0.00000000E+00
  0.00000000E+00  0.00000000E+00  0.00000000E+00
  0.00000000E+00  0.00000000E+00  0.00000000E+00
  0.00000000E+00  0.00000000E+00  0.00000000E+00
  0.00000000E+00  0.00000000E+00  0.00000000E+00
  0.00000000E+00  0.00000000E+00  0.00000000E+00
  0.00000000E+00  0.00000000E+00  0.00000000E+00
  0.00000000E+00  0.00000000E+00  0.00000000E+00
  0.00000000E+00  0.00000000E+00  0.00000000E+00
  0.00000000E+00  0.00000000E+00  0.00000000E+00
  0.00000000E+00  0.00000000E+00  0.00000000E+00
  0.00000000E+00  0.00000000E+00  0.00000000E+00
  0.00000000E+00  0.00000000E+00  0.00000000E+00
  0.00000000E+00  0.00000000E+00  0.00000000E+00
  0.00000000E+00  0.00000000E+00  0.00000000E+00
  0.00000000E+00  0.00000000E+00  0.00000000E+00
  0.00000000E+00  0.00000000E+00  0.00000000E+00
  0.00000000E+00  0.00000000E+00  0.00000000E+00
  0.00000000E+00  0.00000000E+00  0.00000000E+00
  0.00000000E+00  0.00000000E+00  0.00000000E+00
  0.00000000E+00  0.00000000E+00  0.00000000E+00
  0.00000000E+00  0.00000000E+00  0.00000000E+00
  0.00000000E+00  0.00000000E+00  0.00000000E+00
  0.00000000E+00  0.00000000E+00  0.00000000E+00
  0.00000000E+00  0.00000000E+00  0.00000000E+00
  0.00000000E+00  0.00000000E+00  0.00000000E+00
  0.00000000E+00  0.00000000E+00  0.00000000E+00
  0.00000000E+00  0.00000000E+00  0.00000000E+00
  0.00000000E+00  0.00000000E+00  0.00000000E+00
  0.00000000E+00  0.00000000E+00  0.00000000E+00
  0.00000000E+00  0.00000000E+00  0.00000000E+00
  0.00000000E+00  0.00000000E+00  0.00000000E+00
  0.00000000E+00  0.00000000E+00  0.00000000E+00
  0.00000000E+00  0.00000000E+00  0.00000000E+00
  0.00000000E+00  0.00000000E+00  0.00000000E+00
  0.00000000E+00  0.00000000E+00  0.00000000E+00
  0.00000000E+00  0.00000000E+00  0.00000000E+00
  0.00000000E+00  0.00000000E+00  0.00000000E+00
  0.00000000E+00  0.00000000E+00  0.00000000E+00
  0.00000000E+00  0.00000000E+00  0.00000000E+00
  0.00000000E+00  0.00000000E+00  0.00000000E+00
  0.00000000E+00  0.00000000E+00  0.00000000E+00
  0.00000000E+00  0.00000000E+00  0.00000000E+00
  0.00000000E+00  0.00000000E+00  0.00000000E+00
  0.00000000E+00  0.00000000E+00  0.00000000E+00
  0.00000000E+00  0.00000000E+00  0.00000000E+00
  0.00000000E+00  0.00000000E+00  0.00000000E+00
  0.00000000E+00  0.00000000E+00  0.00000000E+00
  0.00000000E+00  0.00000000E+00  0.00000000E+00
  0.00000000E+00  0.00000000E+00  0.00000000E+00
  0.00000000E+00  0.00000000E+00  0.00000000E+00
  0.00000000E+00  0.00000000E+00  0.00000000E+00
  0.00000000E+00  0.00000000E+00  0.00000000E+00
  0.00000000E+00  0.00000000E+00  0.00000000E+00
  0.00000000E+00  0.00000000E+00  0.00000000E+00
  0.00000000E+00  0.00000000E+00  0.00000000E+00
  0.00000000E+00  0.00000000E+00  0.00000000E+00
  0.00000000E+00  0.00000000E+00  0.00000000E+00
  0.00000000E+00  0.00000000E+00  0.00000000E+00
  0.00000000E+00  0.00000000E+00  0.00000000E+00
  0.00000000E+00  0.00000000E+00  0.00000000E+00
  0.00000000E+00  0.00000000E+00  0.00000000E+00
  0.00000000E+00  0.00000000E+00  0.00000000E+00
  0.00000000E+00  0.00000000E+00  0.00000000E+00
  0.00000000E+00  0.00000000E+00  0.00000000E+00
  0.00000000E+00  0.00000000E+00  0.00000000E+00
  0.00000000E+00  0.00000000E+00  0.00000000E+00
  0.00000000E+00  0.00000000E+00  0.00000000E+00
  0.00000000E+00  0.00000000E+00  0.00000000E+00
  0.00000000E+00  0.00000000E+00  0.00000000E+00
  0.00000000E+00  0.00000000E+00  0.00000000E+00
  0.00000000E+00  0.00000000E+00  0.00000000E+00
  0.00000000E+00  0.00000000E+00  0.00000000E+00
  0.00000000E+00  0.00000000E+00  0.00000000E+00
  0.00000000E+00  0.00000000E+00  0.00000000E+00
  0.00000000E+00  0.00000000E+00  0.00000000E+00
  0.00000000E+00  0.00000000E+00  0.00000000E+00
  0.00000000E+00  0.00000000E+00  0.00000000E+00
  0.00000000E+00  0.00000000E+00  0.00000000E+00
  0.00000000E+00  0.00000000E+00  0.00000000E+00
  0.00000000E+00  0.00000000E+00  0.00000000E+00
  0.00000000E+00  0.00000000E+00  0.00000000E+00
  0.00000000E+00  0.00000000E+00  0.00000000E+00
  0.00000000E+00  0.00000000E+00  0.00000000E+00
  0.00000000E+00  0.00000000E+00  0.00000000E+00
  0.00000000E+00  0.00000000E+00  0.00000000E+00
  0.00000000E+00  0.00000000E+00  0.00000000E+00
  0.00000000E+00  0.00000000E+00  0.00000000E+00
  0.00000000E+00  0.00000000E+00  0.00000000E+00
  0.00000000E+00  0.00000000E+00  0.00000000E+00
  0.00000000E+00  0.00000000E+00  0.00000000E+00
  0.00000000E+00  0.00000000E+00  0.00000000E+00
  0.00000000E+00  0.00000000E+00  0.00000000E+00
  0.00000000E+00  0.00000000E+00  0.00000000E+00
  0.00000000E+00  0.00000000E+00  0.00000000E+00
  0.00000000E+00  0.00000000E+00  0.00000000E+00
  0.00000000E+00  0.00000000E+00  0.00000000E+00
  0.00000000E+00  0.00000000E+00  0.00000000E+00
  0.00000000E+00  0.00000000E+00  0.00000000E+00
  0.00000000E+00  0.00000000E+00  0.00000000E+00
  0.00000000E+00  0.00000000E+00  0.00000000E+00
  0.00000000E+00  0.00000000E+00  0.00000000E+00
  0.00000000E+00  0.00000000E+00  0.00000000E+00
  0.00000000E+00  0.00000000E+00  0.00000000E+00
  0.00000000E+00  0.00000000E+00  0.00000000E+00
  0.00000000E+00  0.00000000E+00  0.00000000E+00
  0.00000000E+00  0.00000000E+00  0.00000000E+00
  0.00000000E+00  0.00000000E+00  0.00000000E+00
  0.00000000E+00  0.00000000E+00  0.00000000E+00
  0.00000000E+00  0.00000000E+00  0.00000000E+00
  0.00000000E+00  0.00000000E+00  0.00000000E+00
  0.00000000E+00  0.00000000E+00  0.00000000E+00
  0.00000000E+00  0.00000000E+00  0.00000000E+00
  0.00000000E+00  0.00000000E+00  0.00000000E+00
  0.00000000E+00  0.00000000E+00  0.00000000E+00
  0.00000000E+00  0.00000000E+00  0.00000000E+00
  0.00000000E+00  0.00000000E+00  0.00000000E+00
  0.00000000E+00  0.00000000E+00  0.00000000E+00
  0.00000000E+00  0.00000000E+00  0.00000000E+00
  0.00000000E+00  0.00000000E+00  0.00000000E+00
  0.00000000E+00  0.00000000E+00  0.00000000E+00
  0.00000000E+00  0.00000000E+00  0.00000000E+00
  0.00000000E+00  0.00000000E+00  0.00000000E+00
  0.00000000E+00  0.00000000E+00  0.00000000E+00
  0.00000000E+00  0.00000000E+00  0.00000000E+00
  0.00000000E+00  0.00000000E+00  0.00000000E+00
  0.00000000E+00  0.00000000E+00  0.00000000E+00
  0.00000000E+00  0.00000000E+00  0.00000000E+00
  0.00000000E+00  0.00000000E+00  0.00000000E+00
  0.00000000E+00  0.00000000E+00  0.00000000E+00
  0.00000000E+00  0.00000000E+00  0.00000000E+00
  0.00000000E+00  0.00000000E+00  0.00000000E+00
  0.00000000E+00  0.00000000E+00  0.00000000E+00
