TiOF2 2x2x2 config 2564                 
   1.00000000000000     
     7.7658211652963596   -0.0041737049100885    0.0002425293358179
    -0.0042267005057446    7.6571060045379875    0.0042256464252833
     0.0002425986030292    0.0041729658092415    7.7658236940102805
   Ti   O    F 
     8     8    16
Direct
  0.0004186980894740  0.9873461735775005  0.9863967633203791
  0.9995818428333045  0.0126527237829632  0.5136014821177523
  0.9863963830206691  0.5126531244648586  0.0004186027858338
  0.0136033651538300  0.4873449506897847  0.4995817623021455
  0.4995816977320509  0.0126562339572415  0.0136033787278875
  0.5004185917405819  0.9873463437823766  0.4863988616438916
  0.5136016770556758  0.4873481036323830  0.9995819724509661
  0.4863982107720627  0.5126534074418924  0.5004186891925508
  0.2499972577159451  0.4999999348273182  0.5000000904043075
  0.7500033379546276  0.5000002984522888  0.0000000756700557
  0.9979988172552956  0.2500037442743998  0.4979985416726292
  0.0020015474987461  0.7500008853362361  0.0020016575703284
  0.4979978656486319  0.2499937002187115  0.9979982405102228
  0.5020013497088197  0.7500001343681445  0.5020015256276982
  0.0000001172711800 -0.0000002970019615  0.7500031126410018
  0.5000001973705487  1.0000000739868748  0.2499959110187948
  0.2500003106188311  1.0000000535801439  1.0000000028212457
  0.2500001116633448 -0.0000000902212929  0.4999999735566157
  0.2499993535466695  0.5000000802549240  0.0000001779386647
  0.7500001825352280  0.9999999940295439  0.9999999549404062
  0.7500000303418329  0.0000000482751546  0.5000000728097135
  0.7500006286901503  0.4999998989573456  0.5000001745347969
  0.0045825215135902  0.2499998197828886  0.0045823922932924
  0.9954179007717070  0.7499994957767097  0.4954177627310825
  0.5045816530306980  0.2499998990607375  0.5045818390458492
  0.4954161362207728  0.7500009768590848  0.9954161245414290
  0.0000000988353772 -0.0000000082185646  0.2499993436559929
  0.9999998985522123  0.4999998856234878  0.2500002940177290
  1.0000000062252199  0.5000000466253633  0.7500000838500892
  0.5000001164584585  0.0000001985764755  0.7500009784130269
  0.5000000939796342  0.5000001917733570  0.2500002207537469
  0.5000000001948365  0.4999999734736222  0.7499999364399011
 
  0.00000000E+00  0.00000000E+00  0.00000000E+00
  0.00000000E+00  0.00000000E+00  0.00000000E+00
  0.00000000E+00  0.00000000E+00  0.00000000E+00
  0.00000000E+00  0.00000000E+00  0.00000000E+00
  0.00000000E+00  0.00000000E+00  0.00000000E+00
  0.00000000E+00  0.00000000E+00  0.00000000E+00
  0.00000000E+00  0.00000000E+00  0.00000000E+00
  0.00000000E+00  0.00000000E+00  0.00000000E+00
  0.00000000E+00  0.00000000E+00  0.00000000E+00
  0.00000000E+00  0.00000000E+00  0.00000000E+00
  0.00000000E+00  0.00000000E+00  0.00000000E+00
  0.00000000E+00  0.00000000E+00  0.00000000E+00
  0.00000000E+00  0.00000000E+00  0.00000000E+00
  0.00000000E+00  0.00000000E+00  0.00000000E+00
  0.00000000E+00  0.00000000E+00  0.00000000E+00
  0.00000000E+00  0.00000000E+00  0.00000000E+00
  0.00000000E+00  0.00000000E+00  0.00000000E+00
  0.00000000E+00  0.00000000E+00  0.00000000E+00
  0.00000000E+00  0.00000000E+00  0.00000000E+00
  0.00000000E+00  0.00000000E+00  0.00000000E+00
  0.00000000E+00  0.00000000E+00  0.00000000E+00
  0.00000000E+00  0.00000000E+00  0.00000000E+00
  0.00000000E+00  0.00000000E+00  0.00000000E+00
  0.00000000E+00  0.00000000E+00  0.00000000E+00
  0.00000000E+00  0.00000000E+00  0.00000000E+00
  0.00000000E+00  0.00000000E+00  0.00000000E+00
  0.00000000E+00  0.00000000E+00  0.00000000E+00
  0.00000000E+00  0.00000000E+00  0.00000000E+00
  0.00000000E+00  0.00000000E+00  0.00000000E+00
  0.00000000E+00  0.00000000E+00  0.00000000E+00
  0.00000000E+00  0.00000000E+00  0.00000000E+00
  0.00000000E+00  0.00000000E+00  0.00000000E+00
