Ti27 O27 F54                            
   1.00000000000000     
    11.5851282411257657   -0.0063793604921786   -0.0154327620701587
    -0.0063550530515132   11.5934255932627259   -0.0003570381482284
    -0.0154211115514963   -0.0003780959175129   11.5824116758250408
   Ti   O    F 
    27    27    54
Direct
  0.9933127362353693  0.9991627313646581  0.0127623841711675
  0.0096038765999379  0.0095629564279973  0.3279850416658053
  0.0095334011316132  0.0114343372414332  0.6665525731576901
  0.0079611590243451  0.3434968697934826  0.9896927252317639
  0.9908869386454456  0.3209708485119623  0.3339866045893434
  0.0077919392912727  0.3247987756094061  0.6764014444211105
  0.9922830082829165  0.6561356468280934  0.9903709657552736
  0.0011168541555015  0.6668193280220086  0.3331721969706248
  0.9907019326873671  0.6665998700939352  0.6797744459247352
  0.3351398510799518  0.0001445747220874  0.9874693384508141
  0.3220497055047550  0.0106158146329097  0.3327220500744977
  0.3229457043594399  0.9912036638058433  0.6713786021268323
  0.3225471802586428  0.3429653334366274  0.0000217968021057
  0.3330180539650448  0.3243428501610269  0.3433143992611756
  0.3218809657974385  0.3333475544759790  0.6578470440756270
  0.3333009769845868  0.6567911871852025  0.9903553098680409
  0.3475044974098660  0.6665522583030428  0.3331121215449174
  0.3324885378319893  0.6776797063176901  0.6763517935575172
  0.6787916590256983  0.9999408272868007  0.9987414746598402
  0.6663012038192820  0.9878510098564238  0.3398137766085610
  0.6663998345125031  0.0006736589273743  0.6546408459355415
  0.6662546154994853  0.3435834726429994  0.0091292102277132
  0.6764267299517360  0.3322011272941876  0.3228944986132422
  0.6659903149749086  0.3465067751487627  0.6667051358286888
  0.6779839250472041  0.6573858005558366  0.9997336071596709
  0.6601891541183222  0.6744284115760165  0.3440694721691664
  0.6761912589736734  0.6607691411719343  0.6589744296339274
  0.0049308137888390  0.1668899596268904  0.3416882928005165
  0.9917080837732772  0.1653135796522564  0.6611314224705994
  0.9975858986212663  0.5008705871076223  0.0093536971414899
  0.3306899167511713  0.1672853053769376  0.3304308821236351
  0.3361063704943362  0.5010942179311779  0.0005617359685916
  0.3339572647835785  0.8328867160925124  0.6593768570035441
  0.6668351435299371  0.4992461609647134  0.9935308534231507
  0.6640080691208706  0.4982656930158068  0.6714039281350536
  0.6712558734807343  0.8339074281715901  0.3264748480470377
  0.1671563648811555  0.9910217266233973  0.3414062152877783
  0.1666543499354471  0.0041392047912913  0.6591438897561783
  0.1686617904463136  0.3295224011187939  0.9988765460297252
  0.1682355963528800  0.3320074847091954  0.6703161852342204
  0.4986419850972101  0.6635912916649035  0.3315291608118208
  0.8314048939705386  0.9952854664754746  0.9968914758769529
  0.8329432611039973  0.3335967147776410  0.3371554978186505
  0.8320173446414747  0.6751651654803972  0.9970654322511726
  0.8331069612523391  0.6704219867425787  0.6728285741216732
  0.0001569852231922  0.9979907457825983  0.1674954721253552
  0.9921600221080840  0.3368342316969283  0.8322324347441927
  0.0114975965531591  0.6639577209354440  0.8326984282923980
  0.3346201900732281  0.9994345837594536  0.8354166129058175
  0.3336642298721186  0.3373830444485728  0.4988381690909524
  0.3287572090471698  0.6713721801577102  0.8338649388962680
  0.6678301448890843  0.9978505686853620  0.5013078761190159
  0.6643699152982262  0.3319036918677242  0.1663587026629011
  0.6697982720939984  0.6698961264801064  0.4999887538796255
  0.9985960988540473  0.1648543051907896  0.9989714962772700
  0.0054267905139567  0.5040224969378300  0.3263533692425845
  0.9973015959076051  0.5003885829597725  0.6580783302478451
  0.0086644048530404  0.8338433145106897  0.9994473638019677
  0.9897877328417714  0.8296770172975988  0.3377198379361490
  0.0040910904755632  0.8330117545192646  0.6634176312872621
  0.3386887476860588  0.1654634718973442  0.0066444123838436
  0.3403709450922257  0.1658919844993181  0.6650195780824052
  0.3261403636120942  0.5018733836324289  0.3248242333257187
  0.3390937801462686  0.5004972752795722  0.6710015889216198
  0.3332550869951619  0.8348302474616298  0.0062035169040582
  0.3365038822531310  0.8323169260375856  0.3395672097623185
  0.6643132073801160  0.1649764511707098  0.9949491208030010
  0.6603981196243479  0.1650455782997967  0.3358397929951926
  0.6731663984107802  0.1660362792040653  0.6682700151314998
  0.6681674802660453  0.5002366407068117  0.3354707762378334
  0.6577277128491390  0.8352799571510742  0.0060803777176381
  0.6578900723382700  0.8351963623446192  0.6729755331760462
  0.1678917926922921  0.0042796617417858  0.0006428189154379
  0.1656117533898012  0.3417677121302071  0.3266650508996736
  0.1670724883927988  0.6716546448168135  0.0107914670617945
  0.1646725119526649  0.6734668864227197  0.3355320069726586
  0.1657828113861870  0.6614321672174797  0.6541278206872593
  0.5014121673378036  0.0002361427490187  0.0050928280479445
  0.4993999202885046  0.9968109805731958  0.3273687106284761
  0.5017154776119097  0.0058165302611696  0.6684558818106234
  0.5004395361474673  0.3267332139291187  0.9943792629371835
  0.5005653358638593  0.3402069487610879  0.3339884166727805
  0.5013746611705959  0.3271106281062918  0.6709196644209029
  0.4997261443939447  0.6730999844524040  0.0075794894553856
  0.4992559400819604  0.6659075494179009  0.6634618106882229
  0.8321354696887269  0.0049884227319660  0.3299098941585183
  0.8309348696202977  0.9900760566056530  0.6765988930911655
  0.8324905280932708  0.3237885103970045  0.0035445722851827
  0.8313213016293475  0.3358973326162945  0.6544386071460833
  0.8370983031491881  0.6582350506048888  0.3286756736170927
  0.9850720616706327  0.9895731203495584  0.4997619070602799
  0.0041389936040075  0.9972787557592875  0.8348213271381494
  0.9979959518733957  0.3277746092172455  0.1671744171354886
  0.0060831422597047  0.3447947428297265  0.4983660540043737
  0.0024316464382713  0.6764529923905229  0.1705800165862037
  0.9979875392561729  0.6647822006630127  0.4957989828432619
  0.3318929460132481  0.9948163620338785  0.1657363423586299
  0.3474236879119326  0.0036806811827197  0.4993087183629318
  0.3403952975807893  0.3347129346879101  0.1674500663656182
  0.3410412045875529  0.3282016772730052  0.8327363895726241
  0.3279319149613715  0.6733339585608714  0.1683759157378995
  0.3310785873110906  0.6569434494121400  0.4981909839189787
  0.6663947034172950  0.0091704837915099  0.1658369755367227
  0.6595335301298947  0.9988981544062920  0.8331919088812396
  0.6580665786833263  0.3302734670406545  0.5001604333354549
  0.6730627137435332  0.3243898019682716  0.8323567992857512
  0.6692139866112025  0.6612272462648900  0.1679674895859104
  0.6544204286043824  0.6756463940017730  0.8338380470561311
 
  0.00000000E+00  0.00000000E+00  0.00000000E+00
  0.00000000E+00  0.00000000E+00  0.00000000E+00
  0.00000000E+00  0.00000000E+00  0.00000000E+00
  0.00000000E+00  0.00000000E+00  0.00000000E+00
  0.00000000E+00  0.00000000E+00  0.00000000E+00
  0.00000000E+00  0.00000000E+00  0.00000000E+00
  0.00000000E+00  0.00000000E+00  0.00000000E+00
  0.00000000E+00  0.00000000E+00  0.00000000E+00
  0.00000000E+00  0.00000000E+00  0.00000000E+00
  0.00000000E+00  0.00000000E+00  0.00000000E+00
  0.00000000E+00  0.00000000E+00  0.00000000E+00
  0.00000000E+00  0.00000000E+00  0.00000000E+00
  0.00000000E+00  0.00000000E+00  0.00000000E+00
  0.00000000E+00  0.00000000E+00  0.00000000E+00
  0.00000000E+00  0.00000000E+00  0.00000000E+00
  0.00000000E+00  0.00000000E+00  0.00000000E+00
  0.00000000E+00  0.00000000E+00  0.00000000E+00
  0.00000000E+00  0.00000000E+00  0.00000000E+00
  0.00000000E+00  0.00000000E+00  0.00000000E+00
  0.00000000E+00  0.00000000E+00  0.00000000E+00
  0.00000000E+00  0.00000000E+00  0.00000000E+00
  0.00000000E+00  0.00000000E+00  0.00000000E+00
  0.00000000E+00  0.00000000E+00  0.00000000E+00
  0.00000000E+00  0.00000000E+00  0.00000000E+00
  0.00000000E+00  0.00000000E+00  0.00000000E+00
  0.00000000E+00  0.00000000E+00  0.00000000E+00
  0.00000000E+00  0.00000000E+00  0.00000000E+00
  0.00000000E+00  0.00000000E+00  0.00000000E+00
  0.00000000E+00  0.00000000E+00  0.00000000E+00
  0.00000000E+00  0.00000000E+00  0.00000000E+00
  0.00000000E+00  0.00000000E+00  0.00000000E+00
  0.00000000E+00  0.00000000E+00  0.00000000E+00
  0.00000000E+00  0.00000000E+00  0.00000000E+00
  0.00000000E+00  0.00000000E+00  0.00000000E+00
  0.00000000E+00  0.00000000E+00  0.00000000E+00
  0.00000000E+00  0.00000000E+00  0.00000000E+00
  0.00000000E+00  0.00000000E+00  0.00000000E+00
  0.00000000E+00  0.00000000E+00  0.00000000E+00
  0.00000000E+00  0.00000000E+00  0.00000000E+00
  0.00000000E+00  0.00000000E+00  0.00000000E+00
  0.00000000E+00  0.00000000E+00  0.00000000E+00
  0.00000000E+00  0.00000000E+00  0.00000000E+00
  0.00000000E+00  0.00000000E+00  0.00000000E+00
  0.00000000E+00  0.00000000E+00  0.00000000E+00
  0.00000000E+00  0.00000000E+00  0.00000000E+00
  0.00000000E+00  0.00000000E+00  0.00000000E+00
  0.00000000E+00  0.00000000E+00  0.00000000E+00
  0.00000000E+00  0.00000000E+00  0.00000000E+00
  0.00000000E+00  0.00000000E+00  0.00000000E+00
  0.00000000E+00  0.00000000E+00  0.00000000E+00
  0.00000000E+00  0.00000000E+00  0.00000000E+00
  0.00000000E+00  0.00000000E+00  0.00000000E+00
  0.00000000E+00  0.00000000E+00  0.00000000E+00
  0.00000000E+00  0.00000000E+00  0.00000000E+00
  0.00000000E+00  0.00000000E+00  0.00000000E+00
  0.00000000E+00  0.00000000E+00  0.00000000E+00
  0.00000000E+00  0.00000000E+00  0.00000000E+00
  0.00000000E+00  0.00000000E+00  0.00000000E+00
  0.00000000E+00  0.00000000E+00  0.00000000E+00
  0.00000000E+00  0.00000000E+00  0.00000000E+00
  0.00000000E+00  0.00000000E+00  0.00000000E+00
  0.00000000E+00  0.00000000E+00  0.00000000E+00
  0.00000000E+00  0.00000000E+00  0.00000000E+00
  0.00000000E+00  0.00000000E+00  0.00000000E+00
  0.00000000E+00  0.00000000E+00  0.00000000E+00
  0.00000000E+00  0.00000000E+00  0.00000000E+00
  0.00000000E+00  0.00000000E+00  0.00000000E+00
  0.00000000E+00  0.00000000E+00  0.00000000E+00
  0.00000000E+00  0.00000000E+00  0.00000000E+00
  0.00000000E+00  0.00000000E+00  0.00000000E+00
  0.00000000E+00  0.00000000E+00  0.00000000E+00
  0.00000000E+00  0.00000000E+00  0.00000000E+00
  0.00000000E+00  0.00000000E+00  0.00000000E+00
  0.00000000E+00  0.00000000E+00  0.00000000E+00
  0.00000000E+00  0.00000000E+00  0.00000000E+00
  0.00000000E+00  0.00000000E+00  0.00000000E+00
  0.00000000E+00  0.00000000E+00  0.00000000E+00
  0.00000000E+00  0.00000000E+00  0.00000000E+00
  0.00000000E+00  0.00000000E+00  0.00000000E+00
  0.00000000E+00  0.00000000E+00  0.00000000E+00
  0.00000000E+00  0.00000000E+00  0.00000000E+00
  0.00000000E+00  0.00000000E+00  0.00000000E+00
  0.00000000E+00  0.00000000E+00  0.00000000E+00
  0.00000000E+00  0.00000000E+00  0.00000000E+00
  0.00000000E+00  0.00000000E+00  0.00000000E+00
  0.00000000E+00  0.00000000E+00  0.00000000E+00
  0.00000000E+00  0.00000000E+00  0.00000000E+00
  0.00000000E+00  0.00000000E+00  0.00000000E+00
  0.00000000E+00  0.00000000E+00  0.00000000E+00
  0.00000000E+00  0.00000000E+00  0.00000000E+00
  0.00000000E+00  0.00000000E+00  0.00000000E+00
  0.00000000E+00  0.00000000E+00  0.00000000E+00
  0.00000000E+00  0.00000000E+00  0.00000000E+00
  0.00000000E+00  0.00000000E+00  0.00000000E+00
  0.00000000E+00  0.00000000E+00  0.00000000E+00
  0.00000000E+00  0.00000000E+00  0.00000000E+00
  0.00000000E+00  0.00000000E+00  0.00000000E+00
  0.00000000E+00  0.00000000E+00  0.00000000E+00
  0.00000000E+00  0.00000000E+00  0.00000000E+00
  0.00000000E+00  0.00000000E+00  0.00000000E+00
  0.00000000E+00  0.00000000E+00  0.00000000E+00
  0.00000000E+00  0.00000000E+00  0.00000000E+00
  0.00000000E+00  0.00000000E+00  0.00000000E+00
  0.00000000E+00  0.00000000E+00  0.00000000E+00
  0.00000000E+00  0.00000000E+00  0.00000000E+00
  0.00000000E+00  0.00000000E+00  0.00000000E+00
  0.00000000E+00  0.00000000E+00  0.00000000E+00
  0.00000000E+00  0.00000000E+00  0.00000000E+00
