config 09                               
   1.00000000000000     
    15.4263309999999993    0.0000000000000000    0.0000000000000000
     0.0000000000000000   15.4263309999999993    0.0000000000000000
     0.0000000000000000    0.0000000000000000   15.4263309999999993
   Li   Ti   O    F 
     1    64    64   128
Direct
  0.1278744104373573  0.6904507051066631  0.1265394944224454
  0.9955067246539571  0.9932593684440576  0.9953796699066046
  0.9989642365200524  0.9910430433617776  0.4942566969264988
  0.0052452078196268  0.4944566661174008  0.9980397534901968
  0.9944622833114209  0.5046033763603717  0.5068882974306703
  0.4944691167063482  0.9931360269217961  0.0000640152935105
  0.5019002498659688  0.0091724785627534  0.4987169088724670
  0.5042975479950016  0.4951402503837556  0.9965502713751846
  0.4927326275963608  0.4993789886547972  0.4951248541017321
  0.0068102299784059  0.0032795229719156  0.2557983303959759
  0.0023868431980105  0.0067469254533634  0.7580250805471920
  0.9926245845606516  0.4924062883555038  0.2516000276002757
  0.9931782854325633  0.5001585316847468  0.7415164213885177
  0.5049679241164640  0.0090881336168209  0.2505967195173540
  0.4933734558984284  0.0056279018364762  0.7527044795954936
  0.4927109292819836  0.4950026088246773  0.2576212707093504
  0.5020087255460908  0.5037519694538020  0.7588423610783508
  0.9953931292385789  0.2573272047296911  0.0023143324715349
  0.9987891183324606  0.2495205299281125  0.4909674834667825
  0.9961076751653835  0.7567071967095060  0.0071757134089552
  0.9971215251609422  0.7565229006312393  0.5084603740280187
  0.4950654354918669  0.2583411046293520  0.0019406494151326
  0.5095067040745178  0.2460952532392824  0.4980077467470991
  0.5079787343271249  0.7557681254231028  0.9989098114154586
  0.5077038219040517  0.7533914571891742  0.5083981153308912
  0.9994574393634110  0.2592559159677208  0.2543925542411927
  0.0072455869165111  0.2426497349221748  0.7487182592682018
  0.0007052622478412  0.7475613441285205  0.2475479455368301
  0.9933234688711963  0.7496565179444232  0.7437145884735017
  0.5072804444789512  0.2405069051012561  0.2519969207109867
  0.5076344671869251  0.2434689353718937  0.7512073405554531
  0.5050554672870859  0.7503608955634675  0.2521287479888628
  0.5028760997721093  0.7415913672982981  0.7435590201097639
  0.2564394660341378  0.9968942251461712  0.0058974254646600
  0.2515938417057200  0.9929781783433427  0.5059551107582294
  0.2435939888158387  0.5078244453212335  0.9977911644357391
  0.2557437919202741  0.4939241289795220  0.5055026874055315
  0.7566469542448999  0.9995671881778847  0.9940814927820298
  0.7496860406375987  0.0080607073001531  0.4947340969557388
  0.7411769821333536  0.5005278239345827  0.0053594986250758
  0.7563159473081811  0.4984240100118456  0.5054157045475591
  0.2441516379885726  0.0021500932058132  0.2435555545366483
  0.2585518558524029  0.9976254301901903  0.7442118611491253
  0.2551200978243315  0.4904676057158923  0.2521863544863194
  0.2475452692154647  0.5048024957230268  0.7396348766750833
  0.7435151125275681  0.0015349802185369  0.2557443198948093
  0.7479890335832451  0.0072353785876942  0.7560407023367262
  0.7551273665538147  0.4971935609047478  0.2427967969743108
  0.7581565600472544  0.4982782472625189  0.7428346239053027
  0.2568666194550957  0.2519580406871569  0.0061146082611359
  0.2540985268921148  0.2570700566062669  0.5049043224384562
  0.2552676649137524  0.7418072241189719  0.9896172025402308
  0.2528008214946809  0.7548863578852902  0.4930927628659347
  0.7567438975401117  0.2517005916785706  0.0079544820647612
  0.7425050636916311  0.2431204852012243  0.4978051802914010
  0.7410183914579775  0.7480232173956551  0.9936586497332129
  0.7417422467687160  0.7528802795429996  0.4935614953230214
  0.2501994697027996  0.2576057438066002  0.2437732438483451
  0.2442973348515736  0.2522697044949709  0.7437234235676087
  0.2439687527493319  0.7459765901562960  0.2580299535520965
  0.2483630655600493  0.7404218799364983  0.7530655671007551
  0.7410542480410953  0.2503012091309103  0.2425857099688429
  0.7446481322344027  0.2425037510596297  0.7511875284204166
  0.7432394611314237  0.7488606538225326  0.2569695776498335
  0.7582053846886723  0.7501625101142650  0.7565486044262713
  0.0072705698532118  0.5118066223659596  0.6244903223540064
  0.9985381990876689  0.9970639161393748  0.3764351735313269
  0.0032229563353567  0.9932244351514754  0.8734238556849974
  0.5007080622620990  0.4887381597304028  0.3756091045750054
  0.4954832925916648  0.4926018003163790  0.8748903443479108
  0.0084644941955929  0.7318586395088076  0.1221714573293298
  0.0050926799443829  0.7379440328344913  0.6253215874273863
  0.5070485466280061  0.7469469841306164  0.6243302258888690
  0.9915409051897797  0.2574573987181736  0.3765150426956652
  0.2563895314917062  0.9964162886592973  0.1249725260462782
  0.2589363330539527  0.9991636833008357  0.6250904817117302
  0.2417199777076675  0.4887176714010337  0.6250850282110036
  0.7492737680218866  0.4883860684603150  0.1254887524379882
  0.7482843926706266  0.4912805787538090  0.6243586780863311
  0.7471827208553705  0.0038796714425473  0.3762749609775327
  0.7432262296046943  0.0031604268783951  0.8736609933367845
  0.2422298047826104  0.2543131188531120  0.1254850567170038
  0.2496007060630703  0.2546762165423146  0.6247270806917413
  0.7385794917308104  0.2611464387627223  0.1265252104628516
  0.2569528482446515  0.7410708005522153  0.3767473289284169
  0.2557053047421007  0.7450843769022981  0.8728946467776026
  0.7547678484487790  0.7471521416669233  0.3744710885614353
  0.7535344841855647  0.7473649955556638  0.8755781134742477
  0.1240557516499123  0.5109499573734126  0.9980536982594828
  0.6251970298334371  0.5124122501391497  0.9991193441962949
  0.1255814839647940  0.0127544807836699  0.2494508394869470
  0.6239672835088470  0.0113032954435326  0.2476719203569147
  0.6248736665347892  0.2634288031094130  0.4902044504593945
  0.6239581802279588  0.7344891832759046  0.9964853732480918
  0.6246243218920000  0.7678182412964603  0.4924073116540342
  0.1253168845900205  0.2546885699689838  0.7529513476522922
  0.1300151513543426  0.7341824652208047  0.2478140260557495
  0.6248665735498093  0.2358784754132444  0.2636797168851786
  0.6262001950191802  0.2554089908259911  0.7526197774164629
  0.6207345790233276  0.7429051163966989  0.2554838241399153
  0.3760490810489756  0.9920365156309217  0.9908954446805538
  0.3761198892536868  0.5103136041711949  0.5030157226586596
  0.8725430587353742  0.9935443126092096  0.9978009370549756
  0.8756652342067071  0.5094544522578772  0.4984477934420752
  0.3767057086871617  0.9997009083231418  0.7600499415794744
  0.3740080556804344  0.4861137161975932  0.2501248278147585
  0.8742866326289729  0.4859128808981694  0.2520562199087095
  0.8758664809079235  0.5103849543347820  0.7482588600797087
  0.3755559048577481  0.2545247148378706  0.0073810245470582
  0.8739691491535808  0.2555166619347773  0.0086610782572549
  0.8753572471847164  0.7413755629033076  0.7462325581895399
  0.5161791321444440  0.1230359417642788  0.4889420049479867
  0.0002535546539235  0.1260741504226672  0.7549176552360777
  0.4864569383965502  0.1247976465927181  0.2668146656543584
  0.5045203154768032  0.1241831819890464  0.7551329943914666
  0.5046465149349331  0.6251766656966993  0.7548914720561015
  0.0065912307569533  0.3750441089082628  0.0115127461473890
  0.0077093299502735  0.8739302881260258  0.0093030105260183
  0.9868393865273006  0.8747037014931465  0.5085131218834036
  0.5083498267936690  0.3740073266462716  0.0117455985066073
  0.5106924669906121  0.8745406706328538  0.0091774773171451
  0.0139988564801996  0.3733318626473263  0.2392380521370683
  0.2603093787484951  0.6248893020409128  0.0086066627343797
  0.7349141647630333  0.1257226161882130  0.5072745228293911
  0.2451155638086249  0.6241775677610875  0.7417539378631730
  0.7489121050358563  0.1251453159687230  0.7408981762228137
  0.2597324402588654  0.3731946881958379  0.4890444512785237
  0.2610383869841257  0.8756515361048827  0.4958196750814992
  0.2356076123577324  0.3736531006656350  0.2609245607800972
  0.9963386601159314  0.0115875316988294  0.1264117118278278
  0.0004588075697427  0.0071275569473528  0.6238887052385778
  0.9983657935091230  0.5156459952173975  0.1252335134760187
  0.4906835892658279  0.0123481815036257  0.1263282605669644
  0.4937260823163498  0.0048262802080430  0.6227531243036495
  0.4998660122852172  0.5107357191279078  0.1276685051439728
  0.5078855998121767  0.5049702009284687  0.6243841320471759
  0.0039091575368815  0.4845222582273223  0.3766044546081773
  0.9977024506566465  0.4876340882379395  0.8728521519665762
  0.5067259809256797  0.9835657101568884  0.3766343601078930
  0.5174996728335515  0.9921826386239303  0.8751667662698281
  0.0086974915702953  0.2369587627649139  0.1272647375875380
  0.0039337876391343  0.2465929647623355  0.6215890944766329
  0.5107284865673734  0.2332619756630763  0.1268929717721718
  0.5038107360388935  0.2408699440155999  0.6227218359637234
  0.5002366153754068  0.7394371508326856  0.1264825376614951
  0.9923026256245819  0.2612177118821037  0.8745171236124207
  0.9925849957757436  0.7581388740654589  0.3774043623350707
  0.9992100554679695  0.7573051921740372  0.8742205549390150
  0.4882716812670083  0.2664571726582494  0.3755350658571714
  0.4956884903004379  0.2594196066517469  0.8748638858780282
  0.4879888805751378  0.7605022888230337  0.3755831168829644
  0.4931668282194721  0.7581986626397850  0.8737997388825818
  0.2454335222099360  0.4884107167364746  0.1245064347977305
  0.7508696643064141  0.9975602804241532  0.1266073805503751
  0.7508842702632990  0.9924223673116686  0.6229873413006786
  0.2500403032351741  0.0053130185306500  0.3754130523094688
  0.2413629090680800  0.9990158564038794  0.8744133500504390
  0.2467384265451287  0.5153290162416155  0.3748264091538829
  0.2570051125917772  0.5054257525437293  0.8732901401115996
  0.7463420812537223  0.5084811176671096  0.3748195730674766
  0.7520083436218599  0.5088846734235304  0.8744528762123309
  0.2414404899464628  0.7524936907377509  0.1223922180473380
  0.2460949931020835  0.7567883823770245  0.6248312726869969
  0.7475137004462979  0.2636248304302242  0.6231140534660540
  0.7436079521806462  0.7519569044079617  0.1254715951355436
  0.7443342563384121  0.7530512310513302  0.6245117928467536
  0.2571428758918799  0.2391387555189368  0.3740813178969589
  0.2558215628178786  0.2458983865057291  0.8751418928405243
  0.7641988927643197  0.2405988580645939  0.3742005285149830
  0.7565011816432730  0.2412393219762805  0.8764717567530838
  0.1260100318009023  0.0069932274390681  0.0043559053045144
  0.1252268748440031  0.9921825452423079  0.5025548484699627
  0.1238534647500131  0.4930721186231892  0.4933353505507156
  0.6245772296342835  0.0088596870524427  0.0099238801128791
  0.6238954890523232  0.9796676321490807  0.5061147214849200
  0.6260648613170545  0.4874823014164136  0.4984163711709328
  0.1274870437889604  0.9969645459116094  0.7437084376483725
  0.1243205217127894  0.5140923971610860  0.2463615541741646
  0.1238411019973356  0.4908284559878098  0.7602047929638616
  0.6239071913017185  0.9928727782621181  0.7377936933162488
  0.6242990465996101  0.5080409049012928  0.2496828588581721
  0.6273542058902635  0.4905820041399167  0.7546802778649635
  0.1245736477669155  0.2436874211924831  0.9920053709999408
  0.1241206754588688  0.2566583703316283  0.4938920020973256
  0.1259543494329307  0.7337081754558525  0.9999297095672830
  0.1242785022388020  0.7595554954466834  0.4950915900700181
  0.6258236146599714  0.2422186423094033  0.9915222045385832
  0.1240954194443731  0.2317107456587806  0.2594278760493296
  0.1240446817086749  0.7562672552379297  0.7539840830899891
  0.6267041764582899  0.7569780375621846  0.7558689118624500
  0.3782013295458384  0.0153717061294643  0.4910649485369305
  0.3728056142766007  0.4897682467399349  0.0057545252321560
  0.8745515642523074  0.0172913626757492  0.5038548953190940
  0.8742855427804344  0.4913541838626827  0.9989661894396775
  0.3769604405127680  0.9881909369503461  0.2582205863381830
  0.3752929419128179  0.5013430784633215  0.7419863759824068
  0.8725999715291977  0.9911796081638684  0.2500742040991426
  0.8746125183376563  0.9970205751869372  0.7466892757221331
  0.3796819456566993  0.2349376790502191  0.5022842972400028
  0.3767727848932196  0.7634603544339313  0.0058896620734572
  0.3777555502702654  0.7376180474713721  0.5066604989277792
  0.8744230534192354  0.2401579166379975  0.5083357239949891
  0.8706939966514398  0.7615823473874244  0.0061923840298661
  0.8723369362071622  0.7357907092921891  0.5065744086194925
  0.3778427265999582  0.2635903671022319  0.2424636031427525
  0.3769963523347926  0.2474887272089745  0.7472630896498913
  0.3766337896834386  0.7579001466234985  0.2418266255625880
  0.3754652843339485  0.7509757115638536  0.7435194136971717
  0.8731714062716378  0.2638547196056322  0.2419822445092947
  0.8748678927277354  0.2515094661174544  0.7435270536473837
  0.8680006454113141  0.7593531035726215  0.2418061957812441
  0.9961286836932715  0.1268698966304882  0.9927434788867586
  0.0090210064717482  0.1259377530081807  0.4978240306052584
  0.9870714922565398  0.6239157237949158  0.9856608926833559
  0.0098712281991453  0.6270065517600329  0.4844378955961801
  0.4970687818054031  0.1240747695808082  0.9911282231575171
  0.4838883217072123  0.6271429328891998  0.9949694562484055
  0.5138712920989263  0.6269534177773295  0.4905627455144952
  0.9837378864056419  0.1282689789392393  0.2558565612175130
  0.9875472423366958  0.6178297317180466  0.2669949076757376
  0.0127904102631149  0.6243930184618591  0.7642337322711583
  0.4892293353938371  0.6253510447816808  0.2608990379744824
  0.9925552102721724  0.3742809049791731  0.5103197322388269
  0.4874802768583066  0.3715627430767583  0.5119443427456574
  0.4832383967587432  0.8788946220708311  0.5057388568550607
  0.9938656021813941  0.3748929286782356  0.7395668698496962
  0.0077894237659777  0.8794989118392920  0.2411374433869184
  0.9976418257439121  0.8751053581540020  0.7394379519118459
  0.5129629726678644  0.3708293049080780  0.2375925525222016
  0.4952831834616305  0.3735264008448524  0.7392331723543677
  0.5060007617878384  0.8758200670671243  0.2400590452647933
  0.4999796446128002  0.8754626683575992  0.7458440640942428
  0.2536350937529264  0.1241318432256406  0.9992177277272773
  0.2414112489900830  0.1244270185709411  0.5012240089025966
  0.2400701495114461  0.6262993538907864  0.5103103511656641
  0.7526522210373159  0.1257826314379145  0.0082679681269227
  0.7665691456822614  0.6250800162239898  0.0081320146449926
  0.7360607303231603  0.6257604937056271  0.5052384846869700
  0.2665383004537887  0.1262087612459979  0.2471317700606619
  0.2487686767761375  0.1246113857020177  0.7517916824352184
  0.2634426668164593  0.6214227868756836  0.2351415546709248
  0.7663337188748898  0.1262021973820993  0.2431187705392759
  0.7571634803844773  0.6241721673899292  0.2431719173888993
  0.7372636442260756  0.6249178979968875  0.7435400182842713
  0.2416964827447003  0.3761040781015268  0.9908483114495539
  0.2382248055563210  0.8718385872204735  0.9971661308293065
  0.7401311214211717  0.3747856243045291  0.9849610430721754
  0.7630977185609780  0.3724901219512304  0.4880383101248356
  0.7356473282362401  0.8742534769939283  0.0018359707754740
  0.7673261976104726  0.8768913094729811  0.4986370807823022
  0.2575784990205463  0.3761230272595242  0.7620936894019579
  0.2435642299051750  0.8749905167068093  0.2555677201521362
  0.2505641774900838  0.8729810892726064  0.7517475252925436
  0.7355979431889850  0.3735762549008612  0.2673360699211145
  0.7582529863242797  0.3740435151139323  0.7610354894147022
  0.7387667827898667  0.8754657215138693  0.2500783191432490
  0.7538405480869415  0.8752358089709844  0.7491080163865504
 
  0.00000000E+00  0.00000000E+00  0.00000000E+00
  0.00000000E+00  0.00000000E+00  0.00000000E+00
  0.00000000E+00  0.00000000E+00  0.00000000E+00
  0.00000000E+00  0.00000000E+00  0.00000000E+00
  0.00000000E+00  0.00000000E+00  0.00000000E+00
  0.00000000E+00  0.00000000E+00  0.00000000E+00
  0.00000000E+00  0.00000000E+00  0.00000000E+00
  0.00000000E+00  0.00000000E+00  0.00000000E+00
  0.00000000E+00  0.00000000E+00  0.00000000E+00
  0.00000000E+00  0.00000000E+00  0.00000000E+00
  0.00000000E+00  0.00000000E+00  0.00000000E+00
  0.00000000E+00  0.00000000E+00  0.00000000E+00
  0.00000000E+00  0.00000000E+00  0.00000000E+00
  0.00000000E+00  0.00000000E+00  0.00000000E+00
  0.00000000E+00  0.00000000E+00  0.00000000E+00
  0.00000000E+00  0.00000000E+00  0.00000000E+00
  0.00000000E+00  0.00000000E+00  0.00000000E+00
  0.00000000E+00  0.00000000E+00  0.00000000E+00
  0.00000000E+00  0.00000000E+00  0.00000000E+00
  0.00000000E+00  0.00000000E+00  0.00000000E+00
  0.00000000E+00  0.00000000E+00  0.00000000E+00
  0.00000000E+00  0.00000000E+00  0.00000000E+00
  0.00000000E+00  0.00000000E+00  0.00000000E+00
  0.00000000E+00  0.00000000E+00  0.00000000E+00
  0.00000000E+00  0.00000000E+00  0.00000000E+00
  0.00000000E+00  0.00000000E+00  0.00000000E+00
  0.00000000E+00  0.00000000E+00  0.00000000E+00
  0.00000000E+00  0.00000000E+00  0.00000000E+00
  0.00000000E+00  0.00000000E+00  0.00000000E+00
  0.00000000E+00  0.00000000E+00  0.00000000E+00
  0.00000000E+00  0.00000000E+00  0.00000000E+00
  0.00000000E+00  0.00000000E+00  0.00000000E+00
  0.00000000E+00  0.00000000E+00  0.00000000E+00
  0.00000000E+00  0.00000000E+00  0.00000000E+00
  0.00000000E+00  0.00000000E+00  0.00000000E+00
  0.00000000E+00  0.00000000E+00  0.00000000E+00
  0.00000000E+00  0.00000000E+00  0.00000000E+00
  0.00000000E+00  0.00000000E+00  0.00000000E+00
  0.00000000E+00  0.00000000E+00  0.00000000E+00
  0.00000000E+00  0.00000000E+00  0.00000000E+00
  0.00000000E+00  0.00000000E+00  0.00000000E+00
  0.00000000E+00  0.00000000E+00  0.00000000E+00
  0.00000000E+00  0.00000000E+00  0.00000000E+00
  0.00000000E+00  0.00000000E+00  0.00000000E+00
  0.00000000E+00  0.00000000E+00  0.00000000E+00
  0.00000000E+00  0.00000000E+00  0.00000000E+00
  0.00000000E+00  0.00000000E+00  0.00000000E+00
  0.00000000E+00  0.00000000E+00  0.00000000E+00
  0.00000000E+00  0.00000000E+00  0.00000000E+00
  0.00000000E+00  0.00000000E+00  0.00000000E+00
  0.00000000E+00  0.00000000E+00  0.00000000E+00
  0.00000000E+00  0.00000000E+00  0.00000000E+00
  0.00000000E+00  0.00000000E+00  0.00000000E+00
  0.00000000E+00  0.00000000E+00  0.00000000E+00
  0.00000000E+00  0.00000000E+00  0.00000000E+00
  0.00000000E+00  0.00000000E+00  0.00000000E+00
  0.00000000E+00  0.00000000E+00  0.00000000E+00
  0.00000000E+00  0.00000000E+00  0.00000000E+00
  0.00000000E+00  0.00000000E+00  0.00000000E+00
  0.00000000E+00  0.00000000E+00  0.00000000E+00
  0.00000000E+00  0.00000000E+00  0.00000000E+00
  0.00000000E+00  0.00000000E+00  0.00000000E+00
  0.00000000E+00  0.00000000E+00  0.00000000E+00
  0.00000000E+00  0.00000000E+00  0.00000000E+00
  0.00000000E+00  0.00000000E+00  0.00000000E+00
  0.00000000E+00  0.00000000E+00  0.00000000E+00
  0.00000000E+00  0.00000000E+00  0.00000000E+00
  0.00000000E+00  0.00000000E+00  0.00000000E+00
  0.00000000E+00  0.00000000E+00  0.00000000E+00
  0.00000000E+00  0.00000000E+00  0.00000000E+00
  0.00000000E+00  0.00000000E+00  0.00000000E+00
  0.00000000E+00  0.00000000E+00  0.00000000E+00
  0.00000000E+00  0.00000000E+00  0.00000000E+00
  0.00000000E+00  0.00000000E+00  0.00000000E+00
  0.00000000E+00  0.00000000E+00  0.00000000E+00
  0.00000000E+00  0.00000000E+00  0.00000000E+00
  0.00000000E+00  0.00000000E+00  0.00000000E+00
  0.00000000E+00  0.00000000E+00  0.00000000E+00
  0.00000000E+00  0.00000000E+00  0.00000000E+00
  0.00000000E+00  0.00000000E+00  0.00000000E+00
  0.00000000E+00  0.00000000E+00  0.00000000E+00
  0.00000000E+00  0.00000000E+00  0.00000000E+00
  0.00000000E+00  0.00000000E+00  0.00000000E+00
  0.00000000E+00  0.00000000E+00  0.00000000E+00
  0.00000000E+00  0.00000000E+00  0.00000000E+00
  0.00000000E+00  0.00000000E+00  0.00000000E+00
  0.00000000E+00  0.00000000E+00  0.00000000E+00
  0.00000000E+00  0.00000000E+00  0.00000000E+00
  0.00000000E+00  0.00000000E+00  0.00000000E+00
  0.00000000E+00  0.00000000E+00  0.00000000E+00
  0.00000000E+00  0.00000000E+00  0.00000000E+00
  0.00000000E+00  0.00000000E+00  0.00000000E+00
  0.00000000E+00  0.00000000E+00  0.00000000E+00
  0.00000000E+00  0.00000000E+00  0.00000000E+00
  0.00000000E+00  0.00000000E+00  0.00000000E+00
  0.00000000E+00  0.00000000E+00  0.00000000E+00
  0.00000000E+00  0.00000000E+00  0.00000000E+00
  0.00000000E+00  0.00000000E+00  0.00000000E+00
  0.00000000E+00  0.00000000E+00  0.00000000E+00
  0.00000000E+00  0.00000000E+00  0.00000000E+00
  0.00000000E+00  0.00000000E+00  0.00000000E+00
  0.00000000E+00  0.00000000E+00  0.00000000E+00
  0.00000000E+00  0.00000000E+00  0.00000000E+00
  0.00000000E+00  0.00000000E+00  0.00000000E+00
  0.00000000E+00  0.00000000E+00  0.00000000E+00
  0.00000000E+00  0.00000000E+00  0.00000000E+00
  0.00000000E+00  0.00000000E+00  0.00000000E+00
  0.00000000E+00  0.00000000E+00  0.00000000E+00
  0.00000000E+00  0.00000000E+00  0.00000000E+00
  0.00000000E+00  0.00000000E+00  0.00000000E+00
  0.00000000E+00  0.00000000E+00  0.00000000E+00
  0.00000000E+00  0.00000000E+00  0.00000000E+00
  0.00000000E+00  0.00000000E+00  0.00000000E+00
  0.00000000E+00  0.00000000E+00  0.00000000E+00
  0.00000000E+00  0.00000000E+00  0.00000000E+00
  0.00000000E+00  0.00000000E+00  0.00000000E+00
  0.00000000E+00  0.00000000E+00  0.00000000E+00
  0.00000000E+00  0.00000000E+00  0.00000000E+00
  0.00000000E+00  0.00000000E+00  0.00000000E+00
  0.00000000E+00  0.00000000E+00  0.00000000E+00
  0.00000000E+00  0.00000000E+00  0.00000000E+00
  0.00000000E+00  0.00000000E+00  0.00000000E+00
  0.00000000E+00  0.00000000E+00  0.00000000E+00
  0.00000000E+00  0.00000000E+00  0.00000000E+00
  0.00000000E+00  0.00000000E+00  0.00000000E+00
  0.00000000E+00  0.00000000E+00  0.00000000E+00
  0.00000000E+00  0.00000000E+00  0.00000000E+00
  0.00000000E+00  0.00000000E+00  0.00000000E+00
  0.00000000E+00  0.00000000E+00  0.00000000E+00
  0.00000000E+00  0.00000000E+00  0.00000000E+00
  0.00000000E+00  0.00000000E+00  0.00000000E+00
  0.00000000E+00  0.00000000E+00  0.00000000E+00
  0.00000000E+00  0.00000000E+00  0.00000000E+00
  0.00000000E+00  0.00000000E+00  0.00000000E+00
  0.00000000E+00  0.00000000E+00  0.00000000E+00
  0.00000000E+00  0.00000000E+00  0.00000000E+00
  0.00000000E+00  0.00000000E+00  0.00000000E+00
  0.00000000E+00  0.00000000E+00  0.00000000E+00
  0.00000000E+00  0.00000000E+00  0.00000000E+00
  0.00000000E+00  0.00000000E+00  0.00000000E+00
  0.00000000E+00  0.00000000E+00  0.00000000E+00
  0.00000000E+00  0.00000000E+00  0.00000000E+00
  0.00000000E+00  0.00000000E+00  0.00000000E+00
  0.00000000E+00  0.00000000E+00  0.00000000E+00
  0.00000000E+00  0.00000000E+00  0.00000000E+00
  0.00000000E+00  0.00000000E+00  0.00000000E+00
  0.00000000E+00  0.00000000E+00  0.00000000E+00
  0.00000000E+00  0.00000000E+00  0.00000000E+00
  0.00000000E+00  0.00000000E+00  0.00000000E+00
  0.00000000E+00  0.00000000E+00  0.00000000E+00
  0.00000000E+00  0.00000000E+00  0.00000000E+00
  0.00000000E+00  0.00000000E+00  0.00000000E+00
  0.00000000E+00  0.00000000E+00  0.00000000E+00
  0.00000000E+00  0.00000000E+00  0.00000000E+00
  0.00000000E+00  0.00000000E+00  0.00000000E+00
  0.00000000E+00  0.00000000E+00  0.00000000E+00
  0.00000000E+00  0.00000000E+00  0.00000000E+00
  0.00000000E+00  0.00000000E+00  0.00000000E+00
  0.00000000E+00  0.00000000E+00  0.00000000E+00
  0.00000000E+00  0.00000000E+00  0.00000000E+00
  0.00000000E+00  0.00000000E+00  0.00000000E+00
  0.00000000E+00  0.00000000E+00  0.00000000E+00
  0.00000000E+00  0.00000000E+00  0.00000000E+00
  0.00000000E+00  0.00000000E+00  0.00000000E+00
  0.00000000E+00  0.00000000E+00  0.00000000E+00
  0.00000000E+00  0.00000000E+00  0.00000000E+00
  0.00000000E+00  0.00000000E+00  0.00000000E+00
  0.00000000E+00  0.00000000E+00  0.00000000E+00
  0.00000000E+00  0.00000000E+00  0.00000000E+00
  0.00000000E+00  0.00000000E+00  0.00000000E+00
  0.00000000E+00  0.00000000E+00  0.00000000E+00
  0.00000000E+00  0.00000000E+00  0.00000000E+00
  0.00000000E+00  0.00000000E+00  0.00000000E+00
  0.00000000E+00  0.00000000E+00  0.00000000E+00
  0.00000000E+00  0.00000000E+00  0.00000000E+00
  0.00000000E+00  0.00000000E+00  0.00000000E+00
  0.00000000E+00  0.00000000E+00  0.00000000E+00
  0.00000000E+00  0.00000000E+00  0.00000000E+00
  0.00000000E+00  0.00000000E+00  0.00000000E+00
  0.00000000E+00  0.00000000E+00  0.00000000E+00
  0.00000000E+00  0.00000000E+00  0.00000000E+00
  0.00000000E+00  0.00000000E+00  0.00000000E+00
  0.00000000E+00  0.00000000E+00  0.00000000E+00
  0.00000000E+00  0.00000000E+00  0.00000000E+00
  0.00000000E+00  0.00000000E+00  0.00000000E+00
  0.00000000E+00  0.00000000E+00  0.00000000E+00
  0.00000000E+00  0.00000000E+00  0.00000000E+00
  0.00000000E+00  0.00000000E+00  0.00000000E+00
  0.00000000E+00  0.00000000E+00  0.00000000E+00
  0.00000000E+00  0.00000000E+00  0.00000000E+00
  0.00000000E+00  0.00000000E+00  0.00000000E+00
  0.00000000E+00  0.00000000E+00  0.00000000E+00
  0.00000000E+00  0.00000000E+00  0.00000000E+00
  0.00000000E+00  0.00000000E+00  0.00000000E+00
  0.00000000E+00  0.00000000E+00  0.00000000E+00
  0.00000000E+00  0.00000000E+00  0.00000000E+00
  0.00000000E+00  0.00000000E+00  0.00000000E+00
  0.00000000E+00  0.00000000E+00  0.00000000E+00
  0.00000000E+00  0.00000000E+00  0.00000000E+00
  0.00000000E+00  0.00000000E+00  0.00000000E+00
  0.00000000E+00  0.00000000E+00  0.00000000E+00
  0.00000000E+00  0.00000000E+00  0.00000000E+00
  0.00000000E+00  0.00000000E+00  0.00000000E+00
  0.00000000E+00  0.00000000E+00  0.00000000E+00
  0.00000000E+00  0.00000000E+00  0.00000000E+00
  0.00000000E+00  0.00000000E+00  0.00000000E+00
  0.00000000E+00  0.00000000E+00  0.00000000E+00
  0.00000000E+00  0.00000000E+00  0.00000000E+00
  0.00000000E+00  0.00000000E+00  0.00000000E+00
  0.00000000E+00  0.00000000E+00  0.00000000E+00
  0.00000000E+00  0.00000000E+00  0.00000000E+00
  0.00000000E+00  0.00000000E+00  0.00000000E+00
  0.00000000E+00  0.00000000E+00  0.00000000E+00
  0.00000000E+00  0.00000000E+00  0.00000000E+00
  0.00000000E+00  0.00000000E+00  0.00000000E+00
  0.00000000E+00  0.00000000E+00  0.00000000E+00
  0.00000000E+00  0.00000000E+00  0.00000000E+00
  0.00000000E+00  0.00000000E+00  0.00000000E+00
  0.00000000E+00  0.00000000E+00  0.00000000E+00
  0.00000000E+00  0.00000000E+00  0.00000000E+00
  0.00000000E+00  0.00000000E+00  0.00000000E+00
  0.00000000E+00  0.00000000E+00  0.00000000E+00
  0.00000000E+00  0.00000000E+00  0.00000000E+00
  0.00000000E+00  0.00000000E+00  0.00000000E+00
  0.00000000E+00  0.00000000E+00  0.00000000E+00
  0.00000000E+00  0.00000000E+00  0.00000000E+00
  0.00000000E+00  0.00000000E+00  0.00000000E+00
  0.00000000E+00  0.00000000E+00  0.00000000E+00
  0.00000000E+00  0.00000000E+00  0.00000000E+00
  0.00000000E+00  0.00000000E+00  0.00000000E+00
  0.00000000E+00  0.00000000E+00  0.00000000E+00
  0.00000000E+00  0.00000000E+00  0.00000000E+00
  0.00000000E+00  0.00000000E+00  0.00000000E+00
  0.00000000E+00  0.00000000E+00  0.00000000E+00
  0.00000000E+00  0.00000000E+00  0.00000000E+00
  0.00000000E+00  0.00000000E+00  0.00000000E+00
  0.00000000E+00  0.00000000E+00  0.00000000E+00
  0.00000000E+00  0.00000000E+00  0.00000000E+00
  0.00000000E+00  0.00000000E+00  0.00000000E+00
  0.00000000E+00  0.00000000E+00  0.00000000E+00
  0.00000000E+00  0.00000000E+00  0.00000000E+00
  0.00000000E+00  0.00000000E+00  0.00000000E+00
  0.00000000E+00  0.00000000E+00  0.00000000E+00
  0.00000000E+00  0.00000000E+00  0.00000000E+00
  0.00000000E+00  0.00000000E+00  0.00000000E+00
  0.00000000E+00  0.00000000E+00  0.00000000E+00
  0.00000000E+00  0.00000000E+00  0.00000000E+00
  0.00000000E+00  0.00000000E+00  0.00000000E+00
  0.00000000E+00  0.00000000E+00  0.00000000E+00
  0.00000000E+00  0.00000000E+00  0.00000000E+00
  0.00000000E+00  0.00000000E+00  0.00000000E+00
  0.00000000E+00  0.00000000E+00  0.00000000E+00
  0.00000000E+00  0.00000000E+00  0.00000000E+00
  0.00000000E+00  0.00000000E+00  0.00000000E+00
  0.00000000E+00  0.00000000E+00  0.00000000E+00
  0.00000000E+00  0.00000000E+00  0.00000000E+00
  0.00000000E+00  0.00000000E+00  0.00000000E+00
