TiOF2 2x2x2 config 0019                 
   1.00000000000000     
     7.9145670202377918    0.0000048830181619    0.0000017489013341
     0.0000047935438219    7.7573831113811664   -0.0000169192142593
     0.0000017015016917   -0.0000164265228373    7.5453415092453024
   Ti   O    F 
     8     8    16
Direct
  1.0000000064399572  0.9999985198671022  0.9875421607899578
  0.0000000107070681 -0.0000016929264514  0.5094718999500493
  0.9999999575017344  0.4999986889497331  0.0001090031238048
  0.0000000238446300  0.4999987905765588  0.4998360978828129
  0.5000000033233986  0.0000001429716393  0.0001137411564105
  0.5000000203108407  1.0000040151694702  0.5006761169330312
  0.4999999789044735  0.4999995986107574  0.0171371440379731
  0.5000000282830181  0.5000048825866886  0.4979619821746777
  0.5000000392304089  0.2540334565469843  0.5017374725432482
  0.4999999970539629  0.7459761582111162  0.5017390333885480
  0.0000000423788306  0.9999971517618457  0.7503794332379289
  0.9999999762252172  0.4999975332948743  0.2483404479906077
  0.0000000214419691  0.5000003119714390  0.7518365020667229
  0.5000000394936951  0.0000014541971934  0.2417901046437517
  0.4999999902265509  0.0000007697326120  0.7564672858002313
  0.5000000261323539  0.5000011295678164  0.2447875690262970
  0.2407485572932383  0.9999990146932110  0.0043393959290685
  0.2380885908722400 -0.0000010852664667  0.4943775718462617
  0.2492807413122246  0.4999989272263972  0.9968079271133647
  0.2434744364778892  0.5000011591710315  0.5030000518911211
  0.7592514505827135  0.9999989925188785  0.0043393191693057
  0.7619114320538701 -0.0000012931962723  0.4943776374703092
  0.7507191494068320  0.4999987841474270  0.9968075783570416
  0.7565255994873706  0.5000009959746609  0.5030001083246542
  1.0000000006863194  0.2459443932875305  0.0052857539945486
 -0.0000000164509251  0.2460917074130267  0.4948810680869852
  0.9999999935377734  0.7540527175898299  0.0052878257867761
 -0.0000000204529094  0.7539038633193792  0.4948749537178356
  0.5000000153982530  0.2536108156365616  0.9928178063007383
  0.4999999825408963  0.7463867907312545  0.9928193149993648
  0.9999999557426804 -0.0000002057712741  0.2486546951306986
  0.4999999700133980  0.5000035114354509  0.7584029971358953
 
  0.00000000E+00  0.00000000E+00  0.00000000E+00
  0.00000000E+00  0.00000000E+00  0.00000000E+00
  0.00000000E+00  0.00000000E+00  0.00000000E+00
  0.00000000E+00  0.00000000E+00  0.00000000E+00
  0.00000000E+00  0.00000000E+00  0.00000000E+00
  0.00000000E+00  0.00000000E+00  0.00000000E+00
  0.00000000E+00  0.00000000E+00  0.00000000E+00
  0.00000000E+00  0.00000000E+00  0.00000000E+00
  0.00000000E+00  0.00000000E+00  0.00000000E+00
  0.00000000E+00  0.00000000E+00  0.00000000E+00
  0.00000000E+00  0.00000000E+00  0.00000000E+00
  0.00000000E+00  0.00000000E+00  0.00000000E+00
  0.00000000E+00  0.00000000E+00  0.00000000E+00
  0.00000000E+00  0.00000000E+00  0.00000000E+00
  0.00000000E+00  0.00000000E+00  0.00000000E+00
  0.00000000E+00  0.00000000E+00  0.00000000E+00
  0.00000000E+00  0.00000000E+00  0.00000000E+00
  0.00000000E+00  0.00000000E+00  0.00000000E+00
  0.00000000E+00  0.00000000E+00  0.00000000E+00
  0.00000000E+00  0.00000000E+00  0.00000000E+00
  0.00000000E+00  0.00000000E+00  0.00000000E+00
  0.00000000E+00  0.00000000E+00  0.00000000E+00
  0.00000000E+00  0.00000000E+00  0.00000000E+00
  0.00000000E+00  0.00000000E+00  0.00000000E+00
  0.00000000E+00  0.00000000E+00  0.00000000E+00
  0.00000000E+00  0.00000000E+00  0.00000000E+00
  0.00000000E+00  0.00000000E+00  0.00000000E+00
  0.00000000E+00  0.00000000E+00  0.00000000E+00
  0.00000000E+00  0.00000000E+00  0.00000000E+00
  0.00000000E+00  0.00000000E+00  0.00000000E+00
  0.00000000E+00  0.00000000E+00  0.00000000E+00
  0.00000000E+00  0.00000000E+00  0.00000000E+00
