TiOF2 2x2x2 config 0008                 
   1.00000000000000     
     7.9030987038062213   -0.0000027385817697   -0.0000030548139794
    -0.0000026958170675    7.7908280587038030   -0.0000045577275265
    -0.0000028998424429   -0.0000043865078367    7.5144349171163736
   Ti   O    F 
     8     8    16
Direct
  0.9999999280582728  0.0002691777192751  0.9893048674906453
  0.9999999417623826  0.0002691484620456  0.5106951574220204
  0.0000000834096028  0.4999285336714649  0.0006555174020733
  0.0000000934438447  0.4999285223584380  0.4993446722776298
  0.4999999465709379  0.9906460706713460  0.0006782375061860
  0.4999999538455100  0.9906459616796681  0.4993210046030399
  0.5000000380112439  0.5157625178953538  0.9893680180096354
  0.5000000594489720  0.5157625396928438  0.5106321280090356
  0.4999998014573066  0.7470555682947051  0.0036700123352631
  0.4999998697843537  0.7470555184623962  0.4963300736618095
  0.0000000140037884  0.9995312558826939  0.7499999727402979
  0.0000000536265503  0.5005518080362421  0.2500000016482744
  0.9999999795577352  0.5008127437292558  0.7499999921580098
  0.4999999756430498  0.0053200556111719  0.2499999322779232
  0.4999999559688177  0.0059154873869929  0.7500000933177020
  0.5000000916440044  0.4900145229510429  0.7500001060339798
  0.2398093916450250  0.0013390190763474  0.0050172393613011
  0.2398093717915799  0.0013388010854101  0.4949826932675094
  0.2465000596161673  0.4987117375899714  0.0034026625986527
  0.2465000546742999  0.4987117928590905  0.4965972844293560
  0.7601904736942302  0.0013391558002596  0.0050172521274661
  0.7601904949721785  0.0013391364694257  0.4949827684680841
  0.7535002107090776  0.4987112878519113  0.0034031703821142
  0.7535002525345433  0.4987112009139381  0.4965969729122506
  0.9999997317846550  0.2458904221668661  0.0047416437053158
  0.9999997964586811  0.2458903786629421  0.4952582933236513
  0.0000001667094480  0.7544180489825294  0.0049051120891193
  0.0000000511920959  0.7544180208144766  0.4950949489440077
  0.5000000806441420  0.2525674216835867  0.0041363860695185
  0.5000000276328507  0.2525674712298667  0.4958637421719345
  0.9999999932285348  0.9996743915385551  0.2500000103574678
  0.5000000564761251  0.4849022807698873  0.2500000328987255
 
  0.00000000E+00  0.00000000E+00  0.00000000E+00
  0.00000000E+00  0.00000000E+00  0.00000000E+00
  0.00000000E+00  0.00000000E+00  0.00000000E+00
  0.00000000E+00  0.00000000E+00  0.00000000E+00
  0.00000000E+00  0.00000000E+00  0.00000000E+00
  0.00000000E+00  0.00000000E+00  0.00000000E+00
  0.00000000E+00  0.00000000E+00  0.00000000E+00
  0.00000000E+00  0.00000000E+00  0.00000000E+00
  0.00000000E+00  0.00000000E+00  0.00000000E+00
  0.00000000E+00  0.00000000E+00  0.00000000E+00
  0.00000000E+00  0.00000000E+00  0.00000000E+00
  0.00000000E+00  0.00000000E+00  0.00000000E+00
  0.00000000E+00  0.00000000E+00  0.00000000E+00
  0.00000000E+00  0.00000000E+00  0.00000000E+00
  0.00000000E+00  0.00000000E+00  0.00000000E+00
  0.00000000E+00  0.00000000E+00  0.00000000E+00
  0.00000000E+00  0.00000000E+00  0.00000000E+00
  0.00000000E+00  0.00000000E+00  0.00000000E+00
  0.00000000E+00  0.00000000E+00  0.00000000E+00
  0.00000000E+00  0.00000000E+00  0.00000000E+00
  0.00000000E+00  0.00000000E+00  0.00000000E+00
  0.00000000E+00  0.00000000E+00  0.00000000E+00
  0.00000000E+00  0.00000000E+00  0.00000000E+00
  0.00000000E+00  0.00000000E+00  0.00000000E+00
  0.00000000E+00  0.00000000E+00  0.00000000E+00
  0.00000000E+00  0.00000000E+00  0.00000000E+00
  0.00000000E+00  0.00000000E+00  0.00000000E+00
  0.00000000E+00  0.00000000E+00  0.00000000E+00
  0.00000000E+00  0.00000000E+00  0.00000000E+00
  0.00000000E+00  0.00000000E+00  0.00000000E+00
  0.00000000E+00  0.00000000E+00  0.00000000E+00
  0.00000000E+00  0.00000000E+00  0.00000000E+00
