Ti27 O27 F54                            
   1.00000000000000     
    11.5764082106282462   -0.0074938325448616    0.0082733495993164
    -0.0074847574366371   11.5960823038416301   -0.0042098132285875
     0.0082765666987288   -0.0041894970051197   11.5981427625277611
   Ti   O    F 
    27    27    54
Direct
  0.0077130019402134 -0.0116354816018515  0.0009902391006104
  0.0010459992624115 -0.0107534382830943  0.3444540275214448
 -0.0051208472312223  0.0127161989654550  0.6583692633694580
 -0.0119154033587330  0.3339283098271669 -0.0113545499040734
 -0.0116671840752880  0.3336727461877489  0.3335534173566415
 -0.0110932800353102  0.3230317446796298  0.6752288097096957
 -0.0100194477042550  0.6731595018590560  0.0097231170741693
  0.0000303909144424  0.6756262090718371  0.3202239793095272
  0.0012997937875066  0.6669286489336734  0.6660670652766526
  0.3225683590382779  0.0013946418958214 -0.0059166420555218
  0.3452795931391270  0.0097828373688650  0.3351912006344542
  0.3345958264105091 -0.0008516843051515  0.6790516782231681
  0.3325280154419061  0.3457390386604197  0.0001683088909878
  0.3327787205530080  0.3231616502122978  0.3440157238907746
  0.3331569378554967  0.3453622505838988  0.6576197331072140
  0.3340561023228965  0.6612326444659503 -0.0134732742573432
  0.3420160547923365  0.6674448075150713  0.3327522082854851
  0.3469652196299493  0.6589408442434069  0.6737812971118542
  0.6658389539682353  0.0119022835495681  0.0104969477071915
  0.6579922841967680  0.0072656138092385  0.3227697765848681
  0.6803958790814656 -0.0008663272337098  0.6666191004343324
  0.6762468864605636  0.3267999591401605 -0.0099875116139601
  0.6720510952859042  0.3208399425907132  0.3330501600229125
  0.6760528169562654  0.3428098282943316  0.6756195921249356
  0.6758433328359769  0.6663912096897709 -0.0128019175613010
  0.6578248067111758  0.6670621380800216  0.3340331603144865
  0.6554790202458695  0.6551308612736001  0.6741248408969244
  0.0076067294345384  0.1658586676132828  0.6656433697504177
 -0.0007895714733316  0.8332685217054961  0.0014804040981582
 -0.0015573514469607  0.8317844842594360  0.3293568935031922
  0.3389493187417260  0.1671341554428802  0.3319441835137100
  0.3309603700470798  0.4993751616677225 -0.0048054545490474
  0.3353973429702498  0.4997835322458733  0.6729409475121469
  0.6659015424826509  0.1663903635144439  0.0029385125964481
  0.6602827321475911  0.1677665914957083  0.3309629903242048
  0.6646326784407113  0.5005873316364763  0.6589977424687418
  0.1677562407786456  0.0037512878115320  0.0024546592616160
  0.4989565236691378 -0.0124846371143782  0.3389281457253363
  0.4993443382206947  0.6727195949693271  0.3370029360293815
  0.4993560497823823  0.6745398332230901  0.6517737920766912
  0.8323691344502439  0.0011588630973695  0.6717189575565732
  0.8341814213645985  0.3427471183538019  0.0094409935793522
  0.8346275543142041  0.3338732683333970  0.3355776845027309
  0.8334726344490531  0.3306206044790710  0.6551756727356886
  0.8330797498837097  0.6583693675539165 -0.0031371484364425
  0.0049136824433549 -0.0041071019804258  0.4994802566832640
 -0.0016088401341176  0.3367597178406602  0.8335968936422308
  0.0018861268532272  0.6581851398292501  0.1676992750701539
  0.3380096150703391 -0.0031335105151497  0.8326581989547863
  0.3328854884738282  0.3360952495219705  0.4992794584613915
  0.3392610601064465  0.6771331076701208  0.8340605731365496
  0.6695191994703745 -0.0065850701671358  0.1668675698103050
  0.6680285037779570  0.3360108754437335  0.8337363007828236
  0.6596569666975725  0.6648484809619396  0.8334737331146658
 -0.0047264587550928  0.1656965745975321  0.0015878311048988
  0.0046567804383929  0.1677146118753906  0.3319810061543876
  0.0163774555940663  0.5006785804907665 -0.0021087783248426
  0.0030168641521267  0.5003600159094045  0.3426280876266012
  0.0028779472906961  0.5038916410789535  0.6600316374961188
  0.0016351484289475  0.8296049331879661  0.6717051011618852
  0.3399034962321277  0.1676878291485672  0.0055346113555288
  0.3294331449565299  0.1641675046455128  0.6653860305853304
  0.3323374127054844  0.5025452952673356  0.3287000281677241
  0.3328993578619837  0.8335052539529594  0.0096210100893862
  0.3217902432158185  0.8316356749349292  0.3347612535978930
  0.3274984323195775  0.8340764880390619  0.6569731830083444
  0.6589704081373368  0.1635992174734831  0.6638748603495979
  0.6527417598234789  0.5012776848088460  0.0085954315731329
  0.6646673965099105  0.5027286311629527  0.3369966008684673
  0.6679310594940003  0.8336421981338921 -0.0018962122206950
  0.6796918660411879  0.8307772288276385  0.3372360374516999
  0.6708457991894947  0.8331261292579205  0.6640316205298723
  0.1681172793876251  0.0007947871496711  0.3244974783924310
  0.1679579770134881 -0.0075308069434693  0.6718185960310086
  0.1681311325213184  0.3236171817641426  0.0035206636162067
  0.1663254892214282  0.3361497123216582  0.3289723395470667
  0.1668792338672528  0.3367574638257775  0.6683270335393788
  0.1677140015109633  0.6710308332666869 -0.0025996043773048
  0.1680632933974372  0.6623625580187270  0.3371801560769732
  0.1648528969935744  0.6690815218063372  0.6635032151441397
  0.4977727777451804 -0.0044648131615743  0.0024485643469662
  0.4992497607584340 -0.0045715128415608  0.6571969106934304
  0.4972369324470532  0.3331563982066543  0.0026977656523007
  0.4991285413577938  0.3461886139230068  0.3285678981335729
  0.4980497818369697  0.3239963362051522  0.6693888632836482
  0.4992044934318188  0.6717386421686038  0.0140336842659119
  0.8336398045507881  0.0000346122403822 -0.0104274435336889
  0.8336207534492133  0.0054874899885434  0.3375276381043116
  0.8319576123764234  0.6582687561914952  0.3341389341881448
  0.8378009937996852  0.6687244033276367  0.6684140756914319
 -0.0079801220620608  0.0063907085518462  0.1674631956471208
  0.0041657540327118 -0.0018441802443761  0.8329740886389295
  0.0068831964400514  0.3377937368230196  0.1688803377940483
  0.0117293766997403  0.3343587013976958  0.4978028410086588
 -0.0013712017457580  0.6692590273205619  0.5023358565623389
  0.0053089085757146  0.6610823809522351  0.8293561054823381
  0.3371998275428265 -0.0029305188575703  0.1668075720543714
  0.3235947376969788  0.0001228889598959  0.5019625090329694
  0.3323615677614629  0.3369910133260237  0.1668411477714181
  0.3316912358417830  0.3219811149006881  0.8346460108066081
  0.3281407858694332  0.6677877781682473  0.1686313720139833
  0.3234070728886524  0.6643256745050877  0.4972218191153047
  0.6704714515067766 -0.0029675585858072  0.5001848598093616
  0.6559877556983975 -0.0033654031471761  0.8318574137940893
  0.6605183857720686  0.3417256859110476  0.1687696832756806
  0.6543615657608128  0.3313191753647394  0.4980154090767078
  0.6681625674390100  0.6698606619912467  0.1702212781016606
  0.6780940955374941  0.6719034640443108  0.4975650971824990
 
  0.00000000E+00  0.00000000E+00  0.00000000E+00
  0.00000000E+00  0.00000000E+00  0.00000000E+00
  0.00000000E+00  0.00000000E+00  0.00000000E+00
  0.00000000E+00  0.00000000E+00  0.00000000E+00
  0.00000000E+00  0.00000000E+00  0.00000000E+00
  0.00000000E+00  0.00000000E+00  0.00000000E+00
  0.00000000E+00  0.00000000E+00  0.00000000E+00
  0.00000000E+00  0.00000000E+00  0.00000000E+00
  0.00000000E+00  0.00000000E+00  0.00000000E+00
  0.00000000E+00  0.00000000E+00  0.00000000E+00
  0.00000000E+00  0.00000000E+00  0.00000000E+00
  0.00000000E+00  0.00000000E+00  0.00000000E+00
  0.00000000E+00  0.00000000E+00  0.00000000E+00
  0.00000000E+00  0.00000000E+00  0.00000000E+00
  0.00000000E+00  0.00000000E+00  0.00000000E+00
  0.00000000E+00  0.00000000E+00  0.00000000E+00
  0.00000000E+00  0.00000000E+00  0.00000000E+00
  0.00000000E+00  0.00000000E+00  0.00000000E+00
  0.00000000E+00  0.00000000E+00  0.00000000E+00
  0.00000000E+00  0.00000000E+00  0.00000000E+00
  0.00000000E+00  0.00000000E+00  0.00000000E+00
  0.00000000E+00  0.00000000E+00  0.00000000E+00
  0.00000000E+00  0.00000000E+00  0.00000000E+00
  0.00000000E+00  0.00000000E+00  0.00000000E+00
  0.00000000E+00  0.00000000E+00  0.00000000E+00
  0.00000000E+00  0.00000000E+00  0.00000000E+00
  0.00000000E+00  0.00000000E+00  0.00000000E+00
  0.00000000E+00  0.00000000E+00  0.00000000E+00
  0.00000000E+00  0.00000000E+00  0.00000000E+00
  0.00000000E+00  0.00000000E+00  0.00000000E+00
  0.00000000E+00  0.00000000E+00  0.00000000E+00
  0.00000000E+00  0.00000000E+00  0.00000000E+00
  0.00000000E+00  0.00000000E+00  0.00000000E+00
  0.00000000E+00  0.00000000E+00  0.00000000E+00
  0.00000000E+00  0.00000000E+00  0.00000000E+00
  0.00000000E+00  0.00000000E+00  0.00000000E+00
  0.00000000E+00  0.00000000E+00  0.00000000E+00
  0.00000000E+00  0.00000000E+00  0.00000000E+00
  0.00000000E+00  0.00000000E+00  0.00000000E+00
  0.00000000E+00  0.00000000E+00  0.00000000E+00
  0.00000000E+00  0.00000000E+00  0.00000000E+00
  0.00000000E+00  0.00000000E+00  0.00000000E+00
  0.00000000E+00  0.00000000E+00  0.00000000E+00
  0.00000000E+00  0.00000000E+00  0.00000000E+00
  0.00000000E+00  0.00000000E+00  0.00000000E+00
  0.00000000E+00  0.00000000E+00  0.00000000E+00
  0.00000000E+00  0.00000000E+00  0.00000000E+00
  0.00000000E+00  0.00000000E+00  0.00000000E+00
  0.00000000E+00  0.00000000E+00  0.00000000E+00
  0.00000000E+00  0.00000000E+00  0.00000000E+00
  0.00000000E+00  0.00000000E+00  0.00000000E+00
  0.00000000E+00  0.00000000E+00  0.00000000E+00
  0.00000000E+00  0.00000000E+00  0.00000000E+00
  0.00000000E+00  0.00000000E+00  0.00000000E+00
  0.00000000E+00  0.00000000E+00  0.00000000E+00
  0.00000000E+00  0.00000000E+00  0.00000000E+00
  0.00000000E+00  0.00000000E+00  0.00000000E+00
  0.00000000E+00  0.00000000E+00  0.00000000E+00
  0.00000000E+00  0.00000000E+00  0.00000000E+00
  0.00000000E+00  0.00000000E+00  0.00000000E+00
  0.00000000E+00  0.00000000E+00  0.00000000E+00
  0.00000000E+00  0.00000000E+00  0.00000000E+00
  0.00000000E+00  0.00000000E+00  0.00000000E+00
  0.00000000E+00  0.00000000E+00  0.00000000E+00
  0.00000000E+00  0.00000000E+00  0.00000000E+00
  0.00000000E+00  0.00000000E+00  0.00000000E+00
  0.00000000E+00  0.00000000E+00  0.00000000E+00
  0.00000000E+00  0.00000000E+00  0.00000000E+00
  0.00000000E+00  0.00000000E+00  0.00000000E+00
  0.00000000E+00  0.00000000E+00  0.00000000E+00
  0.00000000E+00  0.00000000E+00  0.00000000E+00
  0.00000000E+00  0.00000000E+00  0.00000000E+00
  0.00000000E+00  0.00000000E+00  0.00000000E+00
  0.00000000E+00  0.00000000E+00  0.00000000E+00
  0.00000000E+00  0.00000000E+00  0.00000000E+00
  0.00000000E+00  0.00000000E+00  0.00000000E+00
  0.00000000E+00  0.00000000E+00  0.00000000E+00
  0.00000000E+00  0.00000000E+00  0.00000000E+00
  0.00000000E+00  0.00000000E+00  0.00000000E+00
  0.00000000E+00  0.00000000E+00  0.00000000E+00
  0.00000000E+00  0.00000000E+00  0.00000000E+00
  0.00000000E+00  0.00000000E+00  0.00000000E+00
  0.00000000E+00  0.00000000E+00  0.00000000E+00
  0.00000000E+00  0.00000000E+00  0.00000000E+00
  0.00000000E+00  0.00000000E+00  0.00000000E+00
  0.00000000E+00  0.00000000E+00  0.00000000E+00
  0.00000000E+00  0.00000000E+00  0.00000000E+00
  0.00000000E+00  0.00000000E+00  0.00000000E+00
  0.00000000E+00  0.00000000E+00  0.00000000E+00
  0.00000000E+00  0.00000000E+00  0.00000000E+00
  0.00000000E+00  0.00000000E+00  0.00000000E+00
  0.00000000E+00  0.00000000E+00  0.00000000E+00
  0.00000000E+00  0.00000000E+00  0.00000000E+00
  0.00000000E+00  0.00000000E+00  0.00000000E+00
  0.00000000E+00  0.00000000E+00  0.00000000E+00
  0.00000000E+00  0.00000000E+00  0.00000000E+00
  0.00000000E+00  0.00000000E+00  0.00000000E+00
  0.00000000E+00  0.00000000E+00  0.00000000E+00
  0.00000000E+00  0.00000000E+00  0.00000000E+00
  0.00000000E+00  0.00000000E+00  0.00000000E+00
  0.00000000E+00  0.00000000E+00  0.00000000E+00
  0.00000000E+00  0.00000000E+00  0.00000000E+00
  0.00000000E+00  0.00000000E+00  0.00000000E+00
  0.00000000E+00  0.00000000E+00  0.00000000E+00
  0.00000000E+00  0.00000000E+00  0.00000000E+00
  0.00000000E+00  0.00000000E+00  0.00000000E+00
  0.00000000E+00  0.00000000E+00  0.00000000E+00
  0.00000000E+00  0.00000000E+00  0.00000000E+00
